<?xml version="1.0"?> 
<VTKFile type="UnstructuredGrid"> 
   <UnstructuredGrid> 
      <Piece NumberOfPoints="6000"  NumberOfCells="1500">  
          <Points>  
             <DataArray type="Float64" NumberOfComponents="3" format="ascii">   
-500.0   0.0   0.0
-450.0   0.0   0.0
-500.0   30.0   0.0
-500.0   0.0   16.666666666666668
-450.0   0.0   0.0
-450.0   30.0   0.0
-500.0   30.0   0.0
-450.0   30.0   16.666666666666668
-500.0   0.0   16.666666666666668
-500.0   30.0   16.666666666666668
-450.0   30.0   16.666666666666668
-500.0   30.0   0.0
-500.0   0.0   16.666666666666668
-450.0   30.0   16.666666666666668
-450.0   0.0   16.666666666666668
-450.0   0.0   0.0
-500.0   0.0   16.666666666666668
-450.0   30.0   16.666666666666668
-450.0   0.0   0.0
-500.0   30.0   0.0
-500.0   0.0   16.666666666666668
-450.0   0.0   16.666666666666668
-500.0   30.0   16.666666666666668
-500.0   0.0   33.333333333333336
-450.0   0.0   16.666666666666668
-450.0   30.0   16.666666666666668
-500.0   30.0   16.666666666666668
-450.0   30.0   33.333333333333336
-500.0   0.0   33.333333333333336
-500.0   30.0   33.333333333333336
-450.0   30.0   33.333333333333336
-500.0   30.0   16.666666666666668
-500.0   0.0   33.333333333333336
-450.0   30.0   33.333333333333336
-450.0   0.0   33.333333333333336
-450.0   0.0   16.666666666666668
-500.0   0.0   33.333333333333336
-450.0   30.0   33.333333333333336
-450.0   0.0   16.666666666666668
-500.0   30.0   16.666666666666668
-500.0   0.0   33.333333333333336
-450.0   0.0   33.333333333333336
-500.0   30.0   33.333333333333336
-500.0   0.0   50.0
-450.0   0.0   33.333333333333336
-450.0   30.0   33.333333333333336
-500.0   30.0   33.333333333333336
-450.0   30.0   50.0
-500.0   0.0   50.0
-500.0   30.0   50.0
-450.0   30.0   50.0
-500.0   30.0   33.333333333333336
-500.0   0.0   50.0
-450.0   30.0   50.0
-450.0   0.0   50.0
-450.0   0.0   33.333333333333336
-500.0   0.0   50.0
-450.0   30.0   50.0
-450.0   0.0   33.333333333333336
-500.0   30.0   33.333333333333336
-500.0   30.0   0.0
-450.0   30.0   0.0
-500.0   60.0   0.0
-500.0   30.0   16.666666666666668
-450.0   30.0   0.0
-450.0   60.0   0.0
-500.0   60.0   0.0
-450.0   60.0   16.666666666666668
-500.0   30.0   16.666666666666668
-500.0   60.0   16.666666666666668
-450.0   60.0   16.666666666666668
-500.0   60.0   0.0
-500.0   30.0   16.666666666666668
-450.0   60.0   16.666666666666668
-450.0   30.0   16.666666666666668
-450.0   30.0   0.0
-500.0   30.0   16.666666666666668
-450.0   60.0   16.666666666666668
-450.0   30.0   0.0
-500.0   60.0   0.0
-500.0   30.0   16.666666666666668
-450.0   30.0   16.666666666666668
-500.0   60.0   16.666666666666668
-500.0   30.0   33.333333333333336
-450.0   30.0   16.666666666666668
-450.0   60.0   16.666666666666668
-500.0   60.0   16.666666666666668
-450.0   60.0   33.333333333333336
-500.0   30.0   33.333333333333336
-500.0   60.0   33.333333333333336
-450.0   60.0   33.333333333333336
-500.0   60.0   16.666666666666668
-500.0   30.0   33.333333333333336
-450.0   60.0   33.333333333333336
-450.0   30.0   33.333333333333336
-450.0   30.0   16.666666666666668
-500.0   30.0   33.333333333333336
-450.0   60.0   33.333333333333336
-450.0   30.0   16.666666666666668
-500.0   60.0   16.666666666666668
-500.0   30.0   33.333333333333336
-450.0   30.0   33.333333333333336
-500.0   60.0   33.333333333333336
-500.0   30.0   50.0
-450.0   30.0   33.333333333333336
-450.0   60.0   33.333333333333336
-500.0   60.0   33.333333333333336
-450.0   60.0   50.0
-500.0   30.0   50.0
-500.0   60.0   50.0
-450.0   60.0   50.0
-500.0   60.0   33.333333333333336
-500.0   30.0   50.0
-450.0   60.0   50.0
-450.0   30.0   50.0
-450.0   30.0   33.333333333333336
-500.0   30.0   50.0
-450.0   60.0   50.0
-450.0   30.0   33.333333333333336
-500.0   60.0   33.333333333333336
-500.0   60.0   0.0
-450.0   60.0   0.0
-500.0   90.0   0.0
-500.0   60.0   16.666666666666668
-450.0   60.0   0.0
-450.0   90.0   0.0
-500.0   90.0   0.0
-450.0   90.0   16.666666666666668
-500.0   60.0   16.666666666666668
-500.0   90.0   16.666666666666668
-450.0   90.0   16.666666666666668
-500.0   90.0   0.0
-500.0   60.0   16.666666666666668
-450.0   90.0   16.666666666666668
-450.0   60.0   16.666666666666668
-450.0   60.0   0.0
-500.0   60.0   16.666666666666668
-450.0   90.0   16.666666666666668
-450.0   60.0   0.0
-500.0   90.0   0.0
-500.0   60.0   16.666666666666668
-450.0   60.0   16.666666666666668
-500.0   90.0   16.666666666666668
-500.0   60.0   33.333333333333336
-450.0   60.0   16.666666666666668
-450.0   90.0   16.666666666666668
-500.0   90.0   16.666666666666668
-450.0   90.0   33.333333333333336
-500.0   60.0   33.333333333333336
-500.0   90.0   33.333333333333336
-450.0   90.0   33.333333333333336
-500.0   90.0   16.666666666666668
-500.0   60.0   33.333333333333336
-450.0   90.0   33.333333333333336
-450.0   60.0   33.333333333333336
-450.0   60.0   16.666666666666668
-500.0   60.0   33.333333333333336
-450.0   90.0   33.333333333333336
-450.0   60.0   16.666666666666668
-500.0   90.0   16.666666666666668
-500.0   60.0   33.333333333333336
-450.0   60.0   33.333333333333336
-500.0   90.0   33.333333333333336
-500.0   60.0   50.0
-450.0   60.0   33.333333333333336
-450.0   90.0   33.333333333333336
-500.0   90.0   33.333333333333336
-450.0   90.0   50.0
-500.0   60.0   50.0
-500.0   90.0   50.0
-450.0   90.0   50.0
-500.0   90.0   33.333333333333336
-500.0   60.0   50.0
-450.0   90.0   50.0
-450.0   60.0   50.0
-450.0   60.0   33.333333333333336
-500.0   60.0   50.0
-450.0   90.0   50.0
-450.0   60.0   33.333333333333336
-500.0   90.0   33.333333333333336
-500.0   90.0   0.0
-450.0   90.0   0.0
-500.0   120.0   0.0
-500.0   90.0   16.666666666666668
-450.0   90.0   0.0
-450.0   120.0   0.0
-500.0   120.0   0.0
-450.0   120.0   16.666666666666668
-500.0   90.0   16.666666666666668
-500.0   120.0   16.666666666666668
-450.0   120.0   16.666666666666668
-500.0   120.0   0.0
-500.0   90.0   16.666666666666668
-450.0   120.0   16.666666666666668
-450.0   90.0   16.666666666666668
-450.0   90.0   0.0
-500.0   90.0   16.666666666666668
-450.0   120.0   16.666666666666668
-450.0   90.0   0.0
-500.0   120.0   0.0
-500.0   90.0   16.666666666666668
-450.0   90.0   16.666666666666668
-500.0   120.0   16.666666666666668
-500.0   90.0   33.333333333333336
-450.0   90.0   16.666666666666668
-450.0   120.0   16.666666666666668
-500.0   120.0   16.666666666666668
-450.0   120.0   33.333333333333336
-500.0   90.0   33.333333333333336
-500.0   120.0   33.333333333333336
-450.0   120.0   33.333333333333336
-500.0   120.0   16.666666666666668
-500.0   90.0   33.333333333333336
-450.0   120.0   33.333333333333336
-450.0   90.0   33.333333333333336
-450.0   90.0   16.666666666666668
-500.0   90.0   33.333333333333336
-450.0   120.0   33.333333333333336
-450.0   90.0   16.666666666666668
-500.0   120.0   16.666666666666668
-500.0   90.0   33.333333333333336
-450.0   90.0   33.333333333333336
-500.0   120.0   33.333333333333336
-500.0   90.0   50.0
-450.0   90.0   33.333333333333336
-450.0   120.0   33.333333333333336
-500.0   120.0   33.333333333333336
-450.0   120.0   50.0
-500.0   90.0   50.0
-500.0   120.0   50.0
-450.0   120.0   50.0
-500.0   120.0   33.333333333333336
-500.0   90.0   50.0
-450.0   120.0   50.0
-450.0   90.0   50.0
-450.0   90.0   33.333333333333336
-500.0   90.0   50.0
-450.0   120.0   50.0
-450.0   90.0   33.333333333333336
-500.0   120.0   33.333333333333336
-500.0   120.0   0.0
-450.0   120.0   0.0
-500.0   150.0   0.0
-500.0   120.0   16.666666666666668
-450.0   120.0   0.0
-450.0   150.0   0.0
-500.0   150.0   0.0
-450.0   150.0   16.666666666666668
-500.0   120.0   16.666666666666668
-500.0   150.0   16.666666666666668
-450.0   150.0   16.666666666666668
-500.0   150.0   0.0
-500.0   120.0   16.666666666666668
-450.0   150.0   16.666666666666668
-450.0   120.0   16.666666666666668
-450.0   120.0   0.0
-500.0   120.0   16.666666666666668
-450.0   150.0   16.666666666666668
-450.0   120.0   0.0
-500.0   150.0   0.0
-500.0   120.0   16.666666666666668
-450.0   120.0   16.666666666666668
-500.0   150.0   16.666666666666668
-500.0   120.0   33.333333333333336
-450.0   120.0   16.666666666666668
-450.0   150.0   16.666666666666668
-500.0   150.0   16.666666666666668
-450.0   150.0   33.333333333333336
-500.0   120.0   33.333333333333336
-500.0   150.0   33.333333333333336
-450.0   150.0   33.333333333333336
-500.0   150.0   16.666666666666668
-500.0   120.0   33.333333333333336
-450.0   150.0   33.333333333333336
-450.0   120.0   33.333333333333336
-450.0   120.0   16.666666666666668
-500.0   120.0   33.333333333333336
-450.0   150.0   33.333333333333336
-450.0   120.0   16.666666666666668
-500.0   150.0   16.666666666666668
-500.0   120.0   33.333333333333336
-450.0   120.0   33.333333333333336
-500.0   150.0   33.333333333333336
-500.0   120.0   50.0
-450.0   120.0   33.333333333333336
-450.0   150.0   33.333333333333336
-500.0   150.0   33.333333333333336
-450.0   150.0   50.0
-500.0   120.0   50.0
-500.0   150.0   50.0
-450.0   150.0   50.0
-500.0   150.0   33.333333333333336
-500.0   120.0   50.0
-450.0   150.0   50.0
-450.0   120.0   50.0
-450.0   120.0   33.333333333333336
-500.0   120.0   50.0
-450.0   150.0   50.0
-450.0   120.0   33.333333333333336
-500.0   150.0   33.333333333333336
-450.0   0.0   0.0
-400.0   0.0   0.0
-450.0   30.0   0.0
-450.0   0.0   16.666666666666668
-400.0   0.0   0.0
-400.0   30.0   0.0
-450.0   30.0   0.0
-400.0   30.0   16.666666666666668
-450.0   0.0   16.666666666666668
-450.0   30.0   16.666666666666668
-400.0   30.0   16.666666666666668
-450.0   30.0   0.0
-450.0   0.0   16.666666666666668
-400.0   30.0   16.666666666666668
-400.0   0.0   16.666666666666668
-400.0   0.0   0.0
-450.0   0.0   16.666666666666668
-400.0   30.0   16.666666666666668
-400.0   0.0   0.0
-450.0   30.0   0.0
-450.0   0.0   16.666666666666668
-400.0   0.0   16.666666666666668
-450.0   30.0   16.666666666666668
-450.0   0.0   33.333333333333336
-400.0   0.0   16.666666666666668
-400.0   30.0   16.666666666666668
-450.0   30.0   16.666666666666668
-400.0   30.0   33.333333333333336
-450.0   0.0   33.333333333333336
-450.0   30.0   33.333333333333336
-400.0   30.0   33.333333333333336
-450.0   30.0   16.666666666666668
-450.0   0.0   33.333333333333336
-400.0   30.0   33.333333333333336
-400.0   0.0   33.333333333333336
-400.0   0.0   16.666666666666668
-450.0   0.0   33.333333333333336
-400.0   30.0   33.333333333333336
-400.0   0.0   16.666666666666668
-450.0   30.0   16.666666666666668
-450.0   0.0   33.333333333333336
-400.0   0.0   33.333333333333336
-450.0   30.0   33.333333333333336
-450.0   0.0   50.0
-400.0   0.0   33.333333333333336
-400.0   30.0   33.333333333333336
-450.0   30.0   33.333333333333336
-400.0   30.0   50.0
-450.0   0.0   50.0
-450.0   30.0   50.0
-400.0   30.0   50.0
-450.0   30.0   33.333333333333336
-450.0   0.0   50.0
-400.0   30.0   50.0
-400.0   0.0   50.0
-400.0   0.0   33.333333333333336
-450.0   0.0   50.0
-400.0   30.0   50.0
-400.0   0.0   33.333333333333336
-450.0   30.0   33.333333333333336
-450.0   30.0   0.0
-400.0   30.0   0.0
-450.0   60.0   0.0
-450.0   30.0   16.666666666666668
-400.0   30.0   0.0
-400.0   60.0   0.0
-450.0   60.0   0.0
-400.0   60.0   16.666666666666668
-450.0   30.0   16.666666666666668
-450.0   60.0   16.666666666666668
-400.0   60.0   16.666666666666668
-450.0   60.0   0.0
-450.0   30.0   16.666666666666668
-400.0   60.0   16.666666666666668
-400.0   30.0   16.666666666666668
-400.0   30.0   0.0
-450.0   30.0   16.666666666666668
-400.0   60.0   16.666666666666668
-400.0   30.0   0.0
-450.0   60.0   0.0
-450.0   30.0   16.666666666666668
-400.0   30.0   16.666666666666668
-450.0   60.0   16.666666666666668
-450.0   30.0   33.333333333333336
-400.0   30.0   16.666666666666668
-400.0   60.0   16.666666666666668
-450.0   60.0   16.666666666666668
-400.0   60.0   33.333333333333336
-450.0   30.0   33.333333333333336
-450.0   60.0   33.333333333333336
-400.0   60.0   33.333333333333336
-450.0   60.0   16.666666666666668
-450.0   30.0   33.333333333333336
-400.0   60.0   33.333333333333336
-400.0   30.0   33.333333333333336
-400.0   30.0   16.666666666666668
-450.0   30.0   33.333333333333336
-400.0   60.0   33.333333333333336
-400.0   30.0   16.666666666666668
-450.0   60.0   16.666666666666668
-450.0   30.0   33.333333333333336
-400.0   30.0   33.333333333333336
-450.0   60.0   33.333333333333336
-450.0   30.0   50.0
-400.0   30.0   33.333333333333336
-400.0   60.0   33.333333333333336
-450.0   60.0   33.333333333333336
-400.0   60.0   50.0
-450.0   30.0   50.0
-450.0   60.0   50.0
-400.0   60.0   50.0
-450.0   60.0   33.333333333333336
-450.0   30.0   50.0
-400.0   60.0   50.0
-400.0   30.0   50.0
-400.0   30.0   33.333333333333336
-450.0   30.0   50.0
-400.0   60.0   50.0
-400.0   30.0   33.333333333333336
-450.0   60.0   33.333333333333336
-450.0   60.0   0.0
-400.0   60.0   0.0
-450.0   90.0   0.0
-450.0   60.0   16.666666666666668
-400.0   60.0   0.0
-400.0   90.0   0.0
-450.0   90.0   0.0
-400.0   90.0   16.666666666666668
-450.0   60.0   16.666666666666668
-450.0   90.0   16.666666666666668
-400.0   90.0   16.666666666666668
-450.0   90.0   0.0
-450.0   60.0   16.666666666666668
-400.0   90.0   16.666666666666668
-400.0   60.0   16.666666666666668
-400.0   60.0   0.0
-450.0   60.0   16.666666666666668
-400.0   90.0   16.666666666666668
-400.0   60.0   0.0
-450.0   90.0   0.0
-450.0   60.0   16.666666666666668
-400.0   60.0   16.666666666666668
-450.0   90.0   16.666666666666668
-450.0   60.0   33.333333333333336
-400.0   60.0   16.666666666666668
-400.0   90.0   16.666666666666668
-450.0   90.0   16.666666666666668
-400.0   90.0   33.333333333333336
-450.0   60.0   33.333333333333336
-450.0   90.0   33.333333333333336
-400.0   90.0   33.333333333333336
-450.0   90.0   16.666666666666668
-450.0   60.0   33.333333333333336
-400.0   90.0   33.333333333333336
-400.0   60.0   33.333333333333336
-400.0   60.0   16.666666666666668
-450.0   60.0   33.333333333333336
-400.0   90.0   33.333333333333336
-400.0   60.0   16.666666666666668
-450.0   90.0   16.666666666666668
-450.0   60.0   33.333333333333336
-400.0   60.0   33.333333333333336
-450.0   90.0   33.333333333333336
-450.0   60.0   50.0
-400.0   60.0   33.333333333333336
-400.0   90.0   33.333333333333336
-450.0   90.0   33.333333333333336
-400.0   90.0   50.0
-450.0   60.0   50.0
-450.0   90.0   50.0
-400.0   90.0   50.0
-450.0   90.0   33.333333333333336
-450.0   60.0   50.0
-400.0   90.0   50.0
-400.0   60.0   50.0
-400.0   60.0   33.333333333333336
-450.0   60.0   50.0
-400.0   90.0   50.0
-400.0   60.0   33.333333333333336
-450.0   90.0   33.333333333333336
-450.0   90.0   0.0
-400.0   90.0   0.0
-450.0   120.0   0.0
-450.0   90.0   16.666666666666668
-400.0   90.0   0.0
-400.0   120.0   0.0
-450.0   120.0   0.0
-400.0   120.0   16.666666666666668
-450.0   90.0   16.666666666666668
-450.0   120.0   16.666666666666668
-400.0   120.0   16.666666666666668
-450.0   120.0   0.0
-450.0   90.0   16.666666666666668
-400.0   120.0   16.666666666666668
-400.0   90.0   16.666666666666668
-400.0   90.0   0.0
-450.0   90.0   16.666666666666668
-400.0   120.0   16.666666666666668
-400.0   90.0   0.0
-450.0   120.0   0.0
-450.0   90.0   16.666666666666668
-400.0   90.0   16.666666666666668
-450.0   120.0   16.666666666666668
-450.0   90.0   33.333333333333336
-400.0   90.0   16.666666666666668
-400.0   120.0   16.666666666666668
-450.0   120.0   16.666666666666668
-400.0   120.0   33.333333333333336
-450.0   90.0   33.333333333333336
-450.0   120.0   33.333333333333336
-400.0   120.0   33.333333333333336
-450.0   120.0   16.666666666666668
-450.0   90.0   33.333333333333336
-400.0   120.0   33.333333333333336
-400.0   90.0   33.333333333333336
-400.0   90.0   16.666666666666668
-450.0   90.0   33.333333333333336
-400.0   120.0   33.333333333333336
-400.0   90.0   16.666666666666668
-450.0   120.0   16.666666666666668
-450.0   90.0   33.333333333333336
-400.0   90.0   33.333333333333336
-450.0   120.0   33.333333333333336
-450.0   90.0   50.0
-400.0   90.0   33.333333333333336
-400.0   120.0   33.333333333333336
-450.0   120.0   33.333333333333336
-400.0   120.0   50.0
-450.0   90.0   50.0
-450.0   120.0   50.0
-400.0   120.0   50.0
-450.0   120.0   33.333333333333336
-450.0   90.0   50.0
-400.0   120.0   50.0
-400.0   90.0   50.0
-400.0   90.0   33.333333333333336
-450.0   90.0   50.0
-400.0   120.0   50.0
-400.0   90.0   33.333333333333336
-450.0   120.0   33.333333333333336
-450.0   120.0   0.0
-400.0   120.0   0.0
-450.0   150.0   0.0
-450.0   120.0   16.666666666666668
-400.0   120.0   0.0
-400.0   150.0   0.0
-450.0   150.0   0.0
-400.0   150.0   16.666666666666668
-450.0   120.0   16.666666666666668
-450.0   150.0   16.666666666666668
-400.0   150.0   16.666666666666668
-450.0   150.0   0.0
-450.0   120.0   16.666666666666668
-400.0   150.0   16.666666666666668
-400.0   120.0   16.666666666666668
-400.0   120.0   0.0
-450.0   120.0   16.666666666666668
-400.0   150.0   16.666666666666668
-400.0   120.0   0.0
-450.0   150.0   0.0
-450.0   120.0   16.666666666666668
-400.0   120.0   16.666666666666668
-450.0   150.0   16.666666666666668
-450.0   120.0   33.333333333333336
-400.0   120.0   16.666666666666668
-400.0   150.0   16.666666666666668
-450.0   150.0   16.666666666666668
-400.0   150.0   33.333333333333336
-450.0   120.0   33.333333333333336
-450.0   150.0   33.333333333333336
-400.0   150.0   33.333333333333336
-450.0   150.0   16.666666666666668
-450.0   120.0   33.333333333333336
-400.0   150.0   33.333333333333336
-400.0   120.0   33.333333333333336
-400.0   120.0   16.666666666666668
-450.0   120.0   33.333333333333336
-400.0   150.0   33.333333333333336
-400.0   120.0   16.666666666666668
-450.0   150.0   16.666666666666668
-450.0   120.0   33.333333333333336
-400.0   120.0   33.333333333333336
-450.0   150.0   33.333333333333336
-450.0   120.0   50.0
-400.0   120.0   33.333333333333336
-400.0   150.0   33.333333333333336
-450.0   150.0   33.333333333333336
-400.0   150.0   50.0
-450.0   120.0   50.0
-450.0   150.0   50.0
-400.0   150.0   50.0
-450.0   150.0   33.333333333333336
-450.0   120.0   50.0
-400.0   150.0   50.0
-400.0   120.0   50.0
-400.0   120.0   33.333333333333336
-450.0   120.0   50.0
-400.0   150.0   50.0
-400.0   120.0   33.333333333333336
-450.0   150.0   33.333333333333336
-400.0   0.0   0.0
-350.0   0.0   0.0
-400.0   30.0   0.0
-400.0   0.0   16.666666666666668
-350.0   0.0   0.0
-350.0   30.0   0.0
-400.0   30.0   0.0
-350.0   30.0   16.666666666666668
-400.0   0.0   16.666666666666668
-400.0   30.0   16.666666666666668
-350.0   30.0   16.666666666666668
-400.0   30.0   0.0
-400.0   0.0   16.666666666666668
-350.0   30.0   16.666666666666668
-350.0   0.0   16.666666666666668
-350.0   0.0   0.0
-400.0   0.0   16.666666666666668
-350.0   30.0   16.666666666666668
-350.0   0.0   0.0
-400.0   30.0   0.0
-400.0   0.0   16.666666666666668
-350.0   0.0   16.666666666666668
-400.0   30.0   16.666666666666668
-400.0   0.0   33.333333333333336
-350.0   0.0   16.666666666666668
-350.0   30.0   16.666666666666668
-400.0   30.0   16.666666666666668
-350.0   30.0   33.333333333333336
-400.0   0.0   33.333333333333336
-400.0   30.0   33.333333333333336
-350.0   30.0   33.333333333333336
-400.0   30.0   16.666666666666668
-400.0   0.0   33.333333333333336
-350.0   30.0   33.333333333333336
-350.0   0.0   33.333333333333336
-350.0   0.0   16.666666666666668
-400.0   0.0   33.333333333333336
-350.0   30.0   33.333333333333336
-350.0   0.0   16.666666666666668
-400.0   30.0   16.666666666666668
-400.0   0.0   33.333333333333336
-350.0   0.0   33.333333333333336
-400.0   30.0   33.333333333333336
-400.0   0.0   50.0
-350.0   0.0   33.333333333333336
-350.0   30.0   33.333333333333336
-400.0   30.0   33.333333333333336
-350.0   30.0   50.0
-400.0   0.0   50.0
-400.0   30.0   50.0
-350.0   30.0   50.0
-400.0   30.0   33.333333333333336
-400.0   0.0   50.0
-350.0   30.0   50.0
-350.0   0.0   50.0
-350.0   0.0   33.333333333333336
-400.0   0.0   50.0
-350.0   30.0   50.0
-350.0   0.0   33.333333333333336
-400.0   30.0   33.333333333333336
-400.0   30.0   0.0
-350.0   30.0   0.0
-400.0   60.0   0.0
-400.0   30.0   16.666666666666668
-350.0   30.0   0.0
-350.0   60.0   0.0
-400.0   60.0   0.0
-350.0   60.0   16.666666666666668
-400.0   30.0   16.666666666666668
-400.0   60.0   16.666666666666668
-350.0   60.0   16.666666666666668
-400.0   60.0   0.0
-400.0   30.0   16.666666666666668
-350.0   60.0   16.666666666666668
-350.0   30.0   16.666666666666668
-350.0   30.0   0.0
-400.0   30.0   16.666666666666668
-350.0   60.0   16.666666666666668
-350.0   30.0   0.0
-400.0   60.0   0.0
-400.0   30.0   16.666666666666668
-350.0   30.0   16.666666666666668
-400.0   60.0   16.666666666666668
-400.0   30.0   33.333333333333336
-350.0   30.0   16.666666666666668
-350.0   60.0   16.666666666666668
-400.0   60.0   16.666666666666668
-350.0   60.0   33.333333333333336
-400.0   30.0   33.333333333333336
-400.0   60.0   33.333333333333336
-350.0   60.0   33.333333333333336
-400.0   60.0   16.666666666666668
-400.0   30.0   33.333333333333336
-350.0   60.0   33.333333333333336
-350.0   30.0   33.333333333333336
-350.0   30.0   16.666666666666668
-400.0   30.0   33.333333333333336
-350.0   60.0   33.333333333333336
-350.0   30.0   16.666666666666668
-400.0   60.0   16.666666666666668
-400.0   30.0   33.333333333333336
-350.0   30.0   33.333333333333336
-400.0   60.0   33.333333333333336
-400.0   30.0   50.0
-350.0   30.0   33.333333333333336
-350.0   60.0   33.333333333333336
-400.0   60.0   33.333333333333336
-350.0   60.0   50.0
-400.0   30.0   50.0
-400.0   60.0   50.0
-350.0   60.0   50.0
-400.0   60.0   33.333333333333336
-400.0   30.0   50.0
-350.0   60.0   50.0
-350.0   30.0   50.0
-350.0   30.0   33.333333333333336
-400.0   30.0   50.0
-350.0   60.0   50.0
-350.0   30.0   33.333333333333336
-400.0   60.0   33.333333333333336
-400.0   60.0   0.0
-350.0   60.0   0.0
-400.0   90.0   0.0
-400.0   60.0   16.666666666666668
-350.0   60.0   0.0
-350.0   90.0   0.0
-400.0   90.0   0.0
-350.0   90.0   16.666666666666668
-400.0   60.0   16.666666666666668
-400.0   90.0   16.666666666666668
-350.0   90.0   16.666666666666668
-400.0   90.0   0.0
-400.0   60.0   16.666666666666668
-350.0   90.0   16.666666666666668
-350.0   60.0   16.666666666666668
-350.0   60.0   0.0
-400.0   60.0   16.666666666666668
-350.0   90.0   16.666666666666668
-350.0   60.0   0.0
-400.0   90.0   0.0
-400.0   60.0   16.666666666666668
-350.0   60.0   16.666666666666668
-400.0   90.0   16.666666666666668
-400.0   60.0   33.333333333333336
-350.0   60.0   16.666666666666668
-350.0   90.0   16.666666666666668
-400.0   90.0   16.666666666666668
-350.0   90.0   33.333333333333336
-400.0   60.0   33.333333333333336
-400.0   90.0   33.333333333333336
-350.0   90.0   33.333333333333336
-400.0   90.0   16.666666666666668
-400.0   60.0   33.333333333333336
-350.0   90.0   33.333333333333336
-350.0   60.0   33.333333333333336
-350.0   60.0   16.666666666666668
-400.0   60.0   33.333333333333336
-350.0   90.0   33.333333333333336
-350.0   60.0   16.666666666666668
-400.0   90.0   16.666666666666668
-400.0   60.0   33.333333333333336
-350.0   60.0   33.333333333333336
-400.0   90.0   33.333333333333336
-400.0   60.0   50.0
-350.0   60.0   33.333333333333336
-350.0   90.0   33.333333333333336
-400.0   90.0   33.333333333333336
-350.0   90.0   50.0
-400.0   60.0   50.0
-400.0   90.0   50.0
-350.0   90.0   50.0
-400.0   90.0   33.333333333333336
-400.0   60.0   50.0
-350.0   90.0   50.0
-350.0   60.0   50.0
-350.0   60.0   33.333333333333336
-400.0   60.0   50.0
-350.0   90.0   50.0
-350.0   60.0   33.333333333333336
-400.0   90.0   33.333333333333336
-400.0   90.0   0.0
-350.0   90.0   0.0
-400.0   120.0   0.0
-400.0   90.0   16.666666666666668
-350.0   90.0   0.0
-350.0   120.0   0.0
-400.0   120.0   0.0
-350.0   120.0   16.666666666666668
-400.0   90.0   16.666666666666668
-400.0   120.0   16.666666666666668
-350.0   120.0   16.666666666666668
-400.0   120.0   0.0
-400.0   90.0   16.666666666666668
-350.0   120.0   16.666666666666668
-350.0   90.0   16.666666666666668
-350.0   90.0   0.0
-400.0   90.0   16.666666666666668
-350.0   120.0   16.666666666666668
-350.0   90.0   0.0
-400.0   120.0   0.0
-400.0   90.0   16.666666666666668
-350.0   90.0   16.666666666666668
-400.0   120.0   16.666666666666668
-400.0   90.0   33.333333333333336
-350.0   90.0   16.666666666666668
-350.0   120.0   16.666666666666668
-400.0   120.0   16.666666666666668
-350.0   120.0   33.333333333333336
-400.0   90.0   33.333333333333336
-400.0   120.0   33.333333333333336
-350.0   120.0   33.333333333333336
-400.0   120.0   16.666666666666668
-400.0   90.0   33.333333333333336
-350.0   120.0   33.333333333333336
-350.0   90.0   33.333333333333336
-350.0   90.0   16.666666666666668
-400.0   90.0   33.333333333333336
-350.0   120.0   33.333333333333336
-350.0   90.0   16.666666666666668
-400.0   120.0   16.666666666666668
-400.0   90.0   33.333333333333336
-350.0   90.0   33.333333333333336
-400.0   120.0   33.333333333333336
-400.0   90.0   50.0
-350.0   90.0   33.333333333333336
-350.0   120.0   33.333333333333336
-400.0   120.0   33.333333333333336
-350.0   120.0   50.0
-400.0   90.0   50.0
-400.0   120.0   50.0
-350.0   120.0   50.0
-400.0   120.0   33.333333333333336
-400.0   90.0   50.0
-350.0   120.0   50.0
-350.0   90.0   50.0
-350.0   90.0   33.333333333333336
-400.0   90.0   50.0
-350.0   120.0   50.0
-350.0   90.0   33.333333333333336
-400.0   120.0   33.333333333333336
-400.0   120.0   0.0
-350.0   120.0   0.0
-400.0   150.0   0.0
-400.0   120.0   16.666666666666668
-350.0   120.0   0.0
-350.0   150.0   0.0
-400.0   150.0   0.0
-350.0   150.0   16.666666666666668
-400.0   120.0   16.666666666666668
-400.0   150.0   16.666666666666668
-350.0   150.0   16.666666666666668
-400.0   150.0   0.0
-400.0   120.0   16.666666666666668
-350.0   150.0   16.666666666666668
-350.0   120.0   16.666666666666668
-350.0   120.0   0.0
-400.0   120.0   16.666666666666668
-350.0   150.0   16.666666666666668
-350.0   120.0   0.0
-400.0   150.0   0.0
-400.0   120.0   16.666666666666668
-350.0   120.0   16.666666666666668
-400.0   150.0   16.666666666666668
-400.0   120.0   33.333333333333336
-350.0   120.0   16.666666666666668
-350.0   150.0   16.666666666666668
-400.0   150.0   16.666666666666668
-350.0   150.0   33.333333333333336
-400.0   120.0   33.333333333333336
-400.0   150.0   33.333333333333336
-350.0   150.0   33.333333333333336
-400.0   150.0   16.666666666666668
-400.0   120.0   33.333333333333336
-350.0   150.0   33.333333333333336
-350.0   120.0   33.333333333333336
-350.0   120.0   16.666666666666668
-400.0   120.0   33.333333333333336
-350.0   150.0   33.333333333333336
-350.0   120.0   16.666666666666668
-400.0   150.0   16.666666666666668
-400.0   120.0   33.333333333333336
-350.0   120.0   33.333333333333336
-400.0   150.0   33.333333333333336
-400.0   120.0   50.0
-350.0   120.0   33.333333333333336
-350.0   150.0   33.333333333333336
-400.0   150.0   33.333333333333336
-350.0   150.0   50.0
-400.0   120.0   50.0
-400.0   150.0   50.0
-350.0   150.0   50.0
-400.0   150.0   33.333333333333336
-400.0   120.0   50.0
-350.0   150.0   50.0
-350.0   120.0   50.0
-350.0   120.0   33.333333333333336
-400.0   120.0   50.0
-350.0   150.0   50.0
-350.0   120.0   33.333333333333336
-400.0   150.0   33.333333333333336
-350.0   0.0   0.0
-300.0   0.0   0.0
-350.0   30.0   0.0
-350.0   0.0   16.666666666666668
-300.0   0.0   0.0
-300.0   30.0   0.0
-350.0   30.0   0.0
-300.0   30.0   16.666666666666668
-350.0   0.0   16.666666666666668
-350.0   30.0   16.666666666666668
-300.0   30.0   16.666666666666668
-350.0   30.0   0.0
-350.0   0.0   16.666666666666668
-300.0   30.0   16.666666666666668
-300.0   0.0   16.666666666666668
-300.0   0.0   0.0
-350.0   0.0   16.666666666666668
-300.0   30.0   16.666666666666668
-300.0   0.0   0.0
-350.0   30.0   0.0
-350.0   0.0   16.666666666666668
-300.0   0.0   16.666666666666668
-350.0   30.0   16.666666666666668
-350.0   0.0   33.333333333333336
-300.0   0.0   16.666666666666668
-300.0   30.0   16.666666666666668
-350.0   30.0   16.666666666666668
-300.0   30.0   33.333333333333336
-350.0   0.0   33.333333333333336
-350.0   30.0   33.333333333333336
-300.0   30.0   33.333333333333336
-350.0   30.0   16.666666666666668
-350.0   0.0   33.333333333333336
-300.0   30.0   33.333333333333336
-300.0   0.0   33.333333333333336
-300.0   0.0   16.666666666666668
-350.0   0.0   33.333333333333336
-300.0   30.0   33.333333333333336
-300.0   0.0   16.666666666666668
-350.0   30.0   16.666666666666668
-350.0   0.0   33.333333333333336
-300.0   0.0   33.333333333333336
-350.0   30.0   33.333333333333336
-350.0   0.0   50.0
-300.0   0.0   33.333333333333336
-300.0   30.0   33.333333333333336
-350.0   30.0   33.333333333333336
-300.0   30.0   50.0
-350.0   0.0   50.0
-350.0   30.0   50.0
-300.0   30.0   50.0
-350.0   30.0   33.333333333333336
-350.0   0.0   50.0
-300.0   30.0   50.0
-300.0   0.0   50.0
-300.0   0.0   33.333333333333336
-350.0   0.0   50.0
-300.0   30.0   50.0
-300.0   0.0   33.333333333333336
-350.0   30.0   33.333333333333336
-350.0   30.0   0.0
-300.0   30.0   0.0
-350.0   60.0   0.0
-350.0   30.0   16.666666666666668
-300.0   30.0   0.0
-300.0   60.0   0.0
-350.0   60.0   0.0
-300.0   60.0   16.666666666666668
-350.0   30.0   16.666666666666668
-350.0   60.0   16.666666666666668
-300.0   60.0   16.666666666666668
-350.0   60.0   0.0
-350.0   30.0   16.666666666666668
-300.0   60.0   16.666666666666668
-300.0   30.0   16.666666666666668
-300.0   30.0   0.0
-350.0   30.0   16.666666666666668
-300.0   60.0   16.666666666666668
-300.0   30.0   0.0
-350.0   60.0   0.0
-350.0   30.0   16.666666666666668
-300.0   30.0   16.666666666666668
-350.0   60.0   16.666666666666668
-350.0   30.0   33.333333333333336
-300.0   30.0   16.666666666666668
-300.0   60.0   16.666666666666668
-350.0   60.0   16.666666666666668
-300.0   60.0   33.333333333333336
-350.0   30.0   33.333333333333336
-350.0   60.0   33.333333333333336
-300.0   60.0   33.333333333333336
-350.0   60.0   16.666666666666668
-350.0   30.0   33.333333333333336
-300.0   60.0   33.333333333333336
-300.0   30.0   33.333333333333336
-300.0   30.0   16.666666666666668
-350.0   30.0   33.333333333333336
-300.0   60.0   33.333333333333336
-300.0   30.0   16.666666666666668
-350.0   60.0   16.666666666666668
-350.0   30.0   33.333333333333336
-300.0   30.0   33.333333333333336
-350.0   60.0   33.333333333333336
-350.0   30.0   50.0
-300.0   30.0   33.333333333333336
-300.0   60.0   33.333333333333336
-350.0   60.0   33.333333333333336
-300.0   60.0   50.0
-350.0   30.0   50.0
-350.0   60.0   50.0
-300.0   60.0   50.0
-350.0   60.0   33.333333333333336
-350.0   30.0   50.0
-300.0   60.0   50.0
-300.0   30.0   50.0
-300.0   30.0   33.333333333333336
-350.0   30.0   50.0
-300.0   60.0   50.0
-300.0   30.0   33.333333333333336
-350.0   60.0   33.333333333333336
-350.0   60.0   0.0
-300.0   60.0   0.0
-350.0   90.0   0.0
-350.0   60.0   16.666666666666668
-300.0   60.0   0.0
-300.0   90.0   0.0
-350.0   90.0   0.0
-300.0   90.0   16.666666666666668
-350.0   60.0   16.666666666666668
-350.0   90.0   16.666666666666668
-300.0   90.0   16.666666666666668
-350.0   90.0   0.0
-350.0   60.0   16.666666666666668
-300.0   90.0   16.666666666666668
-300.0   60.0   16.666666666666668
-300.0   60.0   0.0
-350.0   60.0   16.666666666666668
-300.0   90.0   16.666666666666668
-300.0   60.0   0.0
-350.0   90.0   0.0
-350.0   60.0   16.666666666666668
-300.0   60.0   16.666666666666668
-350.0   90.0   16.666666666666668
-350.0   60.0   33.333333333333336
-300.0   60.0   16.666666666666668
-300.0   90.0   16.666666666666668
-350.0   90.0   16.666666666666668
-300.0   90.0   33.333333333333336
-350.0   60.0   33.333333333333336
-350.0   90.0   33.333333333333336
-300.0   90.0   33.333333333333336
-350.0   90.0   16.666666666666668
-350.0   60.0   33.333333333333336
-300.0   90.0   33.333333333333336
-300.0   60.0   33.333333333333336
-300.0   60.0   16.666666666666668
-350.0   60.0   33.333333333333336
-300.0   90.0   33.333333333333336
-300.0   60.0   16.666666666666668
-350.0   90.0   16.666666666666668
-350.0   60.0   33.333333333333336
-300.0   60.0   33.333333333333336
-350.0   90.0   33.333333333333336
-350.0   60.0   50.0
-300.0   60.0   33.333333333333336
-300.0   90.0   33.333333333333336
-350.0   90.0   33.333333333333336
-300.0   90.0   50.0
-350.0   60.0   50.0
-350.0   90.0   50.0
-300.0   90.0   50.0
-350.0   90.0   33.333333333333336
-350.0   60.0   50.0
-300.0   90.0   50.0
-300.0   60.0   50.0
-300.0   60.0   33.333333333333336
-350.0   60.0   50.0
-300.0   90.0   50.0
-300.0   60.0   33.333333333333336
-350.0   90.0   33.333333333333336
-350.0   90.0   0.0
-300.0   90.0   0.0
-350.0   120.0   0.0
-350.0   90.0   16.666666666666668
-300.0   90.0   0.0
-300.0   120.0   0.0
-350.0   120.0   0.0
-300.0   120.0   16.666666666666668
-350.0   90.0   16.666666666666668
-350.0   120.0   16.666666666666668
-300.0   120.0   16.666666666666668
-350.0   120.0   0.0
-350.0   90.0   16.666666666666668
-300.0   120.0   16.666666666666668
-300.0   90.0   16.666666666666668
-300.0   90.0   0.0
-350.0   90.0   16.666666666666668
-300.0   120.0   16.666666666666668
-300.0   90.0   0.0
-350.0   120.0   0.0
-350.0   90.0   16.666666666666668
-300.0   90.0   16.666666666666668
-350.0   120.0   16.666666666666668
-350.0   90.0   33.333333333333336
-300.0   90.0   16.666666666666668
-300.0   120.0   16.666666666666668
-350.0   120.0   16.666666666666668
-300.0   120.0   33.333333333333336
-350.0   90.0   33.333333333333336
-350.0   120.0   33.333333333333336
-300.0   120.0   33.333333333333336
-350.0   120.0   16.666666666666668
-350.0   90.0   33.333333333333336
-300.0   120.0   33.333333333333336
-300.0   90.0   33.333333333333336
-300.0   90.0   16.666666666666668
-350.0   90.0   33.333333333333336
-300.0   120.0   33.333333333333336
-300.0   90.0   16.666666666666668
-350.0   120.0   16.666666666666668
-350.0   90.0   33.333333333333336
-300.0   90.0   33.333333333333336
-350.0   120.0   33.333333333333336
-350.0   90.0   50.0
-300.0   90.0   33.333333333333336
-300.0   120.0   33.333333333333336
-350.0   120.0   33.333333333333336
-300.0   120.0   50.0
-350.0   90.0   50.0
-350.0   120.0   50.0
-300.0   120.0   50.0
-350.0   120.0   33.333333333333336
-350.0   90.0   50.0
-300.0   120.0   50.0
-300.0   90.0   50.0
-300.0   90.0   33.333333333333336
-350.0   90.0   50.0
-300.0   120.0   50.0
-300.0   90.0   33.333333333333336
-350.0   120.0   33.333333333333336
-350.0   120.0   0.0
-300.0   120.0   0.0
-350.0   150.0   0.0
-350.0   120.0   16.666666666666668
-300.0   120.0   0.0
-300.0   150.0   0.0
-350.0   150.0   0.0
-300.0   150.0   16.666666666666668
-350.0   120.0   16.666666666666668
-350.0   150.0   16.666666666666668
-300.0   150.0   16.666666666666668
-350.0   150.0   0.0
-350.0   120.0   16.666666666666668
-300.0   150.0   16.666666666666668
-300.0   120.0   16.666666666666668
-300.0   120.0   0.0
-350.0   120.0   16.666666666666668
-300.0   150.0   16.666666666666668
-300.0   120.0   0.0
-350.0   150.0   0.0
-350.0   120.0   16.666666666666668
-300.0   120.0   16.666666666666668
-350.0   150.0   16.666666666666668
-350.0   120.0   33.333333333333336
-300.0   120.0   16.666666666666668
-300.0   150.0   16.666666666666668
-350.0   150.0   16.666666666666668
-300.0   150.0   33.333333333333336
-350.0   120.0   33.333333333333336
-350.0   150.0   33.333333333333336
-300.0   150.0   33.333333333333336
-350.0   150.0   16.666666666666668
-350.0   120.0   33.333333333333336
-300.0   150.0   33.333333333333336
-300.0   120.0   33.333333333333336
-300.0   120.0   16.666666666666668
-350.0   120.0   33.333333333333336
-300.0   150.0   33.333333333333336
-300.0   120.0   16.666666666666668
-350.0   150.0   16.666666666666668
-350.0   120.0   33.333333333333336
-300.0   120.0   33.333333333333336
-350.0   150.0   33.333333333333336
-350.0   120.0   50.0
-300.0   120.0   33.333333333333336
-300.0   150.0   33.333333333333336
-350.0   150.0   33.333333333333336
-300.0   150.0   50.0
-350.0   120.0   50.0
-350.0   150.0   50.0
-300.0   150.0   50.0
-350.0   150.0   33.333333333333336
-350.0   120.0   50.0
-300.0   150.0   50.0
-300.0   120.0   50.0
-300.0   120.0   33.333333333333336
-350.0   120.0   50.0
-300.0   150.0   50.0
-300.0   120.0   33.333333333333336
-350.0   150.0   33.333333333333336
-300.0   0.0   0.0
-250.0   0.0   0.0
-300.0   30.0   0.0
-300.0   0.0   16.666666666666668
-250.0   0.0   0.0
-250.0   30.0   0.0
-300.0   30.0   0.0
-250.0   30.0   16.666666666666668
-300.0   0.0   16.666666666666668
-300.0   30.0   16.666666666666668
-250.0   30.0   16.666666666666668
-300.0   30.0   0.0
-300.0   0.0   16.666666666666668
-250.0   30.0   16.666666666666668
-250.0   0.0   16.666666666666668
-250.0   0.0   0.0
-300.0   0.0   16.666666666666668
-250.0   30.0   16.666666666666668
-250.0   0.0   0.0
-300.0   30.0   0.0
-300.0   0.0   16.666666666666668
-250.0   0.0   16.666666666666668
-300.0   30.0   16.666666666666668
-300.0   0.0   33.333333333333336
-250.0   0.0   16.666666666666668
-250.0   30.0   16.666666666666668
-300.0   30.0   16.666666666666668
-250.0   30.0   33.333333333333336
-300.0   0.0   33.333333333333336
-300.0   30.0   33.333333333333336
-250.0   30.0   33.333333333333336
-300.0   30.0   16.666666666666668
-300.0   0.0   33.333333333333336
-250.0   30.0   33.333333333333336
-250.0   0.0   33.333333333333336
-250.0   0.0   16.666666666666668
-300.0   0.0   33.333333333333336
-250.0   30.0   33.333333333333336
-250.0   0.0   16.666666666666668
-300.0   30.0   16.666666666666668
-300.0   0.0   33.333333333333336
-250.0   0.0   33.333333333333336
-300.0   30.0   33.333333333333336
-300.0   0.0   50.0
-250.0   0.0   33.333333333333336
-250.0   30.0   33.333333333333336
-300.0   30.0   33.333333333333336
-250.0   30.0   50.0
-300.0   0.0   50.0
-300.0   30.0   50.0
-250.0   30.0   50.0
-300.0   30.0   33.333333333333336
-300.0   0.0   50.0
-250.0   30.0   50.0
-250.0   0.0   50.0
-250.0   0.0   33.333333333333336
-300.0   0.0   50.0
-250.0   30.0   50.0
-250.0   0.0   33.333333333333336
-300.0   30.0   33.333333333333336
-300.0   30.0   0.0
-250.0   30.0   0.0
-300.0   60.0   0.0
-300.0   30.0   16.666666666666668
-250.0   30.0   0.0
-250.0   60.0   0.0
-300.0   60.0   0.0
-250.0   60.0   16.666666666666668
-300.0   30.0   16.666666666666668
-300.0   60.0   16.666666666666668
-250.0   60.0   16.666666666666668
-300.0   60.0   0.0
-300.0   30.0   16.666666666666668
-250.0   60.0   16.666666666666668
-250.0   30.0   16.666666666666668
-250.0   30.0   0.0
-300.0   30.0   16.666666666666668
-250.0   60.0   16.666666666666668
-250.0   30.0   0.0
-300.0   60.0   0.0
-300.0   30.0   16.666666666666668
-250.0   30.0   16.666666666666668
-300.0   60.0   16.666666666666668
-300.0   30.0   33.333333333333336
-250.0   30.0   16.666666666666668
-250.0   60.0   16.666666666666668
-300.0   60.0   16.666666666666668
-250.0   60.0   33.333333333333336
-300.0   30.0   33.333333333333336
-300.0   60.0   33.333333333333336
-250.0   60.0   33.333333333333336
-300.0   60.0   16.666666666666668
-300.0   30.0   33.333333333333336
-250.0   60.0   33.333333333333336
-250.0   30.0   33.333333333333336
-250.0   30.0   16.666666666666668
-300.0   30.0   33.333333333333336
-250.0   60.0   33.333333333333336
-250.0   30.0   16.666666666666668
-300.0   60.0   16.666666666666668
-300.0   30.0   33.333333333333336
-250.0   30.0   33.333333333333336
-300.0   60.0   33.333333333333336
-300.0   30.0   50.0
-250.0   30.0   33.333333333333336
-250.0   60.0   33.333333333333336
-300.0   60.0   33.333333333333336
-250.0   60.0   50.0
-300.0   30.0   50.0
-300.0   60.0   50.0
-250.0   60.0   50.0
-300.0   60.0   33.333333333333336
-300.0   30.0   50.0
-250.0   60.0   50.0
-250.0   30.0   50.0
-250.0   30.0   33.333333333333336
-300.0   30.0   50.0
-250.0   60.0   50.0
-250.0   30.0   33.333333333333336
-300.0   60.0   33.333333333333336
-300.0   60.0   0.0
-250.0   60.0   0.0
-300.0   90.0   0.0
-300.0   60.0   16.666666666666668
-250.0   60.0   0.0
-250.0   90.0   0.0
-300.0   90.0   0.0
-250.0   90.0   16.666666666666668
-300.0   60.0   16.666666666666668
-300.0   90.0   16.666666666666668
-250.0   90.0   16.666666666666668
-300.0   90.0   0.0
-300.0   60.0   16.666666666666668
-250.0   90.0   16.666666666666668
-250.0   60.0   16.666666666666668
-250.0   60.0   0.0
-300.0   60.0   16.666666666666668
-250.0   90.0   16.666666666666668
-250.0   60.0   0.0
-300.0   90.0   0.0
-300.0   60.0   16.666666666666668
-250.0   60.0   16.666666666666668
-300.0   90.0   16.666666666666668
-300.0   60.0   33.333333333333336
-250.0   60.0   16.666666666666668
-250.0   90.0   16.666666666666668
-300.0   90.0   16.666666666666668
-250.0   90.0   33.333333333333336
-300.0   60.0   33.333333333333336
-300.0   90.0   33.333333333333336
-250.0   90.0   33.333333333333336
-300.0   90.0   16.666666666666668
-300.0   60.0   33.333333333333336
-250.0   90.0   33.333333333333336
-250.0   60.0   33.333333333333336
-250.0   60.0   16.666666666666668
-300.0   60.0   33.333333333333336
-250.0   90.0   33.333333333333336
-250.0   60.0   16.666666666666668
-300.0   90.0   16.666666666666668
-300.0   60.0   33.333333333333336
-250.0   60.0   33.333333333333336
-300.0   90.0   33.333333333333336
-300.0   60.0   50.0
-250.0   60.0   33.333333333333336
-250.0   90.0   33.333333333333336
-300.0   90.0   33.333333333333336
-250.0   90.0   50.0
-300.0   60.0   50.0
-300.0   90.0   50.0
-250.0   90.0   50.0
-300.0   90.0   33.333333333333336
-300.0   60.0   50.0
-250.0   90.0   50.0
-250.0   60.0   50.0
-250.0   60.0   33.333333333333336
-300.0   60.0   50.0
-250.0   90.0   50.0
-250.0   60.0   33.333333333333336
-300.0   90.0   33.333333333333336
-300.0   90.0   0.0
-250.0   90.0   0.0
-300.0   120.0   0.0
-300.0   90.0   16.666666666666668
-250.0   90.0   0.0
-250.0   120.0   0.0
-300.0   120.0   0.0
-250.0   120.0   16.666666666666668
-300.0   90.0   16.666666666666668
-300.0   120.0   16.666666666666668
-250.0   120.0   16.666666666666668
-300.0   120.0   0.0
-300.0   90.0   16.666666666666668
-250.0   120.0   16.666666666666668
-250.0   90.0   16.666666666666668
-250.0   90.0   0.0
-300.0   90.0   16.666666666666668
-250.0   120.0   16.666666666666668
-250.0   90.0   0.0
-300.0   120.0   0.0
-300.0   90.0   16.666666666666668
-250.0   90.0   16.666666666666668
-300.0   120.0   16.666666666666668
-300.0   90.0   33.333333333333336
-250.0   90.0   16.666666666666668
-250.0   120.0   16.666666666666668
-300.0   120.0   16.666666666666668
-250.0   120.0   33.333333333333336
-300.0   90.0   33.333333333333336
-300.0   120.0   33.333333333333336
-250.0   120.0   33.333333333333336
-300.0   120.0   16.666666666666668
-300.0   90.0   33.333333333333336
-250.0   120.0   33.333333333333336
-250.0   90.0   33.333333333333336
-250.0   90.0   16.666666666666668
-300.0   90.0   33.333333333333336
-250.0   120.0   33.333333333333336
-250.0   90.0   16.666666666666668
-300.0   120.0   16.666666666666668
-300.0   90.0   33.333333333333336
-250.0   90.0   33.333333333333336
-300.0   120.0   33.333333333333336
-300.0   90.0   50.0
-250.0   90.0   33.333333333333336
-250.0   120.0   33.333333333333336
-300.0   120.0   33.333333333333336
-250.0   120.0   50.0
-300.0   90.0   50.0
-300.0   120.0   50.0
-250.0   120.0   50.0
-300.0   120.0   33.333333333333336
-300.0   90.0   50.0
-250.0   120.0   50.0
-250.0   90.0   50.0
-250.0   90.0   33.333333333333336
-300.0   90.0   50.0
-250.0   120.0   50.0
-250.0   90.0   33.333333333333336
-300.0   120.0   33.333333333333336
-300.0   120.0   0.0
-250.0   120.0   0.0
-300.0   150.0   0.0
-300.0   120.0   16.666666666666668
-250.0   120.0   0.0
-250.0   150.0   0.0
-300.0   150.0   0.0
-250.0   150.0   16.666666666666668
-300.0   120.0   16.666666666666668
-300.0   150.0   16.666666666666668
-250.0   150.0   16.666666666666668
-300.0   150.0   0.0
-300.0   120.0   16.666666666666668
-250.0   150.0   16.666666666666668
-250.0   120.0   16.666666666666668
-250.0   120.0   0.0
-300.0   120.0   16.666666666666668
-250.0   150.0   16.666666666666668
-250.0   120.0   0.0
-300.0   150.0   0.0
-300.0   120.0   16.666666666666668
-250.0   120.0   16.666666666666668
-300.0   150.0   16.666666666666668
-300.0   120.0   33.333333333333336
-250.0   120.0   16.666666666666668
-250.0   150.0   16.666666666666668
-300.0   150.0   16.666666666666668
-250.0   150.0   33.333333333333336
-300.0   120.0   33.333333333333336
-300.0   150.0   33.333333333333336
-250.0   150.0   33.333333333333336
-300.0   150.0   16.666666666666668
-300.0   120.0   33.333333333333336
-250.0   150.0   33.333333333333336
-250.0   120.0   33.333333333333336
-250.0   120.0   16.666666666666668
-300.0   120.0   33.333333333333336
-250.0   150.0   33.333333333333336
-250.0   120.0   16.666666666666668
-300.0   150.0   16.666666666666668
-300.0   120.0   33.333333333333336
-250.0   120.0   33.333333333333336
-300.0   150.0   33.333333333333336
-300.0   120.0   50.0
-250.0   120.0   33.333333333333336
-250.0   150.0   33.333333333333336
-300.0   150.0   33.333333333333336
-250.0   150.0   50.0
-300.0   120.0   50.0
-300.0   150.0   50.0
-250.0   150.0   50.0
-300.0   150.0   33.333333333333336
-300.0   120.0   50.0
-250.0   150.0   50.0
-250.0   120.0   50.0
-250.0   120.0   33.333333333333336
-300.0   120.0   50.0
-250.0   150.0   50.0
-250.0   120.0   33.333333333333336
-300.0   150.0   33.333333333333336
-250.0   0.0   0.0
-200.0   0.0   0.0
-250.0   30.0   0.0
-250.0   0.0   16.666666666666668
-200.0   0.0   0.0
-200.0   30.0   0.0
-250.0   30.0   0.0
-200.0   30.0   16.666666666666668
-250.0   0.0   16.666666666666668
-250.0   30.0   16.666666666666668
-200.0   30.0   16.666666666666668
-250.0   30.0   0.0
-250.0   0.0   16.666666666666668
-200.0   30.0   16.666666666666668
-200.0   0.0   16.666666666666668
-200.0   0.0   0.0
-250.0   0.0   16.666666666666668
-200.0   30.0   16.666666666666668
-200.0   0.0   0.0
-250.0   30.0   0.0
-250.0   0.0   16.666666666666668
-200.0   0.0   16.666666666666668
-250.0   30.0   16.666666666666668
-250.0   0.0   33.333333333333336
-200.0   0.0   16.666666666666668
-200.0   30.0   16.666666666666668
-250.0   30.0   16.666666666666668
-200.0   30.0   33.333333333333336
-250.0   0.0   33.333333333333336
-250.0   30.0   33.333333333333336
-200.0   30.0   33.333333333333336
-250.0   30.0   16.666666666666668
-250.0   0.0   33.333333333333336
-200.0   30.0   33.333333333333336
-200.0   0.0   33.333333333333336
-200.0   0.0   16.666666666666668
-250.0   0.0   33.333333333333336
-200.0   30.0   33.333333333333336
-200.0   0.0   16.666666666666668
-250.0   30.0   16.666666666666668
-250.0   0.0   33.333333333333336
-200.0   0.0   33.333333333333336
-250.0   30.0   33.333333333333336
-250.0   0.0   50.0
-200.0   0.0   33.333333333333336
-200.0   30.0   33.333333333333336
-250.0   30.0   33.333333333333336
-200.0   30.0   50.0
-250.0   0.0   50.0
-250.0   30.0   50.0
-200.0   30.0   50.0
-250.0   30.0   33.333333333333336
-250.0   0.0   50.0
-200.0   30.0   50.0
-200.0   0.0   50.0
-200.0   0.0   33.333333333333336
-250.0   0.0   50.0
-200.0   30.0   50.0
-200.0   0.0   33.333333333333336
-250.0   30.0   33.333333333333336
-250.0   30.0   0.0
-200.0   30.0   0.0
-250.0   60.0   0.0
-250.0   30.0   16.666666666666668
-200.0   30.0   0.0
-200.0   60.0   0.0
-250.0   60.0   0.0
-200.0   60.0   16.666666666666668
-250.0   30.0   16.666666666666668
-250.0   60.0   16.666666666666668
-200.0   60.0   16.666666666666668
-250.0   60.0   0.0
-250.0   30.0   16.666666666666668
-200.0   60.0   16.666666666666668
-200.0   30.0   16.666666666666668
-200.0   30.0   0.0
-250.0   30.0   16.666666666666668
-200.0   60.0   16.666666666666668
-200.0   30.0   0.0
-250.0   60.0   0.0
-250.0   30.0   16.666666666666668
-200.0   30.0   16.666666666666668
-250.0   60.0   16.666666666666668
-250.0   30.0   33.333333333333336
-200.0   30.0   16.666666666666668
-200.0   60.0   16.666666666666668
-250.0   60.0   16.666666666666668
-200.0   60.0   33.333333333333336
-250.0   30.0   33.333333333333336
-250.0   60.0   33.333333333333336
-200.0   60.0   33.333333333333336
-250.0   60.0   16.666666666666668
-250.0   30.0   33.333333333333336
-200.0   60.0   33.333333333333336
-200.0   30.0   33.333333333333336
-200.0   30.0   16.666666666666668
-250.0   30.0   33.333333333333336
-200.0   60.0   33.333333333333336
-200.0   30.0   16.666666666666668
-250.0   60.0   16.666666666666668
-250.0   30.0   33.333333333333336
-200.0   30.0   33.333333333333336
-250.0   60.0   33.333333333333336
-250.0   30.0   50.0
-200.0   30.0   33.333333333333336
-200.0   60.0   33.333333333333336
-250.0   60.0   33.333333333333336
-200.0   60.0   50.0
-250.0   30.0   50.0
-250.0   60.0   50.0
-200.0   60.0   50.0
-250.0   60.0   33.333333333333336
-250.0   30.0   50.0
-200.0   60.0   50.0
-200.0   30.0   50.0
-200.0   30.0   33.333333333333336
-250.0   30.0   50.0
-200.0   60.0   50.0
-200.0   30.0   33.333333333333336
-250.0   60.0   33.333333333333336
-250.0   60.0   0.0
-200.0   60.0   0.0
-250.0   90.0   0.0
-250.0   60.0   16.666666666666668
-200.0   60.0   0.0
-200.0   90.0   0.0
-250.0   90.0   0.0
-200.0   90.0   16.666666666666668
-250.0   60.0   16.666666666666668
-250.0   90.0   16.666666666666668
-200.0   90.0   16.666666666666668
-250.0   90.0   0.0
-250.0   60.0   16.666666666666668
-200.0   90.0   16.666666666666668
-200.0   60.0   16.666666666666668
-200.0   60.0   0.0
-250.0   60.0   16.666666666666668
-200.0   90.0   16.666666666666668
-200.0   60.0   0.0
-250.0   90.0   0.0
-250.0   60.0   16.666666666666668
-200.0   60.0   16.666666666666668
-250.0   90.0   16.666666666666668
-250.0   60.0   33.333333333333336
-200.0   60.0   16.666666666666668
-200.0   90.0   16.666666666666668
-250.0   90.0   16.666666666666668
-200.0   90.0   33.333333333333336
-250.0   60.0   33.333333333333336
-250.0   90.0   33.333333333333336
-200.0   90.0   33.333333333333336
-250.0   90.0   16.666666666666668
-250.0   60.0   33.333333333333336
-200.0   90.0   33.333333333333336
-200.0   60.0   33.333333333333336
-200.0   60.0   16.666666666666668
-250.0   60.0   33.333333333333336
-200.0   90.0   33.333333333333336
-200.0   60.0   16.666666666666668
-250.0   90.0   16.666666666666668
-250.0   60.0   33.333333333333336
-200.0   60.0   33.333333333333336
-250.0   90.0   33.333333333333336
-250.0   60.0   50.0
-200.0   60.0   33.333333333333336
-200.0   90.0   33.333333333333336
-250.0   90.0   33.333333333333336
-200.0   90.0   50.0
-250.0   60.0   50.0
-250.0   90.0   50.0
-200.0   90.0   50.0
-250.0   90.0   33.333333333333336
-250.0   60.0   50.0
-200.0   90.0   50.0
-200.0   60.0   50.0
-200.0   60.0   33.333333333333336
-250.0   60.0   50.0
-200.0   90.0   50.0
-200.0   60.0   33.333333333333336
-250.0   90.0   33.333333333333336
-250.0   90.0   0.0
-200.0   90.0   0.0
-250.0   120.0   0.0
-250.0   90.0   16.666666666666668
-200.0   90.0   0.0
-200.0   120.0   0.0
-250.0   120.0   0.0
-200.0   120.0   16.666666666666668
-250.0   90.0   16.666666666666668
-250.0   120.0   16.666666666666668
-200.0   120.0   16.666666666666668
-250.0   120.0   0.0
-250.0   90.0   16.666666666666668
-200.0   120.0   16.666666666666668
-200.0   90.0   16.666666666666668
-200.0   90.0   0.0
-250.0   90.0   16.666666666666668
-200.0   120.0   16.666666666666668
-200.0   90.0   0.0
-250.0   120.0   0.0
-250.0   90.0   16.666666666666668
-200.0   90.0   16.666666666666668
-250.0   120.0   16.666666666666668
-250.0   90.0   33.333333333333336
-200.0   90.0   16.666666666666668
-200.0   120.0   16.666666666666668
-250.0   120.0   16.666666666666668
-200.0   120.0   33.333333333333336
-250.0   90.0   33.333333333333336
-250.0   120.0   33.333333333333336
-200.0   120.0   33.333333333333336
-250.0   120.0   16.666666666666668
-250.0   90.0   33.333333333333336
-200.0   120.0   33.333333333333336
-200.0   90.0   33.333333333333336
-200.0   90.0   16.666666666666668
-250.0   90.0   33.333333333333336
-200.0   120.0   33.333333333333336
-200.0   90.0   16.666666666666668
-250.0   120.0   16.666666666666668
-250.0   90.0   33.333333333333336
-200.0   90.0   33.333333333333336
-250.0   120.0   33.333333333333336
-250.0   90.0   50.0
-200.0   90.0   33.333333333333336
-200.0   120.0   33.333333333333336
-250.0   120.0   33.333333333333336
-200.0   120.0   50.0
-250.0   90.0   50.0
-250.0   120.0   50.0
-200.0   120.0   50.0
-250.0   120.0   33.333333333333336
-250.0   90.0   50.0
-200.0   120.0   50.0
-200.0   90.0   50.0
-200.0   90.0   33.333333333333336
-250.0   90.0   50.0
-200.0   120.0   50.0
-200.0   90.0   33.333333333333336
-250.0   120.0   33.333333333333336
-250.0   120.0   0.0
-200.0   120.0   0.0
-250.0   150.0   0.0
-250.0   120.0   16.666666666666668
-200.0   120.0   0.0
-200.0   150.0   0.0
-250.0   150.0   0.0
-200.0   150.0   16.666666666666668
-250.0   120.0   16.666666666666668
-250.0   150.0   16.666666666666668
-200.0   150.0   16.666666666666668
-250.0   150.0   0.0
-250.0   120.0   16.666666666666668
-200.0   150.0   16.666666666666668
-200.0   120.0   16.666666666666668
-200.0   120.0   0.0
-250.0   120.0   16.666666666666668
-200.0   150.0   16.666666666666668
-200.0   120.0   0.0
-250.0   150.0   0.0
-250.0   120.0   16.666666666666668
-200.0   120.0   16.666666666666668
-250.0   150.0   16.666666666666668
-250.0   120.0   33.333333333333336
-200.0   120.0   16.666666666666668
-200.0   150.0   16.666666666666668
-250.0   150.0   16.666666666666668
-200.0   150.0   33.333333333333336
-250.0   120.0   33.333333333333336
-250.0   150.0   33.333333333333336
-200.0   150.0   33.333333333333336
-250.0   150.0   16.666666666666668
-250.0   120.0   33.333333333333336
-200.0   150.0   33.333333333333336
-200.0   120.0   33.333333333333336
-200.0   120.0   16.666666666666668
-250.0   120.0   33.333333333333336
-200.0   150.0   33.333333333333336
-200.0   120.0   16.666666666666668
-250.0   150.0   16.666666666666668
-250.0   120.0   33.333333333333336
-200.0   120.0   33.333333333333336
-250.0   150.0   33.333333333333336
-250.0   120.0   50.0
-200.0   120.0   33.333333333333336
-200.0   150.0   33.333333333333336
-250.0   150.0   33.333333333333336
-200.0   150.0   50.0
-250.0   120.0   50.0
-250.0   150.0   50.0
-200.0   150.0   50.0
-250.0   150.0   33.333333333333336
-250.0   120.0   50.0
-200.0   150.0   50.0
-200.0   120.0   50.0
-200.0   120.0   33.333333333333336
-250.0   120.0   50.0
-200.0   150.0   50.0
-200.0   120.0   33.333333333333336
-250.0   150.0   33.333333333333336
-200.0   0.0   0.0
-150.0   0.0   0.0
-200.0   30.0   0.0
-200.0   0.0   16.666666666666668
-150.0   0.0   0.0
-150.0   30.0   0.0
-200.0   30.0   0.0
-150.0   30.0   16.666666666666668
-200.0   0.0   16.666666666666668
-200.0   30.0   16.666666666666668
-150.0   30.0   16.666666666666668
-200.0   30.0   0.0
-200.0   0.0   16.666666666666668
-150.0   30.0   16.666666666666668
-150.0   0.0   16.666666666666668
-150.0   0.0   0.0
-200.0   0.0   16.666666666666668
-150.0   30.0   16.666666666666668
-150.0   0.0   0.0
-200.0   30.0   0.0
-200.0   0.0   16.666666666666668
-150.0   0.0   16.666666666666668
-200.0   30.0   16.666666666666668
-200.0   0.0   33.333333333333336
-150.0   0.0   16.666666666666668
-150.0   30.0   16.666666666666668
-200.0   30.0   16.666666666666668
-150.0   30.0   33.333333333333336
-200.0   0.0   33.333333333333336
-200.0   30.0   33.333333333333336
-150.0   30.0   33.333333333333336
-200.0   30.0   16.666666666666668
-200.0   0.0   33.333333333333336
-150.0   30.0   33.333333333333336
-150.0   0.0   33.333333333333336
-150.0   0.0   16.666666666666668
-200.0   0.0   33.333333333333336
-150.0   30.0   33.333333333333336
-150.0   0.0   16.666666666666668
-200.0   30.0   16.666666666666668
-200.0   0.0   33.333333333333336
-150.0   0.0   33.333333333333336
-200.0   30.0   33.333333333333336
-200.0   0.0   50.0
-150.0   0.0   33.333333333333336
-150.0   30.0   33.333333333333336
-200.0   30.0   33.333333333333336
-150.0   30.0   50.0
-200.0   0.0   50.0
-200.0   30.0   50.0
-150.0   30.0   50.0
-200.0   30.0   33.333333333333336
-200.0   0.0   50.0
-150.0   30.0   50.0
-150.0   0.0   50.0
-150.0   0.0   33.333333333333336
-200.0   0.0   50.0
-150.0   30.0   50.0
-150.0   0.0   33.333333333333336
-200.0   30.0   33.333333333333336
-200.0   30.0   0.0
-150.0   30.0   0.0
-200.0   60.0   0.0
-200.0   30.0   16.666666666666668
-150.0   30.0   0.0
-150.0   60.0   0.0
-200.0   60.0   0.0
-150.0   60.0   16.666666666666668
-200.0   30.0   16.666666666666668
-200.0   60.0   16.666666666666668
-150.0   60.0   16.666666666666668
-200.0   60.0   0.0
-200.0   30.0   16.666666666666668
-150.0   60.0   16.666666666666668
-150.0   30.0   16.666666666666668
-150.0   30.0   0.0
-200.0   30.0   16.666666666666668
-150.0   60.0   16.666666666666668
-150.0   30.0   0.0
-200.0   60.0   0.0
-200.0   30.0   16.666666666666668
-150.0   30.0   16.666666666666668
-200.0   60.0   16.666666666666668
-200.0   30.0   33.333333333333336
-150.0   30.0   16.666666666666668
-150.0   60.0   16.666666666666668
-200.0   60.0   16.666666666666668
-150.0   60.0   33.333333333333336
-200.0   30.0   33.333333333333336
-200.0   60.0   33.333333333333336
-150.0   60.0   33.333333333333336
-200.0   60.0   16.666666666666668
-200.0   30.0   33.333333333333336
-150.0   60.0   33.333333333333336
-150.0   30.0   33.333333333333336
-150.0   30.0   16.666666666666668
-200.0   30.0   33.333333333333336
-150.0   60.0   33.333333333333336
-150.0   30.0   16.666666666666668
-200.0   60.0   16.666666666666668
-200.0   30.0   33.333333333333336
-150.0   30.0   33.333333333333336
-200.0   60.0   33.333333333333336
-200.0   30.0   50.0
-150.0   30.0   33.333333333333336
-150.0   60.0   33.333333333333336
-200.0   60.0   33.333333333333336
-150.0   60.0   50.0
-200.0   30.0   50.0
-200.0   60.0   50.0
-150.0   60.0   50.0
-200.0   60.0   33.333333333333336
-200.0   30.0   50.0
-150.0   60.0   50.0
-150.0   30.0   50.0
-150.0   30.0   33.333333333333336
-200.0   30.0   50.0
-150.0   60.0   50.0
-150.0   30.0   33.333333333333336
-200.0   60.0   33.333333333333336
-200.0   60.0   0.0
-150.0   60.0   0.0
-200.0   90.0   0.0
-200.0   60.0   16.666666666666668
-150.0   60.0   0.0
-150.0   90.0   0.0
-200.0   90.0   0.0
-150.0   90.0   16.666666666666668
-200.0   60.0   16.666666666666668
-200.0   90.0   16.666666666666668
-150.0   90.0   16.666666666666668
-200.0   90.0   0.0
-200.0   60.0   16.666666666666668
-150.0   90.0   16.666666666666668
-150.0   60.0   16.666666666666668
-150.0   60.0   0.0
-200.0   60.0   16.666666666666668
-150.0   90.0   16.666666666666668
-150.0   60.0   0.0
-200.0   90.0   0.0
-200.0   60.0   16.666666666666668
-150.0   60.0   16.666666666666668
-200.0   90.0   16.666666666666668
-200.0   60.0   33.333333333333336
-150.0   60.0   16.666666666666668
-150.0   90.0   16.666666666666668
-200.0   90.0   16.666666666666668
-150.0   90.0   33.333333333333336
-200.0   60.0   33.333333333333336
-200.0   90.0   33.333333333333336
-150.0   90.0   33.333333333333336
-200.0   90.0   16.666666666666668
-200.0   60.0   33.333333333333336
-150.0   90.0   33.333333333333336
-150.0   60.0   33.333333333333336
-150.0   60.0   16.666666666666668
-200.0   60.0   33.333333333333336
-150.0   90.0   33.333333333333336
-150.0   60.0   16.666666666666668
-200.0   90.0   16.666666666666668
-200.0   60.0   33.333333333333336
-150.0   60.0   33.333333333333336
-200.0   90.0   33.333333333333336
-200.0   60.0   50.0
-150.0   60.0   33.333333333333336
-150.0   90.0   33.333333333333336
-200.0   90.0   33.333333333333336
-150.0   90.0   50.0
-200.0   60.0   50.0
-200.0   90.0   50.0
-150.0   90.0   50.0
-200.0   90.0   33.333333333333336
-200.0   60.0   50.0
-150.0   90.0   50.0
-150.0   60.0   50.0
-150.0   60.0   33.333333333333336
-200.0   60.0   50.0
-150.0   90.0   50.0
-150.0   60.0   33.333333333333336
-200.0   90.0   33.333333333333336
-200.0   90.0   0.0
-150.0   90.0   0.0
-200.0   120.0   0.0
-200.0   90.0   16.666666666666668
-150.0   90.0   0.0
-150.0   120.0   0.0
-200.0   120.0   0.0
-150.0   120.0   16.666666666666668
-200.0   90.0   16.666666666666668
-200.0   120.0   16.666666666666668
-150.0   120.0   16.666666666666668
-200.0   120.0   0.0
-200.0   90.0   16.666666666666668
-150.0   120.0   16.666666666666668
-150.0   90.0   16.666666666666668
-150.0   90.0   0.0
-200.0   90.0   16.666666666666668
-150.0   120.0   16.666666666666668
-150.0   90.0   0.0
-200.0   120.0   0.0
-200.0   90.0   16.666666666666668
-150.0   90.0   16.666666666666668
-200.0   120.0   16.666666666666668
-200.0   90.0   33.333333333333336
-150.0   90.0   16.666666666666668
-150.0   120.0   16.666666666666668
-200.0   120.0   16.666666666666668
-150.0   120.0   33.333333333333336
-200.0   90.0   33.333333333333336
-200.0   120.0   33.333333333333336
-150.0   120.0   33.333333333333336
-200.0   120.0   16.666666666666668
-200.0   90.0   33.333333333333336
-150.0   120.0   33.333333333333336
-150.0   90.0   33.333333333333336
-150.0   90.0   16.666666666666668
-200.0   90.0   33.333333333333336
-150.0   120.0   33.333333333333336
-150.0   90.0   16.666666666666668
-200.0   120.0   16.666666666666668
-200.0   90.0   33.333333333333336
-150.0   90.0   33.333333333333336
-200.0   120.0   33.333333333333336
-200.0   90.0   50.0
-150.0   90.0   33.333333333333336
-150.0   120.0   33.333333333333336
-200.0   120.0   33.333333333333336
-150.0   120.0   50.0
-200.0   90.0   50.0
-200.0   120.0   50.0
-150.0   120.0   50.0
-200.0   120.0   33.333333333333336
-200.0   90.0   50.0
-150.0   120.0   50.0
-150.0   90.0   50.0
-150.0   90.0   33.333333333333336
-200.0   90.0   50.0
-150.0   120.0   50.0
-150.0   90.0   33.333333333333336
-200.0   120.0   33.333333333333336
-200.0   120.0   0.0
-150.0   120.0   0.0
-200.0   150.0   0.0
-200.0   120.0   16.666666666666668
-150.0   120.0   0.0
-150.0   150.0   0.0
-200.0   150.0   0.0
-150.0   150.0   16.666666666666668
-200.0   120.0   16.666666666666668
-200.0   150.0   16.666666666666668
-150.0   150.0   16.666666666666668
-200.0   150.0   0.0
-200.0   120.0   16.666666666666668
-150.0   150.0   16.666666666666668
-150.0   120.0   16.666666666666668
-150.0   120.0   0.0
-200.0   120.0   16.666666666666668
-150.0   150.0   16.666666666666668
-150.0   120.0   0.0
-200.0   150.0   0.0
-200.0   120.0   16.666666666666668
-150.0   120.0   16.666666666666668
-200.0   150.0   16.666666666666668
-200.0   120.0   33.333333333333336
-150.0   120.0   16.666666666666668
-150.0   150.0   16.666666666666668
-200.0   150.0   16.666666666666668
-150.0   150.0   33.333333333333336
-200.0   120.0   33.333333333333336
-200.0   150.0   33.333333333333336
-150.0   150.0   33.333333333333336
-200.0   150.0   16.666666666666668
-200.0   120.0   33.333333333333336
-150.0   150.0   33.333333333333336
-150.0   120.0   33.333333333333336
-150.0   120.0   16.666666666666668
-200.0   120.0   33.333333333333336
-150.0   150.0   33.333333333333336
-150.0   120.0   16.666666666666668
-200.0   150.0   16.666666666666668
-200.0   120.0   33.333333333333336
-150.0   120.0   33.333333333333336
-200.0   150.0   33.333333333333336
-200.0   120.0   50.0
-150.0   120.0   33.333333333333336
-150.0   150.0   33.333333333333336
-200.0   150.0   33.333333333333336
-150.0   150.0   50.0
-200.0   120.0   50.0
-200.0   150.0   50.0
-150.0   150.0   50.0
-200.0   150.0   33.333333333333336
-200.0   120.0   50.0
-150.0   150.0   50.0
-150.0   120.0   50.0
-150.0   120.0   33.333333333333336
-200.0   120.0   50.0
-150.0   150.0   50.0
-150.0   120.0   33.333333333333336
-200.0   150.0   33.333333333333336
-150.0   0.0   0.0
-100.0   0.0   0.0
-150.0   30.0   0.0
-150.0   0.0   16.666666666666668
-100.0   0.0   0.0
-100.0   30.0   0.0
-150.0   30.0   0.0
-100.0   30.0   16.666666666666668
-150.0   0.0   16.666666666666668
-150.0   30.0   16.666666666666668
-100.0   30.0   16.666666666666668
-150.0   30.0   0.0
-150.0   0.0   16.666666666666668
-100.0   30.0   16.666666666666668
-100.0   0.0   16.666666666666668
-100.0   0.0   0.0
-150.0   0.0   16.666666666666668
-100.0   30.0   16.666666666666668
-100.0   0.0   0.0
-150.0   30.0   0.0
-150.0   0.0   16.666666666666668
-100.0   0.0   16.666666666666668
-150.0   30.0   16.666666666666668
-150.0   0.0   33.333333333333336
-100.0   0.0   16.666666666666668
-100.0   30.0   16.666666666666668
-150.0   30.0   16.666666666666668
-100.0   30.0   33.333333333333336
-150.0   0.0   33.333333333333336
-150.0   30.0   33.333333333333336
-100.0   30.0   33.333333333333336
-150.0   30.0   16.666666666666668
-150.0   0.0   33.333333333333336
-100.0   30.0   33.333333333333336
-100.0   0.0   33.333333333333336
-100.0   0.0   16.666666666666668
-150.0   0.0   33.333333333333336
-100.0   30.0   33.333333333333336
-100.0   0.0   16.666666666666668
-150.0   30.0   16.666666666666668
-150.0   0.0   33.333333333333336
-100.0   0.0   33.333333333333336
-150.0   30.0   33.333333333333336
-150.0   0.0   50.0
-100.0   0.0   33.333333333333336
-100.0   30.0   33.333333333333336
-150.0   30.0   33.333333333333336
-100.0   30.0   50.0
-150.0   0.0   50.0
-150.0   30.0   50.0
-100.0   30.0   50.0
-150.0   30.0   33.333333333333336
-150.0   0.0   50.0
-100.0   30.0   50.0
-100.0   0.0   50.0
-100.0   0.0   33.333333333333336
-150.0   0.0   50.0
-100.0   30.0   50.0
-100.0   0.0   33.333333333333336
-150.0   30.0   33.333333333333336
-150.0   30.0   0.0
-100.0   30.0   0.0
-150.0   60.0   0.0
-150.0   30.0   16.666666666666668
-100.0   30.0   0.0
-100.0   60.0   0.0
-150.0   60.0   0.0
-100.0   60.0   16.666666666666668
-150.0   30.0   16.666666666666668
-150.0   60.0   16.666666666666668
-100.0   60.0   16.666666666666668
-150.0   60.0   0.0
-150.0   30.0   16.666666666666668
-100.0   60.0   16.666666666666668
-100.0   30.0   16.666666666666668
-100.0   30.0   0.0
-150.0   30.0   16.666666666666668
-100.0   60.0   16.666666666666668
-100.0   30.0   0.0
-150.0   60.0   0.0
-150.0   30.0   16.666666666666668
-100.0   30.0   16.666666666666668
-150.0   60.0   16.666666666666668
-150.0   30.0   33.333333333333336
-100.0   30.0   16.666666666666668
-100.0   60.0   16.666666666666668
-150.0   60.0   16.666666666666668
-100.0   60.0   33.333333333333336
-150.0   30.0   33.333333333333336
-150.0   60.0   33.333333333333336
-100.0   60.0   33.333333333333336
-150.0   60.0   16.666666666666668
-150.0   30.0   33.333333333333336
-100.0   60.0   33.333333333333336
-100.0   30.0   33.333333333333336
-100.0   30.0   16.666666666666668
-150.0   30.0   33.333333333333336
-100.0   60.0   33.333333333333336
-100.0   30.0   16.666666666666668
-150.0   60.0   16.666666666666668
-150.0   30.0   33.333333333333336
-100.0   30.0   33.333333333333336
-150.0   60.0   33.333333333333336
-150.0   30.0   50.0
-100.0   30.0   33.333333333333336
-100.0   60.0   33.333333333333336
-150.0   60.0   33.333333333333336
-100.0   60.0   50.0
-150.0   30.0   50.0
-150.0   60.0   50.0
-100.0   60.0   50.0
-150.0   60.0   33.333333333333336
-150.0   30.0   50.0
-100.0   60.0   50.0
-100.0   30.0   50.0
-100.0   30.0   33.333333333333336
-150.0   30.0   50.0
-100.0   60.0   50.0
-100.0   30.0   33.333333333333336
-150.0   60.0   33.333333333333336
-150.0   60.0   0.0
-100.0   60.0   0.0
-150.0   90.0   0.0
-150.0   60.0   16.666666666666668
-100.0   60.0   0.0
-100.0   90.0   0.0
-150.0   90.0   0.0
-100.0   90.0   16.666666666666668
-150.0   60.0   16.666666666666668
-150.0   90.0   16.666666666666668
-100.0   90.0   16.666666666666668
-150.0   90.0   0.0
-150.0   60.0   16.666666666666668
-100.0   90.0   16.666666666666668
-100.0   60.0   16.666666666666668
-100.0   60.0   0.0
-150.0   60.0   16.666666666666668
-100.0   90.0   16.666666666666668
-100.0   60.0   0.0
-150.0   90.0   0.0
-150.0   60.0   16.666666666666668
-100.0   60.0   16.666666666666668
-150.0   90.0   16.666666666666668
-150.0   60.0   33.333333333333336
-100.0   60.0   16.666666666666668
-100.0   90.0   16.666666666666668
-150.0   90.0   16.666666666666668
-100.0   90.0   33.333333333333336
-150.0   60.0   33.333333333333336
-150.0   90.0   33.333333333333336
-100.0   90.0   33.333333333333336
-150.0   90.0   16.666666666666668
-150.0   60.0   33.333333333333336
-100.0   90.0   33.333333333333336
-100.0   60.0   33.333333333333336
-100.0   60.0   16.666666666666668
-150.0   60.0   33.333333333333336
-100.0   90.0   33.333333333333336
-100.0   60.0   16.666666666666668
-150.0   90.0   16.666666666666668
-150.0   60.0   33.333333333333336
-100.0   60.0   33.333333333333336
-150.0   90.0   33.333333333333336
-150.0   60.0   50.0
-100.0   60.0   33.333333333333336
-100.0   90.0   33.333333333333336
-150.0   90.0   33.333333333333336
-100.0   90.0   50.0
-150.0   60.0   50.0
-150.0   90.0   50.0
-100.0   90.0   50.0
-150.0   90.0   33.333333333333336
-150.0   60.0   50.0
-100.0   90.0   50.0
-100.0   60.0   50.0
-100.0   60.0   33.333333333333336
-150.0   60.0   50.0
-100.0   90.0   50.0
-100.0   60.0   33.333333333333336
-150.0   90.0   33.333333333333336
-150.0   90.0   0.0
-100.0   90.0   0.0
-150.0   120.0   0.0
-150.0   90.0   16.666666666666668
-100.0   90.0   0.0
-100.0   120.0   0.0
-150.0   120.0   0.0
-100.0   120.0   16.666666666666668
-150.0   90.0   16.666666666666668
-150.0   120.0   16.666666666666668
-100.0   120.0   16.666666666666668
-150.0   120.0   0.0
-150.0   90.0   16.666666666666668
-100.0   120.0   16.666666666666668
-100.0   90.0   16.666666666666668
-100.0   90.0   0.0
-150.0   90.0   16.666666666666668
-100.0   120.0   16.666666666666668
-100.0   90.0   0.0
-150.0   120.0   0.0
-150.0   90.0   16.666666666666668
-100.0   90.0   16.666666666666668
-150.0   120.0   16.666666666666668
-150.0   90.0   33.333333333333336
-100.0   90.0   16.666666666666668
-100.0   120.0   16.666666666666668
-150.0   120.0   16.666666666666668
-100.0   120.0   33.333333333333336
-150.0   90.0   33.333333333333336
-150.0   120.0   33.333333333333336
-100.0   120.0   33.333333333333336
-150.0   120.0   16.666666666666668
-150.0   90.0   33.333333333333336
-100.0   120.0   33.333333333333336
-100.0   90.0   33.333333333333336
-100.0   90.0   16.666666666666668
-150.0   90.0   33.333333333333336
-100.0   120.0   33.333333333333336
-100.0   90.0   16.666666666666668
-150.0   120.0   16.666666666666668
-150.0   90.0   33.333333333333336
-100.0   90.0   33.333333333333336
-150.0   120.0   33.333333333333336
-150.0   90.0   50.0
-100.0   90.0   33.333333333333336
-100.0   120.0   33.333333333333336
-150.0   120.0   33.333333333333336
-100.0   120.0   50.0
-150.0   90.0   50.0
-150.0   120.0   50.0
-100.0   120.0   50.0
-150.0   120.0   33.333333333333336
-150.0   90.0   50.0
-100.0   120.0   50.0
-100.0   90.0   50.0
-100.0   90.0   33.333333333333336
-150.0   90.0   50.0
-100.0   120.0   50.0
-100.0   90.0   33.333333333333336
-150.0   120.0   33.333333333333336
-150.0   120.0   0.0
-100.0   120.0   0.0
-150.0   150.0   0.0
-150.0   120.0   16.666666666666668
-100.0   120.0   0.0
-100.0   150.0   0.0
-150.0   150.0   0.0
-100.0   150.0   16.666666666666668
-150.0   120.0   16.666666666666668
-150.0   150.0   16.666666666666668
-100.0   150.0   16.666666666666668
-150.0   150.0   0.0
-150.0   120.0   16.666666666666668
-100.0   150.0   16.666666666666668
-100.0   120.0   16.666666666666668
-100.0   120.0   0.0
-150.0   120.0   16.666666666666668
-100.0   150.0   16.666666666666668
-100.0   120.0   0.0
-150.0   150.0   0.0
-150.0   120.0   16.666666666666668
-100.0   120.0   16.666666666666668
-150.0   150.0   16.666666666666668
-150.0   120.0   33.333333333333336
-100.0   120.0   16.666666666666668
-100.0   150.0   16.666666666666668
-150.0   150.0   16.666666666666668
-100.0   150.0   33.333333333333336
-150.0   120.0   33.333333333333336
-150.0   150.0   33.333333333333336
-100.0   150.0   33.333333333333336
-150.0   150.0   16.666666666666668
-150.0   120.0   33.333333333333336
-100.0   150.0   33.333333333333336
-100.0   120.0   33.333333333333336
-100.0   120.0   16.666666666666668
-150.0   120.0   33.333333333333336
-100.0   150.0   33.333333333333336
-100.0   120.0   16.666666666666668
-150.0   150.0   16.666666666666668
-150.0   120.0   33.333333333333336
-100.0   120.0   33.333333333333336
-150.0   150.0   33.333333333333336
-150.0   120.0   50.0
-100.0   120.0   33.333333333333336
-100.0   150.0   33.333333333333336
-150.0   150.0   33.333333333333336
-100.0   150.0   50.0
-150.0   120.0   50.0
-150.0   150.0   50.0
-100.0   150.0   50.0
-150.0   150.0   33.333333333333336
-150.0   120.0   50.0
-100.0   150.0   50.0
-100.0   120.0   50.0
-100.0   120.0   33.333333333333336
-150.0   120.0   50.0
-100.0   150.0   50.0
-100.0   120.0   33.333333333333336
-150.0   150.0   33.333333333333336
-100.0   0.0   0.0
-50.0   0.0   0.0
-100.0   30.0   0.0
-100.0   0.0   16.666666666666668
-50.0   0.0   0.0
-50.0   30.0   0.0
-100.0   30.0   0.0
-50.0   30.0   16.666666666666668
-100.0   0.0   16.666666666666668
-100.0   30.0   16.666666666666668
-50.0   30.0   16.666666666666668
-100.0   30.0   0.0
-100.0   0.0   16.666666666666668
-50.0   30.0   16.666666666666668
-50.0   0.0   16.666666666666668
-50.0   0.0   0.0
-100.0   0.0   16.666666666666668
-50.0   30.0   16.666666666666668
-50.0   0.0   0.0
-100.0   30.0   0.0
-100.0   0.0   16.666666666666668
-50.0   0.0   16.666666666666668
-100.0   30.0   16.666666666666668
-100.0   0.0   33.333333333333336
-50.0   0.0   16.666666666666668
-50.0   30.0   16.666666666666668
-100.0   30.0   16.666666666666668
-50.0   30.0   33.333333333333336
-100.0   0.0   33.333333333333336
-100.0   30.0   33.333333333333336
-50.0   30.0   33.333333333333336
-100.0   30.0   16.666666666666668
-100.0   0.0   33.333333333333336
-50.0   30.0   33.333333333333336
-50.0   0.0   33.333333333333336
-50.0   0.0   16.666666666666668
-100.0   0.0   33.333333333333336
-50.0   30.0   33.333333333333336
-50.0   0.0   16.666666666666668
-100.0   30.0   16.666666666666668
-100.0   0.0   33.333333333333336
-50.0   0.0   33.333333333333336
-100.0   30.0   33.333333333333336
-100.0   0.0   50.0
-50.0   0.0   33.333333333333336
-50.0   30.0   33.333333333333336
-100.0   30.0   33.333333333333336
-50.0   30.0   50.0
-100.0   0.0   50.0
-100.0   30.0   50.0
-50.0   30.0   50.0
-100.0   30.0   33.333333333333336
-100.0   0.0   50.0
-50.0   30.0   50.0
-50.0   0.0   50.0
-50.0   0.0   33.333333333333336
-100.0   0.0   50.0
-50.0   30.0   50.0
-50.0   0.0   33.333333333333336
-100.0   30.0   33.333333333333336
-100.0   30.0   0.0
-50.0   30.0   0.0
-100.0   60.0   0.0
-100.0   30.0   16.666666666666668
-50.0   30.0   0.0
-50.0   60.0   0.0
-100.0   60.0   0.0
-50.0   60.0   16.666666666666668
-100.0   30.0   16.666666666666668
-100.0   60.0   16.666666666666668
-50.0   60.0   16.666666666666668
-100.0   60.0   0.0
-100.0   30.0   16.666666666666668
-50.0   60.0   16.666666666666668
-50.0   30.0   16.666666666666668
-50.0   30.0   0.0
-100.0   30.0   16.666666666666668
-50.0   60.0   16.666666666666668
-50.0   30.0   0.0
-100.0   60.0   0.0
-100.0   30.0   16.666666666666668
-50.0   30.0   16.666666666666668
-100.0   60.0   16.666666666666668
-100.0   30.0   33.333333333333336
-50.0   30.0   16.666666666666668
-50.0   60.0   16.666666666666668
-100.0   60.0   16.666666666666668
-50.0   60.0   33.333333333333336
-100.0   30.0   33.333333333333336
-100.0   60.0   33.333333333333336
-50.0   60.0   33.333333333333336
-100.0   60.0   16.666666666666668
-100.0   30.0   33.333333333333336
-50.0   60.0   33.333333333333336
-50.0   30.0   33.333333333333336
-50.0   30.0   16.666666666666668
-100.0   30.0   33.333333333333336
-50.0   60.0   33.333333333333336
-50.0   30.0   16.666666666666668
-100.0   60.0   16.666666666666668
-100.0   30.0   33.333333333333336
-50.0   30.0   33.333333333333336
-100.0   60.0   33.333333333333336
-100.0   30.0   50.0
-50.0   30.0   33.333333333333336
-50.0   60.0   33.333333333333336
-100.0   60.0   33.333333333333336
-50.0   60.0   50.0
-100.0   30.0   50.0
-100.0   60.0   50.0
-50.0   60.0   50.0
-100.0   60.0   33.333333333333336
-100.0   30.0   50.0
-50.0   60.0   50.0
-50.0   30.0   50.0
-50.0   30.0   33.333333333333336
-100.0   30.0   50.0
-50.0   60.0   50.0
-50.0   30.0   33.333333333333336
-100.0   60.0   33.333333333333336
-100.0   60.0   0.0
-50.0   60.0   0.0
-100.0   90.0   0.0
-100.0   60.0   16.666666666666668
-50.0   60.0   0.0
-50.0   90.0   0.0
-100.0   90.0   0.0
-50.0   90.0   16.666666666666668
-100.0   60.0   16.666666666666668
-100.0   90.0   16.666666666666668
-50.0   90.0   16.666666666666668
-100.0   90.0   0.0
-100.0   60.0   16.666666666666668
-50.0   90.0   16.666666666666668
-50.0   60.0   16.666666666666668
-50.0   60.0   0.0
-100.0   60.0   16.666666666666668
-50.0   90.0   16.666666666666668
-50.0   60.0   0.0
-100.0   90.0   0.0
-100.0   60.0   16.666666666666668
-50.0   60.0   16.666666666666668
-100.0   90.0   16.666666666666668
-100.0   60.0   33.333333333333336
-50.0   60.0   16.666666666666668
-50.0   90.0   16.666666666666668
-100.0   90.0   16.666666666666668
-50.0   90.0   33.333333333333336
-100.0   60.0   33.333333333333336
-100.0   90.0   33.333333333333336
-50.0   90.0   33.333333333333336
-100.0   90.0   16.666666666666668
-100.0   60.0   33.333333333333336
-50.0   90.0   33.333333333333336
-50.0   60.0   33.333333333333336
-50.0   60.0   16.666666666666668
-100.0   60.0   33.333333333333336
-50.0   90.0   33.333333333333336
-50.0   60.0   16.666666666666668
-100.0   90.0   16.666666666666668
-100.0   60.0   33.333333333333336
-50.0   60.0   33.333333333333336
-100.0   90.0   33.333333333333336
-100.0   60.0   50.0
-50.0   60.0   33.333333333333336
-50.0   90.0   33.333333333333336
-100.0   90.0   33.333333333333336
-50.0   90.0   50.0
-100.0   60.0   50.0
-100.0   90.0   50.0
-50.0   90.0   50.0
-100.0   90.0   33.333333333333336
-100.0   60.0   50.0
-50.0   90.0   50.0
-50.0   60.0   50.0
-50.0   60.0   33.333333333333336
-100.0   60.0   50.0
-50.0   90.0   50.0
-50.0   60.0   33.333333333333336
-100.0   90.0   33.333333333333336
-100.0   90.0   0.0
-50.0   90.0   0.0
-100.0   120.0   0.0
-100.0   90.0   16.666666666666668
-50.0   90.0   0.0
-50.0   120.0   0.0
-100.0   120.0   0.0
-50.0   120.0   16.666666666666668
-100.0   90.0   16.666666666666668
-100.0   120.0   16.666666666666668
-50.0   120.0   16.666666666666668
-100.0   120.0   0.0
-100.0   90.0   16.666666666666668
-50.0   120.0   16.666666666666668
-50.0   90.0   16.666666666666668
-50.0   90.0   0.0
-100.0   90.0   16.666666666666668
-50.0   120.0   16.666666666666668
-50.0   90.0   0.0
-100.0   120.0   0.0
-100.0   90.0   16.666666666666668
-50.0   90.0   16.666666666666668
-100.0   120.0   16.666666666666668
-100.0   90.0   33.333333333333336
-50.0   90.0   16.666666666666668
-50.0   120.0   16.666666666666668
-100.0   120.0   16.666666666666668
-50.0   120.0   33.333333333333336
-100.0   90.0   33.333333333333336
-100.0   120.0   33.333333333333336
-50.0   120.0   33.333333333333336
-100.0   120.0   16.666666666666668
-100.0   90.0   33.333333333333336
-50.0   120.0   33.333333333333336
-50.0   90.0   33.333333333333336
-50.0   90.0   16.666666666666668
-100.0   90.0   33.333333333333336
-50.0   120.0   33.333333333333336
-50.0   90.0   16.666666666666668
-100.0   120.0   16.666666666666668
-100.0   90.0   33.333333333333336
-50.0   90.0   33.333333333333336
-100.0   120.0   33.333333333333336
-100.0   90.0   50.0
-50.0   90.0   33.333333333333336
-50.0   120.0   33.333333333333336
-100.0   120.0   33.333333333333336
-50.0   120.0   50.0
-100.0   90.0   50.0
-100.0   120.0   50.0
-50.0   120.0   50.0
-100.0   120.0   33.333333333333336
-100.0   90.0   50.0
-50.0   120.0   50.0
-50.0   90.0   50.0
-50.0   90.0   33.333333333333336
-100.0   90.0   50.0
-50.0   120.0   50.0
-50.0   90.0   33.333333333333336
-100.0   120.0   33.333333333333336
-100.0   120.0   0.0
-50.0   120.0   0.0
-100.0   150.0   0.0
-100.0   120.0   16.666666666666668
-50.0   120.0   0.0
-50.0   150.0   0.0
-100.0   150.0   0.0
-50.0   150.0   16.666666666666668
-100.0   120.0   16.666666666666668
-100.0   150.0   16.666666666666668
-50.0   150.0   16.666666666666668
-100.0   150.0   0.0
-100.0   120.0   16.666666666666668
-50.0   150.0   16.666666666666668
-50.0   120.0   16.666666666666668
-50.0   120.0   0.0
-100.0   120.0   16.666666666666668
-50.0   150.0   16.666666666666668
-50.0   120.0   0.0
-100.0   150.0   0.0
-100.0   120.0   16.666666666666668
-50.0   120.0   16.666666666666668
-100.0   150.0   16.666666666666668
-100.0   120.0   33.333333333333336
-50.0   120.0   16.666666666666668
-50.0   150.0   16.666666666666668
-100.0   150.0   16.666666666666668
-50.0   150.0   33.333333333333336
-100.0   120.0   33.333333333333336
-100.0   150.0   33.333333333333336
-50.0   150.0   33.333333333333336
-100.0   150.0   16.666666666666668
-100.0   120.0   33.333333333333336
-50.0   150.0   33.333333333333336
-50.0   120.0   33.333333333333336
-50.0   120.0   16.666666666666668
-100.0   120.0   33.333333333333336
-50.0   150.0   33.333333333333336
-50.0   120.0   16.666666666666668
-100.0   150.0   16.666666666666668
-100.0   120.0   33.333333333333336
-50.0   120.0   33.333333333333336
-100.0   150.0   33.333333333333336
-100.0   120.0   50.0
-50.0   120.0   33.333333333333336
-50.0   150.0   33.333333333333336
-100.0   150.0   33.333333333333336
-50.0   150.0   50.0
-100.0   120.0   50.0
-100.0   150.0   50.0
-50.0   150.0   50.0
-100.0   150.0   33.333333333333336
-100.0   120.0   50.0
-50.0   150.0   50.0
-50.0   120.0   50.0
-50.0   120.0   33.333333333333336
-100.0   120.0   50.0
-50.0   150.0   50.0
-50.0   120.0   33.333333333333336
-100.0   150.0   33.333333333333336
-50.0   0.0   0.0
0.0   0.0   0.0
-50.0   30.0   0.0
-50.0   0.0   16.666666666666668
0.0   0.0   0.0
0.0   30.0   0.0
-50.0   30.0   0.0
0.0   30.0   16.666666666666668
-50.0   0.0   16.666666666666668
-50.0   30.0   16.666666666666668
0.0   30.0   16.666666666666668
-50.0   30.0   0.0
-50.0   0.0   16.666666666666668
0.0   30.0   16.666666666666668
0.0   0.0   16.666666666666668
0.0   0.0   0.0
-50.0   0.0   16.666666666666668
0.0   30.0   16.666666666666668
0.0   0.0   0.0
-50.0   30.0   0.0
-50.0   0.0   16.666666666666668
0.0   0.0   16.666666666666668
-50.0   30.0   16.666666666666668
-50.0   0.0   33.333333333333336
0.0   0.0   16.666666666666668
0.0   30.0   16.666666666666668
-50.0   30.0   16.666666666666668
0.0   30.0   33.333333333333336
-50.0   0.0   33.333333333333336
-50.0   30.0   33.333333333333336
0.0   30.0   33.333333333333336
-50.0   30.0   16.666666666666668
-50.0   0.0   33.333333333333336
0.0   30.0   33.333333333333336
0.0   0.0   33.333333333333336
0.0   0.0   16.666666666666668
-50.0   0.0   33.333333333333336
0.0   30.0   33.333333333333336
0.0   0.0   16.666666666666668
-50.0   30.0   16.666666666666668
-50.0   0.0   33.333333333333336
0.0   0.0   33.333333333333336
-50.0   30.0   33.333333333333336
-50.0   0.0   50.0
0.0   0.0   33.333333333333336
0.0   30.0   33.333333333333336
-50.0   30.0   33.333333333333336
0.0   30.0   50.0
-50.0   0.0   50.0
-50.0   30.0   50.0
0.0   30.0   50.0
-50.0   30.0   33.333333333333336
-50.0   0.0   50.0
0.0   30.0   50.0
0.0   0.0   50.0
0.0   0.0   33.333333333333336
-50.0   0.0   50.0
0.0   30.0   50.0
0.0   0.0   33.333333333333336
-50.0   30.0   33.333333333333336
-50.0   30.0   0.0
0.0   30.0   0.0
-50.0   60.0   0.0
-50.0   30.0   16.666666666666668
0.0   30.0   0.0
0.0   60.0   0.0
-50.0   60.0   0.0
0.0   60.0   16.666666666666668
-50.0   30.0   16.666666666666668
-50.0   60.0   16.666666666666668
0.0   60.0   16.666666666666668
-50.0   60.0   0.0
-50.0   30.0   16.666666666666668
0.0   60.0   16.666666666666668
0.0   30.0   16.666666666666668
0.0   30.0   0.0
-50.0   30.0   16.666666666666668
0.0   60.0   16.666666666666668
0.0   30.0   0.0
-50.0   60.0   0.0
-50.0   30.0   16.666666666666668
0.0   30.0   16.666666666666668
-50.0   60.0   16.666666666666668
-50.0   30.0   33.333333333333336
0.0   30.0   16.666666666666668
0.0   60.0   16.666666666666668
-50.0   60.0   16.666666666666668
0.0   60.0   33.333333333333336
-50.0   30.0   33.333333333333336
-50.0   60.0   33.333333333333336
0.0   60.0   33.333333333333336
-50.0   60.0   16.666666666666668
-50.0   30.0   33.333333333333336
0.0   60.0   33.333333333333336
0.0   30.0   33.333333333333336
0.0   30.0   16.666666666666668
-50.0   30.0   33.333333333333336
0.0   60.0   33.333333333333336
0.0   30.0   16.666666666666668
-50.0   60.0   16.666666666666668
-50.0   30.0   33.333333333333336
0.0   30.0   33.333333333333336
-50.0   60.0   33.333333333333336
-50.0   30.0   50.0
0.0   30.0   33.333333333333336
0.0   60.0   33.333333333333336
-50.0   60.0   33.333333333333336
0.0   60.0   50.0
-50.0   30.0   50.0
-50.0   60.0   50.0
0.0   60.0   50.0
-50.0   60.0   33.333333333333336
-50.0   30.0   50.0
0.0   60.0   50.0
0.0   30.0   50.0
0.0   30.0   33.333333333333336
-50.0   30.0   50.0
0.0   60.0   50.0
0.0   30.0   33.333333333333336
-50.0   60.0   33.333333333333336
-50.0   60.0   0.0
0.0   60.0   0.0
-50.0   90.0   0.0
-50.0   60.0   16.666666666666668
0.0   60.0   0.0
0.0   90.0   0.0
-50.0   90.0   0.0
0.0   90.0   16.666666666666668
-50.0   60.0   16.666666666666668
-50.0   90.0   16.666666666666668
0.0   90.0   16.666666666666668
-50.0   90.0   0.0
-50.0   60.0   16.666666666666668
0.0   90.0   16.666666666666668
0.0   60.0   16.666666666666668
0.0   60.0   0.0
-50.0   60.0   16.666666666666668
0.0   90.0   16.666666666666668
0.0   60.0   0.0
-50.0   90.0   0.0
-50.0   60.0   16.666666666666668
0.0   60.0   16.666666666666668
-50.0   90.0   16.666666666666668
-50.0   60.0   33.333333333333336
0.0   60.0   16.666666666666668
0.0   90.0   16.666666666666668
-50.0   90.0   16.666666666666668
0.0   90.0   33.333333333333336
-50.0   60.0   33.333333333333336
-50.0   90.0   33.333333333333336
0.0   90.0   33.333333333333336
-50.0   90.0   16.666666666666668
-50.0   60.0   33.333333333333336
0.0   90.0   33.333333333333336
0.0   60.0   33.333333333333336
0.0   60.0   16.666666666666668
-50.0   60.0   33.333333333333336
0.0   90.0   33.333333333333336
0.0   60.0   16.666666666666668
-50.0   90.0   16.666666666666668
-50.0   60.0   33.333333333333336
0.0   60.0   33.333333333333336
-50.0   90.0   33.333333333333336
-50.0   60.0   50.0
0.0   60.0   33.333333333333336
0.0   90.0   33.333333333333336
-50.0   90.0   33.333333333333336
0.0   90.0   50.0
-50.0   60.0   50.0
-50.0   90.0   50.0
0.0   90.0   50.0
-50.0   90.0   33.333333333333336
-50.0   60.0   50.0
0.0   90.0   50.0
0.0   60.0   50.0
0.0   60.0   33.333333333333336
-50.0   60.0   50.0
0.0   90.0   50.0
0.0   60.0   33.333333333333336
-50.0   90.0   33.333333333333336
-50.0   90.0   0.0
0.0   90.0   0.0
-50.0   120.0   0.0
-50.0   90.0   16.666666666666668
0.0   90.0   0.0
0.0   120.0   0.0
-50.0   120.0   0.0
0.0   120.0   16.666666666666668
-50.0   90.0   16.666666666666668
-50.0   120.0   16.666666666666668
0.0   120.0   16.666666666666668
-50.0   120.0   0.0
-50.0   90.0   16.666666666666668
0.0   120.0   16.666666666666668
0.0   90.0   16.666666666666668
0.0   90.0   0.0
-50.0   90.0   16.666666666666668
0.0   120.0   16.666666666666668
0.0   90.0   0.0
-50.0   120.0   0.0
-50.0   90.0   16.666666666666668
0.0   90.0   16.666666666666668
-50.0   120.0   16.666666666666668
-50.0   90.0   33.333333333333336
0.0   90.0   16.666666666666668
0.0   120.0   16.666666666666668
-50.0   120.0   16.666666666666668
0.0   120.0   33.333333333333336
-50.0   90.0   33.333333333333336
-50.0   120.0   33.333333333333336
0.0   120.0   33.333333333333336
-50.0   120.0   16.666666666666668
-50.0   90.0   33.333333333333336
0.0   120.0   33.333333333333336
0.0   90.0   33.333333333333336
0.0   90.0   16.666666666666668
-50.0   90.0   33.333333333333336
0.0   120.0   33.333333333333336
0.0   90.0   16.666666666666668
-50.0   120.0   16.666666666666668
-50.0   90.0   33.333333333333336
0.0   90.0   33.333333333333336
-50.0   120.0   33.333333333333336
-50.0   90.0   50.0
0.0   90.0   33.333333333333336
0.0   120.0   33.333333333333336
-50.0   120.0   33.333333333333336
0.0   120.0   50.0
-50.0   90.0   50.0
-50.0   120.0   50.0
0.0   120.0   50.0
-50.0   120.0   33.333333333333336
-50.0   90.0   50.0
0.0   120.0   50.0
0.0   90.0   50.0
0.0   90.0   33.333333333333336
-50.0   90.0   50.0
0.0   120.0   50.0
0.0   90.0   33.333333333333336
-50.0   120.0   33.333333333333336
-50.0   120.0   0.0
0.0   120.0   0.0
-50.0   150.0   0.0
-50.0   120.0   16.666666666666668
0.0   120.0   0.0
0.0   150.0   0.0
-50.0   150.0   0.0
0.0   150.0   16.666666666666668
-50.0   120.0   16.666666666666668
-50.0   150.0   16.666666666666668
0.0   150.0   16.666666666666668
-50.0   150.0   0.0
-50.0   120.0   16.666666666666668
0.0   150.0   16.666666666666668
0.0   120.0   16.666666666666668
0.0   120.0   0.0
-50.0   120.0   16.666666666666668
0.0   150.0   16.666666666666668
0.0   120.0   0.0
-50.0   150.0   0.0
-50.0   120.0   16.666666666666668
0.0   120.0   16.666666666666668
-50.0   150.0   16.666666666666668
-50.0   120.0   33.333333333333336
0.0   120.0   16.666666666666668
0.0   150.0   16.666666666666668
-50.0   150.0   16.666666666666668
0.0   150.0   33.333333333333336
-50.0   120.0   33.333333333333336
-50.0   150.0   33.333333333333336
0.0   150.0   33.333333333333336
-50.0   150.0   16.666666666666668
-50.0   120.0   33.333333333333336
0.0   150.0   33.333333333333336
0.0   120.0   33.333333333333336
0.0   120.0   16.666666666666668
-50.0   120.0   33.333333333333336
0.0   150.0   33.333333333333336
0.0   120.0   16.666666666666668
-50.0   150.0   16.666666666666668
-50.0   120.0   33.333333333333336
0.0   120.0   33.333333333333336
-50.0   150.0   33.333333333333336
-50.0   120.0   50.0
0.0   120.0   33.333333333333336
0.0   150.0   33.333333333333336
-50.0   150.0   33.333333333333336
0.0   150.0   50.0
-50.0   120.0   50.0
-50.0   150.0   50.0
0.0   150.0   50.0
-50.0   150.0   33.333333333333336
-50.0   120.0   50.0
0.0   150.0   50.0
0.0   120.0   50.0
0.0   120.0   33.333333333333336
-50.0   120.0   50.0
0.0   150.0   50.0
0.0   120.0   33.333333333333336
-50.0   150.0   33.333333333333336
0.0   0.0   0.0
50.0   0.0   0.0
0.0   30.0   0.0
0.0   0.0   16.666666666666668
50.0   0.0   0.0
50.0   30.0   0.0
0.0   30.0   0.0
50.0   30.0   16.666666666666668
0.0   0.0   16.666666666666668
0.0   30.0   16.666666666666668
50.0   30.0   16.666666666666668
0.0   30.0   0.0
0.0   0.0   16.666666666666668
50.0   30.0   16.666666666666668
50.0   0.0   16.666666666666668
50.0   0.0   0.0
0.0   0.0   16.666666666666668
50.0   30.0   16.666666666666668
50.0   0.0   0.0
0.0   30.0   0.0
0.0   0.0   16.666666666666668
50.0   0.0   16.666666666666668
0.0   30.0   16.666666666666668
0.0   0.0   33.333333333333336
50.0   0.0   16.666666666666668
50.0   30.0   16.666666666666668
0.0   30.0   16.666666666666668
50.0   30.0   33.333333333333336
0.0   0.0   33.333333333333336
0.0   30.0   33.333333333333336
50.0   30.0   33.333333333333336
0.0   30.0   16.666666666666668
0.0   0.0   33.333333333333336
50.0   30.0   33.333333333333336
50.0   0.0   33.333333333333336
50.0   0.0   16.666666666666668
0.0   0.0   33.333333333333336
50.0   30.0   33.333333333333336
50.0   0.0   16.666666666666668
0.0   30.0   16.666666666666668
0.0   0.0   33.333333333333336
50.0   0.0   33.333333333333336
0.0   30.0   33.333333333333336
0.0   0.0   50.0
50.0   0.0   33.333333333333336
50.0   30.0   33.333333333333336
0.0   30.0   33.333333333333336
50.0   30.0   50.0
0.0   0.0   50.0
0.0   30.0   50.0
50.0   30.0   50.0
0.0   30.0   33.333333333333336
0.0   0.0   50.0
50.0   30.0   50.0
50.0   0.0   50.0
50.0   0.0   33.333333333333336
0.0   0.0   50.0
50.0   30.0   50.0
50.0   0.0   33.333333333333336
0.0   30.0   33.333333333333336
0.0   30.0   0.0
50.0   30.0   0.0
0.0   60.0   0.0
0.0   30.0   16.666666666666668
50.0   30.0   0.0
50.0   60.0   0.0
0.0   60.0   0.0
50.0   60.0   16.666666666666668
0.0   30.0   16.666666666666668
0.0   60.0   16.666666666666668
50.0   60.0   16.666666666666668
0.0   60.0   0.0
0.0   30.0   16.666666666666668
50.0   60.0   16.666666666666668
50.0   30.0   16.666666666666668
50.0   30.0   0.0
0.0   30.0   16.666666666666668
50.0   60.0   16.666666666666668
50.0   30.0   0.0
0.0   60.0   0.0
0.0   30.0   16.666666666666668
50.0   30.0   16.666666666666668
0.0   60.0   16.666666666666668
0.0   30.0   33.333333333333336
50.0   30.0   16.666666666666668
50.0   60.0   16.666666666666668
0.0   60.0   16.666666666666668
50.0   60.0   33.333333333333336
0.0   30.0   33.333333333333336
0.0   60.0   33.333333333333336
50.0   60.0   33.333333333333336
0.0   60.0   16.666666666666668
0.0   30.0   33.333333333333336
50.0   60.0   33.333333333333336
50.0   30.0   33.333333333333336
50.0   30.0   16.666666666666668
0.0   30.0   33.333333333333336
50.0   60.0   33.333333333333336
50.0   30.0   16.666666666666668
0.0   60.0   16.666666666666668
0.0   30.0   33.333333333333336
50.0   30.0   33.333333333333336
0.0   60.0   33.333333333333336
0.0   30.0   50.0
50.0   30.0   33.333333333333336
50.0   60.0   33.333333333333336
0.0   60.0   33.333333333333336
50.0   60.0   50.0
0.0   30.0   50.0
0.0   60.0   50.0
50.0   60.0   50.0
0.0   60.0   33.333333333333336
0.0   30.0   50.0
50.0   60.0   50.0
50.0   30.0   50.0
50.0   30.0   33.333333333333336
0.0   30.0   50.0
50.0   60.0   50.0
50.0   30.0   33.333333333333336
0.0   60.0   33.333333333333336
0.0   60.0   0.0
50.0   60.0   0.0
0.0   90.0   0.0
0.0   60.0   16.666666666666668
50.0   60.0   0.0
50.0   90.0   0.0
0.0   90.0   0.0
50.0   90.0   16.666666666666668
0.0   60.0   16.666666666666668
0.0   90.0   16.666666666666668
50.0   90.0   16.666666666666668
0.0   90.0   0.0
0.0   60.0   16.666666666666668
50.0   90.0   16.666666666666668
50.0   60.0   16.666666666666668
50.0   60.0   0.0
0.0   60.0   16.666666666666668
50.0   90.0   16.666666666666668
50.0   60.0   0.0
0.0   90.0   0.0
0.0   60.0   16.666666666666668
50.0   60.0   16.666666666666668
0.0   90.0   16.666666666666668
0.0   60.0   33.333333333333336
50.0   60.0   16.666666666666668
50.0   90.0   16.666666666666668
0.0   90.0   16.666666666666668
50.0   90.0   33.333333333333336
0.0   60.0   33.333333333333336
0.0   90.0   33.333333333333336
50.0   90.0   33.333333333333336
0.0   90.0   16.666666666666668
0.0   60.0   33.333333333333336
50.0   90.0   33.333333333333336
50.0   60.0   33.333333333333336
50.0   60.0   16.666666666666668
0.0   60.0   33.333333333333336
50.0   90.0   33.333333333333336
50.0   60.0   16.666666666666668
0.0   90.0   16.666666666666668
0.0   60.0   33.333333333333336
50.0   60.0   33.333333333333336
0.0   90.0   33.333333333333336
0.0   60.0   50.0
50.0   60.0   33.333333333333336
50.0   90.0   33.333333333333336
0.0   90.0   33.333333333333336
50.0   90.0   50.0
0.0   60.0   50.0
0.0   90.0   50.0
50.0   90.0   50.0
0.0   90.0   33.333333333333336
0.0   60.0   50.0
50.0   90.0   50.0
50.0   60.0   50.0
50.0   60.0   33.333333333333336
0.0   60.0   50.0
50.0   90.0   50.0
50.0   60.0   33.333333333333336
0.0   90.0   33.333333333333336
0.0   90.0   0.0
50.0   90.0   0.0
0.0   120.0   0.0
0.0   90.0   16.666666666666668
50.0   90.0   0.0
50.0   120.0   0.0
0.0   120.0   0.0
50.0   120.0   16.666666666666668
0.0   90.0   16.666666666666668
0.0   120.0   16.666666666666668
50.0   120.0   16.666666666666668
0.0   120.0   0.0
0.0   90.0   16.666666666666668
50.0   120.0   16.666666666666668
50.0   90.0   16.666666666666668
50.0   90.0   0.0
0.0   90.0   16.666666666666668
50.0   120.0   16.666666666666668
50.0   90.0   0.0
0.0   120.0   0.0
0.0   90.0   16.666666666666668
50.0   90.0   16.666666666666668
0.0   120.0   16.666666666666668
0.0   90.0   33.333333333333336
50.0   90.0   16.666666666666668
50.0   120.0   16.666666666666668
0.0   120.0   16.666666666666668
50.0   120.0   33.333333333333336
0.0   90.0   33.333333333333336
0.0   120.0   33.333333333333336
50.0   120.0   33.333333333333336
0.0   120.0   16.666666666666668
0.0   90.0   33.333333333333336
50.0   120.0   33.333333333333336
50.0   90.0   33.333333333333336
50.0   90.0   16.666666666666668
0.0   90.0   33.333333333333336
50.0   120.0   33.333333333333336
50.0   90.0   16.666666666666668
0.0   120.0   16.666666666666668
0.0   90.0   33.333333333333336
50.0   90.0   33.333333333333336
0.0   120.0   33.333333333333336
0.0   90.0   50.0
50.0   90.0   33.333333333333336
50.0   120.0   33.333333333333336
0.0   120.0   33.333333333333336
50.0   120.0   50.0
0.0   90.0   50.0
0.0   120.0   50.0
50.0   120.0   50.0
0.0   120.0   33.333333333333336
0.0   90.0   50.0
50.0   120.0   50.0
50.0   90.0   50.0
50.0   90.0   33.333333333333336
0.0   90.0   50.0
50.0   120.0   50.0
50.0   90.0   33.333333333333336
0.0   120.0   33.333333333333336
0.0   120.0   0.0
50.0   120.0   0.0
0.0   150.0   0.0
0.0   120.0   16.666666666666668
50.0   120.0   0.0
50.0   150.0   0.0
0.0   150.0   0.0
50.0   150.0   16.666666666666668
0.0   120.0   16.666666666666668
0.0   150.0   16.666666666666668
50.0   150.0   16.666666666666668
0.0   150.0   0.0
0.0   120.0   16.666666666666668
50.0   150.0   16.666666666666668
50.0   120.0   16.666666666666668
50.0   120.0   0.0
0.0   120.0   16.666666666666668
50.0   150.0   16.666666666666668
50.0   120.0   0.0
0.0   150.0   0.0
0.0   120.0   16.666666666666668
50.0   120.0   16.666666666666668
0.0   150.0   16.666666666666668
0.0   120.0   33.333333333333336
50.0   120.0   16.666666666666668
50.0   150.0   16.666666666666668
0.0   150.0   16.666666666666668
50.0   150.0   33.333333333333336
0.0   120.0   33.333333333333336
0.0   150.0   33.333333333333336
50.0   150.0   33.333333333333336
0.0   150.0   16.666666666666668
0.0   120.0   33.333333333333336
50.0   150.0   33.333333333333336
50.0   120.0   33.333333333333336
50.0   120.0   16.666666666666668
0.0   120.0   33.333333333333336
50.0   150.0   33.333333333333336
50.0   120.0   16.666666666666668
0.0   150.0   16.666666666666668
0.0   120.0   33.333333333333336
50.0   120.0   33.333333333333336
0.0   150.0   33.333333333333336
0.0   120.0   50.0
50.0   120.0   33.333333333333336
50.0   150.0   33.333333333333336
0.0   150.0   33.333333333333336
50.0   150.0   50.0
0.0   120.0   50.0
0.0   150.0   50.0
50.0   150.0   50.0
0.0   150.0   33.333333333333336
0.0   120.0   50.0
50.0   150.0   50.0
50.0   120.0   50.0
50.0   120.0   33.333333333333336
0.0   120.0   50.0
50.0   150.0   50.0
50.0   120.0   33.333333333333336
0.0   150.0   33.333333333333336
50.0   0.0   0.0
100.0   0.0   0.0
50.0   30.0   0.0
50.0   0.0   16.666666666666668
100.0   0.0   0.0
100.0   30.0   0.0
50.0   30.0   0.0
100.0   30.0   16.666666666666668
50.0   0.0   16.666666666666668
50.0   30.0   16.666666666666668
100.0   30.0   16.666666666666668
50.0   30.0   0.0
50.0   0.0   16.666666666666668
100.0   30.0   16.666666666666668
100.0   0.0   16.666666666666668
100.0   0.0   0.0
50.0   0.0   16.666666666666668
100.0   30.0   16.666666666666668
100.0   0.0   0.0
50.0   30.0   0.0
50.0   0.0   16.666666666666668
100.0   0.0   16.666666666666668
50.0   30.0   16.666666666666668
50.0   0.0   33.333333333333336
100.0   0.0   16.666666666666668
100.0   30.0   16.666666666666668
50.0   30.0   16.666666666666668
100.0   30.0   33.333333333333336
50.0   0.0   33.333333333333336
50.0   30.0   33.333333333333336
100.0   30.0   33.333333333333336
50.0   30.0   16.666666666666668
50.0   0.0   33.333333333333336
100.0   30.0   33.333333333333336
100.0   0.0   33.333333333333336
100.0   0.0   16.666666666666668
50.0   0.0   33.333333333333336
100.0   30.0   33.333333333333336
100.0   0.0   16.666666666666668
50.0   30.0   16.666666666666668
50.0   0.0   33.333333333333336
100.0   0.0   33.333333333333336
50.0   30.0   33.333333333333336
50.0   0.0   50.0
100.0   0.0   33.333333333333336
100.0   30.0   33.333333333333336
50.0   30.0   33.333333333333336
100.0   30.0   50.0
50.0   0.0   50.0
50.0   30.0   50.0
100.0   30.0   50.0
50.0   30.0   33.333333333333336
50.0   0.0   50.0
100.0   30.0   50.0
100.0   0.0   50.0
100.0   0.0   33.333333333333336
50.0   0.0   50.0
100.0   30.0   50.0
100.0   0.0   33.333333333333336
50.0   30.0   33.333333333333336
50.0   30.0   0.0
100.0   30.0   0.0
50.0   60.0   0.0
50.0   30.0   16.666666666666668
100.0   30.0   0.0
100.0   60.0   0.0
50.0   60.0   0.0
100.0   60.0   16.666666666666668
50.0   30.0   16.666666666666668
50.0   60.0   16.666666666666668
100.0   60.0   16.666666666666668
50.0   60.0   0.0
50.0   30.0   16.666666666666668
100.0   60.0   16.666666666666668
100.0   30.0   16.666666666666668
100.0   30.0   0.0
50.0   30.0   16.666666666666668
100.0   60.0   16.666666666666668
100.0   30.0   0.0
50.0   60.0   0.0
50.0   30.0   16.666666666666668
100.0   30.0   16.666666666666668
50.0   60.0   16.666666666666668
50.0   30.0   33.333333333333336
100.0   30.0   16.666666666666668
100.0   60.0   16.666666666666668
50.0   60.0   16.666666666666668
100.0   60.0   33.333333333333336
50.0   30.0   33.333333333333336
50.0   60.0   33.333333333333336
100.0   60.0   33.333333333333336
50.0   60.0   16.666666666666668
50.0   30.0   33.333333333333336
100.0   60.0   33.333333333333336
100.0   30.0   33.333333333333336
100.0   30.0   16.666666666666668
50.0   30.0   33.333333333333336
100.0   60.0   33.333333333333336
100.0   30.0   16.666666666666668
50.0   60.0   16.666666666666668
50.0   30.0   33.333333333333336
100.0   30.0   33.333333333333336
50.0   60.0   33.333333333333336
50.0   30.0   50.0
100.0   30.0   33.333333333333336
100.0   60.0   33.333333333333336
50.0   60.0   33.333333333333336
100.0   60.0   50.0
50.0   30.0   50.0
50.0   60.0   50.0
100.0   60.0   50.0
50.0   60.0   33.333333333333336
50.0   30.0   50.0
100.0   60.0   50.0
100.0   30.0   50.0
100.0   30.0   33.333333333333336
50.0   30.0   50.0
100.0   60.0   50.0
100.0   30.0   33.333333333333336
50.0   60.0   33.333333333333336
50.0   60.0   0.0
100.0   60.0   0.0
50.0   90.0   0.0
50.0   60.0   16.666666666666668
100.0   60.0   0.0
100.0   90.0   0.0
50.0   90.0   0.0
100.0   90.0   16.666666666666668
50.0   60.0   16.666666666666668
50.0   90.0   16.666666666666668
100.0   90.0   16.666666666666668
50.0   90.0   0.0
50.0   60.0   16.666666666666668
100.0   90.0   16.666666666666668
100.0   60.0   16.666666666666668
100.0   60.0   0.0
50.0   60.0   16.666666666666668
100.0   90.0   16.666666666666668
100.0   60.0   0.0
50.0   90.0   0.0
50.0   60.0   16.666666666666668
100.0   60.0   16.666666666666668
50.0   90.0   16.666666666666668
50.0   60.0   33.333333333333336
100.0   60.0   16.666666666666668
100.0   90.0   16.666666666666668
50.0   90.0   16.666666666666668
100.0   90.0   33.333333333333336
50.0   60.0   33.333333333333336
50.0   90.0   33.333333333333336
100.0   90.0   33.333333333333336
50.0   90.0   16.666666666666668
50.0   60.0   33.333333333333336
100.0   90.0   33.333333333333336
100.0   60.0   33.333333333333336
100.0   60.0   16.666666666666668
50.0   60.0   33.333333333333336
100.0   90.0   33.333333333333336
100.0   60.0   16.666666666666668
50.0   90.0   16.666666666666668
50.0   60.0   33.333333333333336
100.0   60.0   33.333333333333336
50.0   90.0   33.333333333333336
50.0   60.0   50.0
100.0   60.0   33.333333333333336
100.0   90.0   33.333333333333336
50.0   90.0   33.333333333333336
100.0   90.0   50.0
50.0   60.0   50.0
50.0   90.0   50.0
100.0   90.0   50.0
50.0   90.0   33.333333333333336
50.0   60.0   50.0
100.0   90.0   50.0
100.0   60.0   50.0
100.0   60.0   33.333333333333336
50.0   60.0   50.0
100.0   90.0   50.0
100.0   60.0   33.333333333333336
50.0   90.0   33.333333333333336
50.0   90.0   0.0
100.0   90.0   0.0
50.0   120.0   0.0
50.0   90.0   16.666666666666668
100.0   90.0   0.0
100.0   120.0   0.0
50.0   120.0   0.0
100.0   120.0   16.666666666666668
50.0   90.0   16.666666666666668
50.0   120.0   16.666666666666668
100.0   120.0   16.666666666666668
50.0   120.0   0.0
50.0   90.0   16.666666666666668
100.0   120.0   16.666666666666668
100.0   90.0   16.666666666666668
100.0   90.0   0.0
50.0   90.0   16.666666666666668
100.0   120.0   16.666666666666668
100.0   90.0   0.0
50.0   120.0   0.0
50.0   90.0   16.666666666666668
100.0   90.0   16.666666666666668
50.0   120.0   16.666666666666668
50.0   90.0   33.333333333333336
100.0   90.0   16.666666666666668
100.0   120.0   16.666666666666668
50.0   120.0   16.666666666666668
100.0   120.0   33.333333333333336
50.0   90.0   33.333333333333336
50.0   120.0   33.333333333333336
100.0   120.0   33.333333333333336
50.0   120.0   16.666666666666668
50.0   90.0   33.333333333333336
100.0   120.0   33.333333333333336
100.0   90.0   33.333333333333336
100.0   90.0   16.666666666666668
50.0   90.0   33.333333333333336
100.0   120.0   33.333333333333336
100.0   90.0   16.666666666666668
50.0   120.0   16.666666666666668
50.0   90.0   33.333333333333336
100.0   90.0   33.333333333333336
50.0   120.0   33.333333333333336
50.0   90.0   50.0
100.0   90.0   33.333333333333336
100.0   120.0   33.333333333333336
50.0   120.0   33.333333333333336
100.0   120.0   50.0
50.0   90.0   50.0
50.0   120.0   50.0
100.0   120.0   50.0
50.0   120.0   33.333333333333336
50.0   90.0   50.0
100.0   120.0   50.0
100.0   90.0   50.0
100.0   90.0   33.333333333333336
50.0   90.0   50.0
100.0   120.0   50.0
100.0   90.0   33.333333333333336
50.0   120.0   33.333333333333336
50.0   120.0   0.0
100.0   120.0   0.0
50.0   150.0   0.0
50.0   120.0   16.666666666666668
100.0   120.0   0.0
100.0   150.0   0.0
50.0   150.0   0.0
100.0   150.0   16.666666666666668
50.0   120.0   16.666666666666668
50.0   150.0   16.666666666666668
100.0   150.0   16.666666666666668
50.0   150.0   0.0
50.0   120.0   16.666666666666668
100.0   150.0   16.666666666666668
100.0   120.0   16.666666666666668
100.0   120.0   0.0
50.0   120.0   16.666666666666668
100.0   150.0   16.666666666666668
100.0   120.0   0.0
50.0   150.0   0.0
50.0   120.0   16.666666666666668
100.0   120.0   16.666666666666668
50.0   150.0   16.666666666666668
50.0   120.0   33.333333333333336
100.0   120.0   16.666666666666668
100.0   150.0   16.666666666666668
50.0   150.0   16.666666666666668
100.0   150.0   33.333333333333336
50.0   120.0   33.333333333333336
50.0   150.0   33.333333333333336
100.0   150.0   33.333333333333336
50.0   150.0   16.666666666666668
50.0   120.0   33.333333333333336
100.0   150.0   33.333333333333336
100.0   120.0   33.333333333333336
100.0   120.0   16.666666666666668
50.0   120.0   33.333333333333336
100.0   150.0   33.333333333333336
100.0   120.0   16.666666666666668
50.0   150.0   16.666666666666668
50.0   120.0   33.333333333333336
100.0   120.0   33.333333333333336
50.0   150.0   33.333333333333336
50.0   120.0   50.0
100.0   120.0   33.333333333333336
100.0   150.0   33.333333333333336
50.0   150.0   33.333333333333336
100.0   150.0   50.0
50.0   120.0   50.0
50.0   150.0   50.0
100.0   150.0   50.0
50.0   150.0   33.333333333333336
50.0   120.0   50.0
100.0   150.0   50.0
100.0   120.0   50.0
100.0   120.0   33.333333333333336
50.0   120.0   50.0
100.0   150.0   50.0
100.0   120.0   33.333333333333336
50.0   150.0   33.333333333333336
100.0   0.0   0.0
150.0   0.0   0.0
100.0   30.0   0.0
100.0   0.0   16.666666666666668
150.0   0.0   0.0
150.0   30.0   0.0
100.0   30.0   0.0
150.0   30.0   16.666666666666668
100.0   0.0   16.666666666666668
100.0   30.0   16.666666666666668
150.0   30.0   16.666666666666668
100.0   30.0   0.0
100.0   0.0   16.666666666666668
150.0   30.0   16.666666666666668
150.0   0.0   16.666666666666668
150.0   0.0   0.0
100.0   0.0   16.666666666666668
150.0   30.0   16.666666666666668
150.0   0.0   0.0
100.0   30.0   0.0
100.0   0.0   16.666666666666668
150.0   0.0   16.666666666666668
100.0   30.0   16.666666666666668
100.0   0.0   33.333333333333336
150.0   0.0   16.666666666666668
150.0   30.0   16.666666666666668
100.0   30.0   16.666666666666668
150.0   30.0   33.333333333333336
100.0   0.0   33.333333333333336
100.0   30.0   33.333333333333336
150.0   30.0   33.333333333333336
100.0   30.0   16.666666666666668
100.0   0.0   33.333333333333336
150.0   30.0   33.333333333333336
150.0   0.0   33.333333333333336
150.0   0.0   16.666666666666668
100.0   0.0   33.333333333333336
150.0   30.0   33.333333333333336
150.0   0.0   16.666666666666668
100.0   30.0   16.666666666666668
100.0   0.0   33.333333333333336
150.0   0.0   33.333333333333336
100.0   30.0   33.333333333333336
100.0   0.0   50.0
150.0   0.0   33.333333333333336
150.0   30.0   33.333333333333336
100.0   30.0   33.333333333333336
150.0   30.0   50.0
100.0   0.0   50.0
100.0   30.0   50.0
150.0   30.0   50.0
100.0   30.0   33.333333333333336
100.0   0.0   50.0
150.0   30.0   50.0
150.0   0.0   50.0
150.0   0.0   33.333333333333336
100.0   0.0   50.0
150.0   30.0   50.0
150.0   0.0   33.333333333333336
100.0   30.0   33.333333333333336
100.0   30.0   0.0
150.0   30.0   0.0
100.0   60.0   0.0
100.0   30.0   16.666666666666668
150.0   30.0   0.0
150.0   60.0   0.0
100.0   60.0   0.0
150.0   60.0   16.666666666666668
100.0   30.0   16.666666666666668
100.0   60.0   16.666666666666668
150.0   60.0   16.666666666666668
100.0   60.0   0.0
100.0   30.0   16.666666666666668
150.0   60.0   16.666666666666668
150.0   30.0   16.666666666666668
150.0   30.0   0.0
100.0   30.0   16.666666666666668
150.0   60.0   16.666666666666668
150.0   30.0   0.0
100.0   60.0   0.0
100.0   30.0   16.666666666666668
150.0   30.0   16.666666666666668
100.0   60.0   16.666666666666668
100.0   30.0   33.333333333333336
150.0   30.0   16.666666666666668
150.0   60.0   16.666666666666668
100.0   60.0   16.666666666666668
150.0   60.0   33.333333333333336
100.0   30.0   33.333333333333336
100.0   60.0   33.333333333333336
150.0   60.0   33.333333333333336
100.0   60.0   16.666666666666668
100.0   30.0   33.333333333333336
150.0   60.0   33.333333333333336
150.0   30.0   33.333333333333336
150.0   30.0   16.666666666666668
100.0   30.0   33.333333333333336
150.0   60.0   33.333333333333336
150.0   30.0   16.666666666666668
100.0   60.0   16.666666666666668
100.0   30.0   33.333333333333336
150.0   30.0   33.333333333333336
100.0   60.0   33.333333333333336
100.0   30.0   50.0
150.0   30.0   33.333333333333336
150.0   60.0   33.333333333333336
100.0   60.0   33.333333333333336
150.0   60.0   50.0
100.0   30.0   50.0
100.0   60.0   50.0
150.0   60.0   50.0
100.0   60.0   33.333333333333336
100.0   30.0   50.0
150.0   60.0   50.0
150.0   30.0   50.0
150.0   30.0   33.333333333333336
100.0   30.0   50.0
150.0   60.0   50.0
150.0   30.0   33.333333333333336
100.0   60.0   33.333333333333336
100.0   60.0   0.0
150.0   60.0   0.0
100.0   90.0   0.0
100.0   60.0   16.666666666666668
150.0   60.0   0.0
150.0   90.0   0.0
100.0   90.0   0.0
150.0   90.0   16.666666666666668
100.0   60.0   16.666666666666668
100.0   90.0   16.666666666666668
150.0   90.0   16.666666666666668
100.0   90.0   0.0
100.0   60.0   16.666666666666668
150.0   90.0   16.666666666666668
150.0   60.0   16.666666666666668
150.0   60.0   0.0
100.0   60.0   16.666666666666668
150.0   90.0   16.666666666666668
150.0   60.0   0.0
100.0   90.0   0.0
100.0   60.0   16.666666666666668
150.0   60.0   16.666666666666668
100.0   90.0   16.666666666666668
100.0   60.0   33.333333333333336
150.0   60.0   16.666666666666668
150.0   90.0   16.666666666666668
100.0   90.0   16.666666666666668
150.0   90.0   33.333333333333336
100.0   60.0   33.333333333333336
100.0   90.0   33.333333333333336
150.0   90.0   33.333333333333336
100.0   90.0   16.666666666666668
100.0   60.0   33.333333333333336
150.0   90.0   33.333333333333336
150.0   60.0   33.333333333333336
150.0   60.0   16.666666666666668
100.0   60.0   33.333333333333336
150.0   90.0   33.333333333333336
150.0   60.0   16.666666666666668
100.0   90.0   16.666666666666668
100.0   60.0   33.333333333333336
150.0   60.0   33.333333333333336
100.0   90.0   33.333333333333336
100.0   60.0   50.0
150.0   60.0   33.333333333333336
150.0   90.0   33.333333333333336
100.0   90.0   33.333333333333336
150.0   90.0   50.0
100.0   60.0   50.0
100.0   90.0   50.0
150.0   90.0   50.0
100.0   90.0   33.333333333333336
100.0   60.0   50.0
150.0   90.0   50.0
150.0   60.0   50.0
150.0   60.0   33.333333333333336
100.0   60.0   50.0
150.0   90.0   50.0
150.0   60.0   33.333333333333336
100.0   90.0   33.333333333333336
100.0   90.0   0.0
150.0   90.0   0.0
100.0   120.0   0.0
100.0   90.0   16.666666666666668
150.0   90.0   0.0
150.0   120.0   0.0
100.0   120.0   0.0
150.0   120.0   16.666666666666668
100.0   90.0   16.666666666666668
100.0   120.0   16.666666666666668
150.0   120.0   16.666666666666668
100.0   120.0   0.0
100.0   90.0   16.666666666666668
150.0   120.0   16.666666666666668
150.0   90.0   16.666666666666668
150.0   90.0   0.0
100.0   90.0   16.666666666666668
150.0   120.0   16.666666666666668
150.0   90.0   0.0
100.0   120.0   0.0
100.0   90.0   16.666666666666668
150.0   90.0   16.666666666666668
100.0   120.0   16.666666666666668
100.0   90.0   33.333333333333336
150.0   90.0   16.666666666666668
150.0   120.0   16.666666666666668
100.0   120.0   16.666666666666668
150.0   120.0   33.333333333333336
100.0   90.0   33.333333333333336
100.0   120.0   33.333333333333336
150.0   120.0   33.333333333333336
100.0   120.0   16.666666666666668
100.0   90.0   33.333333333333336
150.0   120.0   33.333333333333336
150.0   90.0   33.333333333333336
150.0   90.0   16.666666666666668
100.0   90.0   33.333333333333336
150.0   120.0   33.333333333333336
150.0   90.0   16.666666666666668
100.0   120.0   16.666666666666668
100.0   90.0   33.333333333333336
150.0   90.0   33.333333333333336
100.0   120.0   33.333333333333336
100.0   90.0   50.0
150.0   90.0   33.333333333333336
150.0   120.0   33.333333333333336
100.0   120.0   33.333333333333336
150.0   120.0   50.0
100.0   90.0   50.0
100.0   120.0   50.0
150.0   120.0   50.0
100.0   120.0   33.333333333333336
100.0   90.0   50.0
150.0   120.0   50.0
150.0   90.0   50.0
150.0   90.0   33.333333333333336
100.0   90.0   50.0
150.0   120.0   50.0
150.0   90.0   33.333333333333336
100.0   120.0   33.333333333333336
100.0   120.0   0.0
150.0   120.0   0.0
100.0   150.0   0.0
100.0   120.0   16.666666666666668
150.0   120.0   0.0
150.0   150.0   0.0
100.0   150.0   0.0
150.0   150.0   16.666666666666668
100.0   120.0   16.666666666666668
100.0   150.0   16.666666666666668
150.0   150.0   16.666666666666668
100.0   150.0   0.0
100.0   120.0   16.666666666666668
150.0   150.0   16.666666666666668
150.0   120.0   16.666666666666668
150.0   120.0   0.0
100.0   120.0   16.666666666666668
150.0   150.0   16.666666666666668
150.0   120.0   0.0
100.0   150.0   0.0
100.0   120.0   16.666666666666668
150.0   120.0   16.666666666666668
100.0   150.0   16.666666666666668
100.0   120.0   33.333333333333336
150.0   120.0   16.666666666666668
150.0   150.0   16.666666666666668
100.0   150.0   16.666666666666668
150.0   150.0   33.333333333333336
100.0   120.0   33.333333333333336
100.0   150.0   33.333333333333336
150.0   150.0   33.333333333333336
100.0   150.0   16.666666666666668
100.0   120.0   33.333333333333336
150.0   150.0   33.333333333333336
150.0   120.0   33.333333333333336
150.0   120.0   16.666666666666668
100.0   120.0   33.333333333333336
150.0   150.0   33.333333333333336
150.0   120.0   16.666666666666668
100.0   150.0   16.666666666666668
100.0   120.0   33.333333333333336
150.0   120.0   33.333333333333336
100.0   150.0   33.333333333333336
100.0   120.0   50.0
150.0   120.0   33.333333333333336
150.0   150.0   33.333333333333336
100.0   150.0   33.333333333333336
150.0   150.0   50.0
100.0   120.0   50.0
100.0   150.0   50.0
150.0   150.0   50.0
100.0   150.0   33.333333333333336
100.0   120.0   50.0
150.0   150.0   50.0
150.0   120.0   50.0
150.0   120.0   33.333333333333336
100.0   120.0   50.0
150.0   150.0   50.0
150.0   120.0   33.333333333333336
100.0   150.0   33.333333333333336
150.0   0.0   0.0
200.0   0.0   0.0
150.0   30.0   0.0
150.0   0.0   16.666666666666668
200.0   0.0   0.0
200.0   30.0   0.0
150.0   30.0   0.0
200.0   30.0   16.666666666666668
150.0   0.0   16.666666666666668
150.0   30.0   16.666666666666668
200.0   30.0   16.666666666666668
150.0   30.0   0.0
150.0   0.0   16.666666666666668
200.0   30.0   16.666666666666668
200.0   0.0   16.666666666666668
200.0   0.0   0.0
150.0   0.0   16.666666666666668
200.0   30.0   16.666666666666668
200.0   0.0   0.0
150.0   30.0   0.0
150.0   0.0   16.666666666666668
200.0   0.0   16.666666666666668
150.0   30.0   16.666666666666668
150.0   0.0   33.333333333333336
200.0   0.0   16.666666666666668
200.0   30.0   16.666666666666668
150.0   30.0   16.666666666666668
200.0   30.0   33.333333333333336
150.0   0.0   33.333333333333336
150.0   30.0   33.333333333333336
200.0   30.0   33.333333333333336
150.0   30.0   16.666666666666668
150.0   0.0   33.333333333333336
200.0   30.0   33.333333333333336
200.0   0.0   33.333333333333336
200.0   0.0   16.666666666666668
150.0   0.0   33.333333333333336
200.0   30.0   33.333333333333336
200.0   0.0   16.666666666666668
150.0   30.0   16.666666666666668
150.0   0.0   33.333333333333336
200.0   0.0   33.333333333333336
150.0   30.0   33.333333333333336
150.0   0.0   50.0
200.0   0.0   33.333333333333336
200.0   30.0   33.333333333333336
150.0   30.0   33.333333333333336
200.0   30.0   50.0
150.0   0.0   50.0
150.0   30.0   50.0
200.0   30.0   50.0
150.0   30.0   33.333333333333336
150.0   0.0   50.0
200.0   30.0   50.0
200.0   0.0   50.0
200.0   0.0   33.333333333333336
150.0   0.0   50.0
200.0   30.0   50.0
200.0   0.0   33.333333333333336
150.0   30.0   33.333333333333336
150.0   30.0   0.0
200.0   30.0   0.0
150.0   60.0   0.0
150.0   30.0   16.666666666666668
200.0   30.0   0.0
200.0   60.0   0.0
150.0   60.0   0.0
200.0   60.0   16.666666666666668
150.0   30.0   16.666666666666668
150.0   60.0   16.666666666666668
200.0   60.0   16.666666666666668
150.0   60.0   0.0
150.0   30.0   16.666666666666668
200.0   60.0   16.666666666666668
200.0   30.0   16.666666666666668
200.0   30.0   0.0
150.0   30.0   16.666666666666668
200.0   60.0   16.666666666666668
200.0   30.0   0.0
150.0   60.0   0.0
150.0   30.0   16.666666666666668
200.0   30.0   16.666666666666668
150.0   60.0   16.666666666666668
150.0   30.0   33.333333333333336
200.0   30.0   16.666666666666668
200.0   60.0   16.666666666666668
150.0   60.0   16.666666666666668
200.0   60.0   33.333333333333336
150.0   30.0   33.333333333333336
150.0   60.0   33.333333333333336
200.0   60.0   33.333333333333336
150.0   60.0   16.666666666666668
150.0   30.0   33.333333333333336
200.0   60.0   33.333333333333336
200.0   30.0   33.333333333333336
200.0   30.0   16.666666666666668
150.0   30.0   33.333333333333336
200.0   60.0   33.333333333333336
200.0   30.0   16.666666666666668
150.0   60.0   16.666666666666668
150.0   30.0   33.333333333333336
200.0   30.0   33.333333333333336
150.0   60.0   33.333333333333336
150.0   30.0   50.0
200.0   30.0   33.333333333333336
200.0   60.0   33.333333333333336
150.0   60.0   33.333333333333336
200.0   60.0   50.0
150.0   30.0   50.0
150.0   60.0   50.0
200.0   60.0   50.0
150.0   60.0   33.333333333333336
150.0   30.0   50.0
200.0   60.0   50.0
200.0   30.0   50.0
200.0   30.0   33.333333333333336
150.0   30.0   50.0
200.0   60.0   50.0
200.0   30.0   33.333333333333336
150.0   60.0   33.333333333333336
150.0   60.0   0.0
200.0   60.0   0.0
150.0   90.0   0.0
150.0   60.0   16.666666666666668
200.0   60.0   0.0
200.0   90.0   0.0
150.0   90.0   0.0
200.0   90.0   16.666666666666668
150.0   60.0   16.666666666666668
150.0   90.0   16.666666666666668
200.0   90.0   16.666666666666668
150.0   90.0   0.0
150.0   60.0   16.666666666666668
200.0   90.0   16.666666666666668
200.0   60.0   16.666666666666668
200.0   60.0   0.0
150.0   60.0   16.666666666666668
200.0   90.0   16.666666666666668
200.0   60.0   0.0
150.0   90.0   0.0
150.0   60.0   16.666666666666668
200.0   60.0   16.666666666666668
150.0   90.0   16.666666666666668
150.0   60.0   33.333333333333336
200.0   60.0   16.666666666666668
200.0   90.0   16.666666666666668
150.0   90.0   16.666666666666668
200.0   90.0   33.333333333333336
150.0   60.0   33.333333333333336
150.0   90.0   33.333333333333336
200.0   90.0   33.333333333333336
150.0   90.0   16.666666666666668
150.0   60.0   33.333333333333336
200.0   90.0   33.333333333333336
200.0   60.0   33.333333333333336
200.0   60.0   16.666666666666668
150.0   60.0   33.333333333333336
200.0   90.0   33.333333333333336
200.0   60.0   16.666666666666668
150.0   90.0   16.666666666666668
150.0   60.0   33.333333333333336
200.0   60.0   33.333333333333336
150.0   90.0   33.333333333333336
150.0   60.0   50.0
200.0   60.0   33.333333333333336
200.0   90.0   33.333333333333336
150.0   90.0   33.333333333333336
200.0   90.0   50.0
150.0   60.0   50.0
150.0   90.0   50.0
200.0   90.0   50.0
150.0   90.0   33.333333333333336
150.0   60.0   50.0
200.0   90.0   50.0
200.0   60.0   50.0
200.0   60.0   33.333333333333336
150.0   60.0   50.0
200.0   90.0   50.0
200.0   60.0   33.333333333333336
150.0   90.0   33.333333333333336
150.0   90.0   0.0
200.0   90.0   0.0
150.0   120.0   0.0
150.0   90.0   16.666666666666668
200.0   90.0   0.0
200.0   120.0   0.0
150.0   120.0   0.0
200.0   120.0   16.666666666666668
150.0   90.0   16.666666666666668
150.0   120.0   16.666666666666668
200.0   120.0   16.666666666666668
150.0   120.0   0.0
150.0   90.0   16.666666666666668
200.0   120.0   16.666666666666668
200.0   90.0   16.666666666666668
200.0   90.0   0.0
150.0   90.0   16.666666666666668
200.0   120.0   16.666666666666668
200.0   90.0   0.0
150.0   120.0   0.0
150.0   90.0   16.666666666666668
200.0   90.0   16.666666666666668
150.0   120.0   16.666666666666668
150.0   90.0   33.333333333333336
200.0   90.0   16.666666666666668
200.0   120.0   16.666666666666668
150.0   120.0   16.666666666666668
200.0   120.0   33.333333333333336
150.0   90.0   33.333333333333336
150.0   120.0   33.333333333333336
200.0   120.0   33.333333333333336
150.0   120.0   16.666666666666668
150.0   90.0   33.333333333333336
200.0   120.0   33.333333333333336
200.0   90.0   33.333333333333336
200.0   90.0   16.666666666666668
150.0   90.0   33.333333333333336
200.0   120.0   33.333333333333336
200.0   90.0   16.666666666666668
150.0   120.0   16.666666666666668
150.0   90.0   33.333333333333336
200.0   90.0   33.333333333333336
150.0   120.0   33.333333333333336
150.0   90.0   50.0
200.0   90.0   33.333333333333336
200.0   120.0   33.333333333333336
150.0   120.0   33.333333333333336
200.0   120.0   50.0
150.0   90.0   50.0
150.0   120.0   50.0
200.0   120.0   50.0
150.0   120.0   33.333333333333336
150.0   90.0   50.0
200.0   120.0   50.0
200.0   90.0   50.0
200.0   90.0   33.333333333333336
150.0   90.0   50.0
200.0   120.0   50.0
200.0   90.0   33.333333333333336
150.0   120.0   33.333333333333336
150.0   120.0   0.0
200.0   120.0   0.0
150.0   150.0   0.0
150.0   120.0   16.666666666666668
200.0   120.0   0.0
200.0   150.0   0.0
150.0   150.0   0.0
200.0   150.0   16.666666666666668
150.0   120.0   16.666666666666668
150.0   150.0   16.666666666666668
200.0   150.0   16.666666666666668
150.0   150.0   0.0
150.0   120.0   16.666666666666668
200.0   150.0   16.666666666666668
200.0   120.0   16.666666666666668
200.0   120.0   0.0
150.0   120.0   16.666666666666668
200.0   150.0   16.666666666666668
200.0   120.0   0.0
150.0   150.0   0.0
150.0   120.0   16.666666666666668
200.0   120.0   16.666666666666668
150.0   150.0   16.666666666666668
150.0   120.0   33.333333333333336
200.0   120.0   16.666666666666668
200.0   150.0   16.666666666666668
150.0   150.0   16.666666666666668
200.0   150.0   33.333333333333336
150.0   120.0   33.333333333333336
150.0   150.0   33.333333333333336
200.0   150.0   33.333333333333336
150.0   150.0   16.666666666666668
150.0   120.0   33.333333333333336
200.0   150.0   33.333333333333336
200.0   120.0   33.333333333333336
200.0   120.0   16.666666666666668
150.0   120.0   33.333333333333336
200.0   150.0   33.333333333333336
200.0   120.0   16.666666666666668
150.0   150.0   16.666666666666668
150.0   120.0   33.333333333333336
200.0   120.0   33.333333333333336
150.0   150.0   33.333333333333336
150.0   120.0   50.0
200.0   120.0   33.333333333333336
200.0   150.0   33.333333333333336
150.0   150.0   33.333333333333336
200.0   150.0   50.0
150.0   120.0   50.0
150.0   150.0   50.0
200.0   150.0   50.0
150.0   150.0   33.333333333333336
150.0   120.0   50.0
200.0   150.0   50.0
200.0   120.0   50.0
200.0   120.0   33.333333333333336
150.0   120.0   50.0
200.0   150.0   50.0
200.0   120.0   33.333333333333336
150.0   150.0   33.333333333333336
200.0   0.0   0.0
250.0   0.0   0.0
200.0   30.0   0.0
200.0   0.0   16.666666666666668
250.0   0.0   0.0
250.0   30.0   0.0
200.0   30.0   0.0
250.0   30.0   16.666666666666668
200.0   0.0   16.666666666666668
200.0   30.0   16.666666666666668
250.0   30.0   16.666666666666668
200.0   30.0   0.0
200.0   0.0   16.666666666666668
250.0   30.0   16.666666666666668
250.0   0.0   16.666666666666668
250.0   0.0   0.0
200.0   0.0   16.666666666666668
250.0   30.0   16.666666666666668
250.0   0.0   0.0
200.0   30.0   0.0
200.0   0.0   16.666666666666668
250.0   0.0   16.666666666666668
200.0   30.0   16.666666666666668
200.0   0.0   33.333333333333336
250.0   0.0   16.666666666666668
250.0   30.0   16.666666666666668
200.0   30.0   16.666666666666668
250.0   30.0   33.333333333333336
200.0   0.0   33.333333333333336
200.0   30.0   33.333333333333336
250.0   30.0   33.333333333333336
200.0   30.0   16.666666666666668
200.0   0.0   33.333333333333336
250.0   30.0   33.333333333333336
250.0   0.0   33.333333333333336
250.0   0.0   16.666666666666668
200.0   0.0   33.333333333333336
250.0   30.0   33.333333333333336
250.0   0.0   16.666666666666668
200.0   30.0   16.666666666666668
200.0   0.0   33.333333333333336
250.0   0.0   33.333333333333336
200.0   30.0   33.333333333333336
200.0   0.0   50.0
250.0   0.0   33.333333333333336
250.0   30.0   33.333333333333336
200.0   30.0   33.333333333333336
250.0   30.0   50.0
200.0   0.0   50.0
200.0   30.0   50.0
250.0   30.0   50.0
200.0   30.0   33.333333333333336
200.0   0.0   50.0
250.0   30.0   50.0
250.0   0.0   50.0
250.0   0.0   33.333333333333336
200.0   0.0   50.0
250.0   30.0   50.0
250.0   0.0   33.333333333333336
200.0   30.0   33.333333333333336
200.0   30.0   0.0
250.0   30.0   0.0
200.0   60.0   0.0
200.0   30.0   16.666666666666668
250.0   30.0   0.0
250.0   60.0   0.0
200.0   60.0   0.0
250.0   60.0   16.666666666666668
200.0   30.0   16.666666666666668
200.0   60.0   16.666666666666668
250.0   60.0   16.666666666666668
200.0   60.0   0.0
200.0   30.0   16.666666666666668
250.0   60.0   16.666666666666668
250.0   30.0   16.666666666666668
250.0   30.0   0.0
200.0   30.0   16.666666666666668
250.0   60.0   16.666666666666668
250.0   30.0   0.0
200.0   60.0   0.0
200.0   30.0   16.666666666666668
250.0   30.0   16.666666666666668
200.0   60.0   16.666666666666668
200.0   30.0   33.333333333333336
250.0   30.0   16.666666666666668
250.0   60.0   16.666666666666668
200.0   60.0   16.666666666666668
250.0   60.0   33.333333333333336
200.0   30.0   33.333333333333336
200.0   60.0   33.333333333333336
250.0   60.0   33.333333333333336
200.0   60.0   16.666666666666668
200.0   30.0   33.333333333333336
250.0   60.0   33.333333333333336
250.0   30.0   33.333333333333336
250.0   30.0   16.666666666666668
200.0   30.0   33.333333333333336
250.0   60.0   33.333333333333336
250.0   30.0   16.666666666666668
200.0   60.0   16.666666666666668
200.0   30.0   33.333333333333336
250.0   30.0   33.333333333333336
200.0   60.0   33.333333333333336
200.0   30.0   50.0
250.0   30.0   33.333333333333336
250.0   60.0   33.333333333333336
200.0   60.0   33.333333333333336
250.0   60.0   50.0
200.0   30.0   50.0
200.0   60.0   50.0
250.0   60.0   50.0
200.0   60.0   33.333333333333336
200.0   30.0   50.0
250.0   60.0   50.0
250.0   30.0   50.0
250.0   30.0   33.333333333333336
200.0   30.0   50.0
250.0   60.0   50.0
250.0   30.0   33.333333333333336
200.0   60.0   33.333333333333336
200.0   60.0   0.0
250.0   60.0   0.0
200.0   90.0   0.0
200.0   60.0   16.666666666666668
250.0   60.0   0.0
250.0   90.0   0.0
200.0   90.0   0.0
250.0   90.0   16.666666666666668
200.0   60.0   16.666666666666668
200.0   90.0   16.666666666666668
250.0   90.0   16.666666666666668
200.0   90.0   0.0
200.0   60.0   16.666666666666668
250.0   90.0   16.666666666666668
250.0   60.0   16.666666666666668
250.0   60.0   0.0
200.0   60.0   16.666666666666668
250.0   90.0   16.666666666666668
250.0   60.0   0.0
200.0   90.0   0.0
200.0   60.0   16.666666666666668
250.0   60.0   16.666666666666668
200.0   90.0   16.666666666666668
200.0   60.0   33.333333333333336
250.0   60.0   16.666666666666668
250.0   90.0   16.666666666666668
200.0   90.0   16.666666666666668
250.0   90.0   33.333333333333336
200.0   60.0   33.333333333333336
200.0   90.0   33.333333333333336
250.0   90.0   33.333333333333336
200.0   90.0   16.666666666666668
200.0   60.0   33.333333333333336
250.0   90.0   33.333333333333336
250.0   60.0   33.333333333333336
250.0   60.0   16.666666666666668
200.0   60.0   33.333333333333336
250.0   90.0   33.333333333333336
250.0   60.0   16.666666666666668
200.0   90.0   16.666666666666668
200.0   60.0   33.333333333333336
250.0   60.0   33.333333333333336
200.0   90.0   33.333333333333336
200.0   60.0   50.0
250.0   60.0   33.333333333333336
250.0   90.0   33.333333333333336
200.0   90.0   33.333333333333336
250.0   90.0   50.0
200.0   60.0   50.0
200.0   90.0   50.0
250.0   90.0   50.0
200.0   90.0   33.333333333333336
200.0   60.0   50.0
250.0   90.0   50.0
250.0   60.0   50.0
250.0   60.0   33.333333333333336
200.0   60.0   50.0
250.0   90.0   50.0
250.0   60.0   33.333333333333336
200.0   90.0   33.333333333333336
200.0   90.0   0.0
250.0   90.0   0.0
200.0   120.0   0.0
200.0   90.0   16.666666666666668
250.0   90.0   0.0
250.0   120.0   0.0
200.0   120.0   0.0
250.0   120.0   16.666666666666668
200.0   90.0   16.666666666666668
200.0   120.0   16.666666666666668
250.0   120.0   16.666666666666668
200.0   120.0   0.0
200.0   90.0   16.666666666666668
250.0   120.0   16.666666666666668
250.0   90.0   16.666666666666668
250.0   90.0   0.0
200.0   90.0   16.666666666666668
250.0   120.0   16.666666666666668
250.0   90.0   0.0
200.0   120.0   0.0
200.0   90.0   16.666666666666668
250.0   90.0   16.666666666666668
200.0   120.0   16.666666666666668
200.0   90.0   33.333333333333336
250.0   90.0   16.666666666666668
250.0   120.0   16.666666666666668
200.0   120.0   16.666666666666668
250.0   120.0   33.333333333333336
200.0   90.0   33.333333333333336
200.0   120.0   33.333333333333336
250.0   120.0   33.333333333333336
200.0   120.0   16.666666666666668
200.0   90.0   33.333333333333336
250.0   120.0   33.333333333333336
250.0   90.0   33.333333333333336
250.0   90.0   16.666666666666668
200.0   90.0   33.333333333333336
250.0   120.0   33.333333333333336
250.0   90.0   16.666666666666668
200.0   120.0   16.666666666666668
200.0   90.0   33.333333333333336
250.0   90.0   33.333333333333336
200.0   120.0   33.333333333333336
200.0   90.0   50.0
250.0   90.0   33.333333333333336
250.0   120.0   33.333333333333336
200.0   120.0   33.333333333333336
250.0   120.0   50.0
200.0   90.0   50.0
200.0   120.0   50.0
250.0   120.0   50.0
200.0   120.0   33.333333333333336
200.0   90.0   50.0
250.0   120.0   50.0
250.0   90.0   50.0
250.0   90.0   33.333333333333336
200.0   90.0   50.0
250.0   120.0   50.0
250.0   90.0   33.333333333333336
200.0   120.0   33.333333333333336
200.0   120.0   0.0
250.0   120.0   0.0
200.0   150.0   0.0
200.0   120.0   16.666666666666668
250.0   120.0   0.0
250.0   150.0   0.0
200.0   150.0   0.0
250.0   150.0   16.666666666666668
200.0   120.0   16.666666666666668
200.0   150.0   16.666666666666668
250.0   150.0   16.666666666666668
200.0   150.0   0.0
200.0   120.0   16.666666666666668
250.0   150.0   16.666666666666668
250.0   120.0   16.666666666666668
250.0   120.0   0.0
200.0   120.0   16.666666666666668
250.0   150.0   16.666666666666668
250.0   120.0   0.0
200.0   150.0   0.0
200.0   120.0   16.666666666666668
250.0   120.0   16.666666666666668
200.0   150.0   16.666666666666668
200.0   120.0   33.333333333333336
250.0   120.0   16.666666666666668
250.0   150.0   16.666666666666668
200.0   150.0   16.666666666666668
250.0   150.0   33.333333333333336
200.0   120.0   33.333333333333336
200.0   150.0   33.333333333333336
250.0   150.0   33.333333333333336
200.0   150.0   16.666666666666668
200.0   120.0   33.333333333333336
250.0   150.0   33.333333333333336
250.0   120.0   33.333333333333336
250.0   120.0   16.666666666666668
200.0   120.0   33.333333333333336
250.0   150.0   33.333333333333336
250.0   120.0   16.666666666666668
200.0   150.0   16.666666666666668
200.0   120.0   33.333333333333336
250.0   120.0   33.333333333333336
200.0   150.0   33.333333333333336
200.0   120.0   50.0
250.0   120.0   33.333333333333336
250.0   150.0   33.333333333333336
200.0   150.0   33.333333333333336
250.0   150.0   50.0
200.0   120.0   50.0
200.0   150.0   50.0
250.0   150.0   50.0
200.0   150.0   33.333333333333336
200.0   120.0   50.0
250.0   150.0   50.0
250.0   120.0   50.0
250.0   120.0   33.333333333333336
200.0   120.0   50.0
250.0   150.0   50.0
250.0   120.0   33.333333333333336
200.0   150.0   33.333333333333336
250.0   0.0   0.0
300.0   0.0   0.0
250.0   30.0   0.0
250.0   0.0   16.666666666666668
300.0   0.0   0.0
300.0   30.0   0.0
250.0   30.0   0.0
300.0   30.0   16.666666666666668
250.0   0.0   16.666666666666668
250.0   30.0   16.666666666666668
300.0   30.0   16.666666666666668
250.0   30.0   0.0
250.0   0.0   16.666666666666668
300.0   30.0   16.666666666666668
300.0   0.0   16.666666666666668
300.0   0.0   0.0
250.0   0.0   16.666666666666668
300.0   30.0   16.666666666666668
300.0   0.0   0.0
250.0   30.0   0.0
250.0   0.0   16.666666666666668
300.0   0.0   16.666666666666668
250.0   30.0   16.666666666666668
250.0   0.0   33.333333333333336
300.0   0.0   16.666666666666668
300.0   30.0   16.666666666666668
250.0   30.0   16.666666666666668
300.0   30.0   33.333333333333336
250.0   0.0   33.333333333333336
250.0   30.0   33.333333333333336
300.0   30.0   33.333333333333336
250.0   30.0   16.666666666666668
250.0   0.0   33.333333333333336
300.0   30.0   33.333333333333336
300.0   0.0   33.333333333333336
300.0   0.0   16.666666666666668
250.0   0.0   33.333333333333336
300.0   30.0   33.333333333333336
300.0   0.0   16.666666666666668
250.0   30.0   16.666666666666668
250.0   0.0   33.333333333333336
300.0   0.0   33.333333333333336
250.0   30.0   33.333333333333336
250.0   0.0   50.0
300.0   0.0   33.333333333333336
300.0   30.0   33.333333333333336
250.0   30.0   33.333333333333336
300.0   30.0   50.0
250.0   0.0   50.0
250.0   30.0   50.0
300.0   30.0   50.0
250.0   30.0   33.333333333333336
250.0   0.0   50.0
300.0   30.0   50.0
300.0   0.0   50.0
300.0   0.0   33.333333333333336
250.0   0.0   50.0
300.0   30.0   50.0
300.0   0.0   33.333333333333336
250.0   30.0   33.333333333333336
250.0   30.0   0.0
300.0   30.0   0.0
250.0   60.0   0.0
250.0   30.0   16.666666666666668
300.0   30.0   0.0
300.0   60.0   0.0
250.0   60.0   0.0
300.0   60.0   16.666666666666668
250.0   30.0   16.666666666666668
250.0   60.0   16.666666666666668
300.0   60.0   16.666666666666668
250.0   60.0   0.0
250.0   30.0   16.666666666666668
300.0   60.0   16.666666666666668
300.0   30.0   16.666666666666668
300.0   30.0   0.0
250.0   30.0   16.666666666666668
300.0   60.0   16.666666666666668
300.0   30.0   0.0
250.0   60.0   0.0
250.0   30.0   16.666666666666668
300.0   30.0   16.666666666666668
250.0   60.0   16.666666666666668
250.0   30.0   33.333333333333336
300.0   30.0   16.666666666666668
300.0   60.0   16.666666666666668
250.0   60.0   16.666666666666668
300.0   60.0   33.333333333333336
250.0   30.0   33.333333333333336
250.0   60.0   33.333333333333336
300.0   60.0   33.333333333333336
250.0   60.0   16.666666666666668
250.0   30.0   33.333333333333336
300.0   60.0   33.333333333333336
300.0   30.0   33.333333333333336
300.0   30.0   16.666666666666668
250.0   30.0   33.333333333333336
300.0   60.0   33.333333333333336
300.0   30.0   16.666666666666668
250.0   60.0   16.666666666666668
250.0   30.0   33.333333333333336
300.0   30.0   33.333333333333336
250.0   60.0   33.333333333333336
250.0   30.0   50.0
300.0   30.0   33.333333333333336
300.0   60.0   33.333333333333336
250.0   60.0   33.333333333333336
300.0   60.0   50.0
250.0   30.0   50.0
250.0   60.0   50.0
300.0   60.0   50.0
250.0   60.0   33.333333333333336
250.0   30.0   50.0
300.0   60.0   50.0
300.0   30.0   50.0
300.0   30.0   33.333333333333336
250.0   30.0   50.0
300.0   60.0   50.0
300.0   30.0   33.333333333333336
250.0   60.0   33.333333333333336
250.0   60.0   0.0
300.0   60.0   0.0
250.0   90.0   0.0
250.0   60.0   16.666666666666668
300.0   60.0   0.0
300.0   90.0   0.0
250.0   90.0   0.0
300.0   90.0   16.666666666666668
250.0   60.0   16.666666666666668
250.0   90.0   16.666666666666668
300.0   90.0   16.666666666666668
250.0   90.0   0.0
250.0   60.0   16.666666666666668
300.0   90.0   16.666666666666668
300.0   60.0   16.666666666666668
300.0   60.0   0.0
250.0   60.0   16.666666666666668
300.0   90.0   16.666666666666668
300.0   60.0   0.0
250.0   90.0   0.0
250.0   60.0   16.666666666666668
300.0   60.0   16.666666666666668
250.0   90.0   16.666666666666668
250.0   60.0   33.333333333333336
300.0   60.0   16.666666666666668
300.0   90.0   16.666666666666668
250.0   90.0   16.666666666666668
300.0   90.0   33.333333333333336
250.0   60.0   33.333333333333336
250.0   90.0   33.333333333333336
300.0   90.0   33.333333333333336
250.0   90.0   16.666666666666668
250.0   60.0   33.333333333333336
300.0   90.0   33.333333333333336
300.0   60.0   33.333333333333336
300.0   60.0   16.666666666666668
250.0   60.0   33.333333333333336
300.0   90.0   33.333333333333336
300.0   60.0   16.666666666666668
250.0   90.0   16.666666666666668
250.0   60.0   33.333333333333336
300.0   60.0   33.333333333333336
250.0   90.0   33.333333333333336
250.0   60.0   50.0
300.0   60.0   33.333333333333336
300.0   90.0   33.333333333333336
250.0   90.0   33.333333333333336
300.0   90.0   50.0
250.0   60.0   50.0
250.0   90.0   50.0
300.0   90.0   50.0
250.0   90.0   33.333333333333336
250.0   60.0   50.0
300.0   90.0   50.0
300.0   60.0   50.0
300.0   60.0   33.333333333333336
250.0   60.0   50.0
300.0   90.0   50.0
300.0   60.0   33.333333333333336
250.0   90.0   33.333333333333336
250.0   90.0   0.0
300.0   90.0   0.0
250.0   120.0   0.0
250.0   90.0   16.666666666666668
300.0   90.0   0.0
300.0   120.0   0.0
250.0   120.0   0.0
300.0   120.0   16.666666666666668
250.0   90.0   16.666666666666668
250.0   120.0   16.666666666666668
300.0   120.0   16.666666666666668
250.0   120.0   0.0
250.0   90.0   16.666666666666668
300.0   120.0   16.666666666666668
300.0   90.0   16.666666666666668
300.0   90.0   0.0
250.0   90.0   16.666666666666668
300.0   120.0   16.666666666666668
300.0   90.0   0.0
250.0   120.0   0.0
250.0   90.0   16.666666666666668
300.0   90.0   16.666666666666668
250.0   120.0   16.666666666666668
250.0   90.0   33.333333333333336
300.0   90.0   16.666666666666668
300.0   120.0   16.666666666666668
250.0   120.0   16.666666666666668
300.0   120.0   33.333333333333336
250.0   90.0   33.333333333333336
250.0   120.0   33.333333333333336
300.0   120.0   33.333333333333336
250.0   120.0   16.666666666666668
250.0   90.0   33.333333333333336
300.0   120.0   33.333333333333336
300.0   90.0   33.333333333333336
300.0   90.0   16.666666666666668
250.0   90.0   33.333333333333336
300.0   120.0   33.333333333333336
300.0   90.0   16.666666666666668
250.0   120.0   16.666666666666668
250.0   90.0   33.333333333333336
300.0   90.0   33.333333333333336
250.0   120.0   33.333333333333336
250.0   90.0   50.0
300.0   90.0   33.333333333333336
300.0   120.0   33.333333333333336
250.0   120.0   33.333333333333336
300.0   120.0   50.0
250.0   90.0   50.0
250.0   120.0   50.0
300.0   120.0   50.0
250.0   120.0   33.333333333333336
250.0   90.0   50.0
300.0   120.0   50.0
300.0   90.0   50.0
300.0   90.0   33.333333333333336
250.0   90.0   50.0
300.0   120.0   50.0
300.0   90.0   33.333333333333336
250.0   120.0   33.333333333333336
250.0   120.0   0.0
300.0   120.0   0.0
250.0   150.0   0.0
250.0   120.0   16.666666666666668
300.0   120.0   0.0
300.0   150.0   0.0
250.0   150.0   0.0
300.0   150.0   16.666666666666668
250.0   120.0   16.666666666666668
250.0   150.0   16.666666666666668
300.0   150.0   16.666666666666668
250.0   150.0   0.0
250.0   120.0   16.666666666666668
300.0   150.0   16.666666666666668
300.0   120.0   16.666666666666668
300.0   120.0   0.0
250.0   120.0   16.666666666666668
300.0   150.0   16.666666666666668
300.0   120.0   0.0
250.0   150.0   0.0
250.0   120.0   16.666666666666668
300.0   120.0   16.666666666666668
250.0   150.0   16.666666666666668
250.0   120.0   33.333333333333336
300.0   120.0   16.666666666666668
300.0   150.0   16.666666666666668
250.0   150.0   16.666666666666668
300.0   150.0   33.333333333333336
250.0   120.0   33.333333333333336
250.0   150.0   33.333333333333336
300.0   150.0   33.333333333333336
250.0   150.0   16.666666666666668
250.0   120.0   33.333333333333336
300.0   150.0   33.333333333333336
300.0   120.0   33.333333333333336
300.0   120.0   16.666666666666668
250.0   120.0   33.333333333333336
300.0   150.0   33.333333333333336
300.0   120.0   16.666666666666668
250.0   150.0   16.666666666666668
250.0   120.0   33.333333333333336
300.0   120.0   33.333333333333336
250.0   150.0   33.333333333333336
250.0   120.0   50.0
300.0   120.0   33.333333333333336
300.0   150.0   33.333333333333336
250.0   150.0   33.333333333333336
300.0   150.0   50.0
250.0   120.0   50.0
250.0   150.0   50.0
300.0   150.0   50.0
250.0   150.0   33.333333333333336
250.0   120.0   50.0
300.0   150.0   50.0
300.0   120.0   50.0
300.0   120.0   33.333333333333336
250.0   120.0   50.0
300.0   150.0   50.0
300.0   120.0   33.333333333333336
250.0   150.0   33.333333333333336
300.0   0.0   0.0
350.0   0.0   0.0
300.0   30.0   0.0
300.0   0.0   16.666666666666668
350.0   0.0   0.0
350.0   30.0   0.0
300.0   30.0   0.0
350.0   30.0   16.666666666666668
300.0   0.0   16.666666666666668
300.0   30.0   16.666666666666668
350.0   30.0   16.666666666666668
300.0   30.0   0.0
300.0   0.0   16.666666666666668
350.0   30.0   16.666666666666668
350.0   0.0   16.666666666666668
350.0   0.0   0.0
300.0   0.0   16.666666666666668
350.0   30.0   16.666666666666668
350.0   0.0   0.0
300.0   30.0   0.0
300.0   0.0   16.666666666666668
350.0   0.0   16.666666666666668
300.0   30.0   16.666666666666668
300.0   0.0   33.333333333333336
350.0   0.0   16.666666666666668
350.0   30.0   16.666666666666668
300.0   30.0   16.666666666666668
350.0   30.0   33.333333333333336
300.0   0.0   33.333333333333336
300.0   30.0   33.333333333333336
350.0   30.0   33.333333333333336
300.0   30.0   16.666666666666668
300.0   0.0   33.333333333333336
350.0   30.0   33.333333333333336
350.0   0.0   33.333333333333336
350.0   0.0   16.666666666666668
300.0   0.0   33.333333333333336
350.0   30.0   33.333333333333336
350.0   0.0   16.666666666666668
300.0   30.0   16.666666666666668
300.0   0.0   33.333333333333336
350.0   0.0   33.333333333333336
300.0   30.0   33.333333333333336
300.0   0.0   50.0
350.0   0.0   33.333333333333336
350.0   30.0   33.333333333333336
300.0   30.0   33.333333333333336
350.0   30.0   50.0
300.0   0.0   50.0
300.0   30.0   50.0
350.0   30.0   50.0
300.0   30.0   33.333333333333336
300.0   0.0   50.0
350.0   30.0   50.0
350.0   0.0   50.0
350.0   0.0   33.333333333333336
300.0   0.0   50.0
350.0   30.0   50.0
350.0   0.0   33.333333333333336
300.0   30.0   33.333333333333336
300.0   30.0   0.0
350.0   30.0   0.0
300.0   60.0   0.0
300.0   30.0   16.666666666666668
350.0   30.0   0.0
350.0   60.0   0.0
300.0   60.0   0.0
350.0   60.0   16.666666666666668
300.0   30.0   16.666666666666668
300.0   60.0   16.666666666666668
350.0   60.0   16.666666666666668
300.0   60.0   0.0
300.0   30.0   16.666666666666668
350.0   60.0   16.666666666666668
350.0   30.0   16.666666666666668
350.0   30.0   0.0
300.0   30.0   16.666666666666668
350.0   60.0   16.666666666666668
350.0   30.0   0.0
300.0   60.0   0.0
300.0   30.0   16.666666666666668
350.0   30.0   16.666666666666668
300.0   60.0   16.666666666666668
300.0   30.0   33.333333333333336
350.0   30.0   16.666666666666668
350.0   60.0   16.666666666666668
300.0   60.0   16.666666666666668
350.0   60.0   33.333333333333336
300.0   30.0   33.333333333333336
300.0   60.0   33.333333333333336
350.0   60.0   33.333333333333336
300.0   60.0   16.666666666666668
300.0   30.0   33.333333333333336
350.0   60.0   33.333333333333336
350.0   30.0   33.333333333333336
350.0   30.0   16.666666666666668
300.0   30.0   33.333333333333336
350.0   60.0   33.333333333333336
350.0   30.0   16.666666666666668
300.0   60.0   16.666666666666668
300.0   30.0   33.333333333333336
350.0   30.0   33.333333333333336
300.0   60.0   33.333333333333336
300.0   30.0   50.0
350.0   30.0   33.333333333333336
350.0   60.0   33.333333333333336
300.0   60.0   33.333333333333336
350.0   60.0   50.0
300.0   30.0   50.0
300.0   60.0   50.0
350.0   60.0   50.0
300.0   60.0   33.333333333333336
300.0   30.0   50.0
350.0   60.0   50.0
350.0   30.0   50.0
350.0   30.0   33.333333333333336
300.0   30.0   50.0
350.0   60.0   50.0
350.0   30.0   33.333333333333336
300.0   60.0   33.333333333333336
300.0   60.0   0.0
350.0   60.0   0.0
300.0   90.0   0.0
300.0   60.0   16.666666666666668
350.0   60.0   0.0
350.0   90.0   0.0
300.0   90.0   0.0
350.0   90.0   16.666666666666668
300.0   60.0   16.666666666666668
300.0   90.0   16.666666666666668
350.0   90.0   16.666666666666668
300.0   90.0   0.0
300.0   60.0   16.666666666666668
350.0   90.0   16.666666666666668
350.0   60.0   16.666666666666668
350.0   60.0   0.0
300.0   60.0   16.666666666666668
350.0   90.0   16.666666666666668
350.0   60.0   0.0
300.0   90.0   0.0
300.0   60.0   16.666666666666668
350.0   60.0   16.666666666666668
300.0   90.0   16.666666666666668
300.0   60.0   33.333333333333336
350.0   60.0   16.666666666666668
350.0   90.0   16.666666666666668
300.0   90.0   16.666666666666668
350.0   90.0   33.333333333333336
300.0   60.0   33.333333333333336
300.0   90.0   33.333333333333336
350.0   90.0   33.333333333333336
300.0   90.0   16.666666666666668
300.0   60.0   33.333333333333336
350.0   90.0   33.333333333333336
350.0   60.0   33.333333333333336
350.0   60.0   16.666666666666668
300.0   60.0   33.333333333333336
350.0   90.0   33.333333333333336
350.0   60.0   16.666666666666668
300.0   90.0   16.666666666666668
300.0   60.0   33.333333333333336
350.0   60.0   33.333333333333336
300.0   90.0   33.333333333333336
300.0   60.0   50.0
350.0   60.0   33.333333333333336
350.0   90.0   33.333333333333336
300.0   90.0   33.333333333333336
350.0   90.0   50.0
300.0   60.0   50.0
300.0   90.0   50.0
350.0   90.0   50.0
300.0   90.0   33.333333333333336
300.0   60.0   50.0
350.0   90.0   50.0
350.0   60.0   50.0
350.0   60.0   33.333333333333336
300.0   60.0   50.0
350.0   90.0   50.0
350.0   60.0   33.333333333333336
300.0   90.0   33.333333333333336
300.0   90.0   0.0
350.0   90.0   0.0
300.0   120.0   0.0
300.0   90.0   16.666666666666668
350.0   90.0   0.0
350.0   120.0   0.0
300.0   120.0   0.0
350.0   120.0   16.666666666666668
300.0   90.0   16.666666666666668
300.0   120.0   16.666666666666668
350.0   120.0   16.666666666666668
300.0   120.0   0.0
300.0   90.0   16.666666666666668
350.0   120.0   16.666666666666668
350.0   90.0   16.666666666666668
350.0   90.0   0.0
300.0   90.0   16.666666666666668
350.0   120.0   16.666666666666668
350.0   90.0   0.0
300.0   120.0   0.0
300.0   90.0   16.666666666666668
350.0   90.0   16.666666666666668
300.0   120.0   16.666666666666668
300.0   90.0   33.333333333333336
350.0   90.0   16.666666666666668
350.0   120.0   16.666666666666668
300.0   120.0   16.666666666666668
350.0   120.0   33.333333333333336
300.0   90.0   33.333333333333336
300.0   120.0   33.333333333333336
350.0   120.0   33.333333333333336
300.0   120.0   16.666666666666668
300.0   90.0   33.333333333333336
350.0   120.0   33.333333333333336
350.0   90.0   33.333333333333336
350.0   90.0   16.666666666666668
300.0   90.0   33.333333333333336
350.0   120.0   33.333333333333336
350.0   90.0   16.666666666666668
300.0   120.0   16.666666666666668
300.0   90.0   33.333333333333336
350.0   90.0   33.333333333333336
300.0   120.0   33.333333333333336
300.0   90.0   50.0
350.0   90.0   33.333333333333336
350.0   120.0   33.333333333333336
300.0   120.0   33.333333333333336
350.0   120.0   50.0
300.0   90.0   50.0
300.0   120.0   50.0
350.0   120.0   50.0
300.0   120.0   33.333333333333336
300.0   90.0   50.0
350.0   120.0   50.0
350.0   90.0   50.0
350.0   90.0   33.333333333333336
300.0   90.0   50.0
350.0   120.0   50.0
350.0   90.0   33.333333333333336
300.0   120.0   33.333333333333336
300.0   120.0   0.0
350.0   120.0   0.0
300.0   150.0   0.0
300.0   120.0   16.666666666666668
350.0   120.0   0.0
350.0   150.0   0.0
300.0   150.0   0.0
350.0   150.0   16.666666666666668
300.0   120.0   16.666666666666668
300.0   150.0   16.666666666666668
350.0   150.0   16.666666666666668
300.0   150.0   0.0
300.0   120.0   16.666666666666668
350.0   150.0   16.666666666666668
350.0   120.0   16.666666666666668
350.0   120.0   0.0
300.0   120.0   16.666666666666668
350.0   150.0   16.666666666666668
350.0   120.0   0.0
300.0   150.0   0.0
300.0   120.0   16.666666666666668
350.0   120.0   16.666666666666668
300.0   150.0   16.666666666666668
300.0   120.0   33.333333333333336
350.0   120.0   16.666666666666668
350.0   150.0   16.666666666666668
300.0   150.0   16.666666666666668
350.0   150.0   33.333333333333336
300.0   120.0   33.333333333333336
300.0   150.0   33.333333333333336
350.0   150.0   33.333333333333336
300.0   150.0   16.666666666666668
300.0   120.0   33.333333333333336
350.0   150.0   33.333333333333336
350.0   120.0   33.333333333333336
350.0   120.0   16.666666666666668
300.0   120.0   33.333333333333336
350.0   150.0   33.333333333333336
350.0   120.0   16.666666666666668
300.0   150.0   16.666666666666668
300.0   120.0   33.333333333333336
350.0   120.0   33.333333333333336
300.0   150.0   33.333333333333336
300.0   120.0   50.0
350.0   120.0   33.333333333333336
350.0   150.0   33.333333333333336
300.0   150.0   33.333333333333336
350.0   150.0   50.0
300.0   120.0   50.0
300.0   150.0   50.0
350.0   150.0   50.0
300.0   150.0   33.333333333333336
300.0   120.0   50.0
350.0   150.0   50.0
350.0   120.0   50.0
350.0   120.0   33.333333333333336
300.0   120.0   50.0
350.0   150.0   50.0
350.0   120.0   33.333333333333336
300.0   150.0   33.333333333333336
350.0   0.0   0.0
400.0   0.0   0.0
350.0   30.0   0.0
350.0   0.0   16.666666666666668
400.0   0.0   0.0
400.0   30.0   0.0
350.0   30.0   0.0
400.0   30.0   16.666666666666668
350.0   0.0   16.666666666666668
350.0   30.0   16.666666666666668
400.0   30.0   16.666666666666668
350.0   30.0   0.0
350.0   0.0   16.666666666666668
400.0   30.0   16.666666666666668
400.0   0.0   16.666666666666668
400.0   0.0   0.0
350.0   0.0   16.666666666666668
400.0   30.0   16.666666666666668
400.0   0.0   0.0
350.0   30.0   0.0
350.0   0.0   16.666666666666668
400.0   0.0   16.666666666666668
350.0   30.0   16.666666666666668
350.0   0.0   33.333333333333336
400.0   0.0   16.666666666666668
400.0   30.0   16.666666666666668
350.0   30.0   16.666666666666668
400.0   30.0   33.333333333333336
350.0   0.0   33.333333333333336
350.0   30.0   33.333333333333336
400.0   30.0   33.333333333333336
350.0   30.0   16.666666666666668
350.0   0.0   33.333333333333336
400.0   30.0   33.333333333333336
400.0   0.0   33.333333333333336
400.0   0.0   16.666666666666668
350.0   0.0   33.333333333333336
400.0   30.0   33.333333333333336
400.0   0.0   16.666666666666668
350.0   30.0   16.666666666666668
350.0   0.0   33.333333333333336
400.0   0.0   33.333333333333336
350.0   30.0   33.333333333333336
350.0   0.0   50.0
400.0   0.0   33.333333333333336
400.0   30.0   33.333333333333336
350.0   30.0   33.333333333333336
400.0   30.0   50.0
350.0   0.0   50.0
350.0   30.0   50.0
400.0   30.0   50.0
350.0   30.0   33.333333333333336
350.0   0.0   50.0
400.0   30.0   50.0
400.0   0.0   50.0
400.0   0.0   33.333333333333336
350.0   0.0   50.0
400.0   30.0   50.0
400.0   0.0   33.333333333333336
350.0   30.0   33.333333333333336
350.0   30.0   0.0
400.0   30.0   0.0
350.0   60.0   0.0
350.0   30.0   16.666666666666668
400.0   30.0   0.0
400.0   60.0   0.0
350.0   60.0   0.0
400.0   60.0   16.666666666666668
350.0   30.0   16.666666666666668
350.0   60.0   16.666666666666668
400.0   60.0   16.666666666666668
350.0   60.0   0.0
350.0   30.0   16.666666666666668
400.0   60.0   16.666666666666668
400.0   30.0   16.666666666666668
400.0   30.0   0.0
350.0   30.0   16.666666666666668
400.0   60.0   16.666666666666668
400.0   30.0   0.0
350.0   60.0   0.0
350.0   30.0   16.666666666666668
400.0   30.0   16.666666666666668
350.0   60.0   16.666666666666668
350.0   30.0   33.333333333333336
400.0   30.0   16.666666666666668
400.0   60.0   16.666666666666668
350.0   60.0   16.666666666666668
400.0   60.0   33.333333333333336
350.0   30.0   33.333333333333336
350.0   60.0   33.333333333333336
400.0   60.0   33.333333333333336
350.0   60.0   16.666666666666668
350.0   30.0   33.333333333333336
400.0   60.0   33.333333333333336
400.0   30.0   33.333333333333336
400.0   30.0   16.666666666666668
350.0   30.0   33.333333333333336
400.0   60.0   33.333333333333336
400.0   30.0   16.666666666666668
350.0   60.0   16.666666666666668
350.0   30.0   33.333333333333336
400.0   30.0   33.333333333333336
350.0   60.0   33.333333333333336
350.0   30.0   50.0
400.0   30.0   33.333333333333336
400.0   60.0   33.333333333333336
350.0   60.0   33.333333333333336
400.0   60.0   50.0
350.0   30.0   50.0
350.0   60.0   50.0
400.0   60.0   50.0
350.0   60.0   33.333333333333336
350.0   30.0   50.0
400.0   60.0   50.0
400.0   30.0   50.0
400.0   30.0   33.333333333333336
350.0   30.0   50.0
400.0   60.0   50.0
400.0   30.0   33.333333333333336
350.0   60.0   33.333333333333336
350.0   60.0   0.0
400.0   60.0   0.0
350.0   90.0   0.0
350.0   60.0   16.666666666666668
400.0   60.0   0.0
400.0   90.0   0.0
350.0   90.0   0.0
400.0   90.0   16.666666666666668
350.0   60.0   16.666666666666668
350.0   90.0   16.666666666666668
400.0   90.0   16.666666666666668
350.0   90.0   0.0
350.0   60.0   16.666666666666668
400.0   90.0   16.666666666666668
400.0   60.0   16.666666666666668
400.0   60.0   0.0
350.0   60.0   16.666666666666668
400.0   90.0   16.666666666666668
400.0   60.0   0.0
350.0   90.0   0.0
350.0   60.0   16.666666666666668
400.0   60.0   16.666666666666668
350.0   90.0   16.666666666666668
350.0   60.0   33.333333333333336
400.0   60.0   16.666666666666668
400.0   90.0   16.666666666666668
350.0   90.0   16.666666666666668
400.0   90.0   33.333333333333336
350.0   60.0   33.333333333333336
350.0   90.0   33.333333333333336
400.0   90.0   33.333333333333336
350.0   90.0   16.666666666666668
350.0   60.0   33.333333333333336
400.0   90.0   33.333333333333336
400.0   60.0   33.333333333333336
400.0   60.0   16.666666666666668
350.0   60.0   33.333333333333336
400.0   90.0   33.333333333333336
400.0   60.0   16.666666666666668
350.0   90.0   16.666666666666668
350.0   60.0   33.333333333333336
400.0   60.0   33.333333333333336
350.0   90.0   33.333333333333336
350.0   60.0   50.0
400.0   60.0   33.333333333333336
400.0   90.0   33.333333333333336
350.0   90.0   33.333333333333336
400.0   90.0   50.0
350.0   60.0   50.0
350.0   90.0   50.0
400.0   90.0   50.0
350.0   90.0   33.333333333333336
350.0   60.0   50.0
400.0   90.0   50.0
400.0   60.0   50.0
400.0   60.0   33.333333333333336
350.0   60.0   50.0
400.0   90.0   50.0
400.0   60.0   33.333333333333336
350.0   90.0   33.333333333333336
350.0   90.0   0.0
400.0   90.0   0.0
350.0   120.0   0.0
350.0   90.0   16.666666666666668
400.0   90.0   0.0
400.0   120.0   0.0
350.0   120.0   0.0
400.0   120.0   16.666666666666668
350.0   90.0   16.666666666666668
350.0   120.0   16.666666666666668
400.0   120.0   16.666666666666668
350.0   120.0   0.0
350.0   90.0   16.666666666666668
400.0   120.0   16.666666666666668
400.0   90.0   16.666666666666668
400.0   90.0   0.0
350.0   90.0   16.666666666666668
400.0   120.0   16.666666666666668
400.0   90.0   0.0
350.0   120.0   0.0
350.0   90.0   16.666666666666668
400.0   90.0   16.666666666666668
350.0   120.0   16.666666666666668
350.0   90.0   33.333333333333336
400.0   90.0   16.666666666666668
400.0   120.0   16.666666666666668
350.0   120.0   16.666666666666668
400.0   120.0   33.333333333333336
350.0   90.0   33.333333333333336
350.0   120.0   33.333333333333336
400.0   120.0   33.333333333333336
350.0   120.0   16.666666666666668
350.0   90.0   33.333333333333336
400.0   120.0   33.333333333333336
400.0   90.0   33.333333333333336
400.0   90.0   16.666666666666668
350.0   90.0   33.333333333333336
400.0   120.0   33.333333333333336
400.0   90.0   16.666666666666668
350.0   120.0   16.666666666666668
350.0   90.0   33.333333333333336
400.0   90.0   33.333333333333336
350.0   120.0   33.333333333333336
350.0   90.0   50.0
400.0   90.0   33.333333333333336
400.0   120.0   33.333333333333336
350.0   120.0   33.333333333333336
400.0   120.0   50.0
350.0   90.0   50.0
350.0   120.0   50.0
400.0   120.0   50.0
350.0   120.0   33.333333333333336
350.0   90.0   50.0
400.0   120.0   50.0
400.0   90.0   50.0
400.0   90.0   33.333333333333336
350.0   90.0   50.0
400.0   120.0   50.0
400.0   90.0   33.333333333333336
350.0   120.0   33.333333333333336
350.0   120.0   0.0
400.0   120.0   0.0
350.0   150.0   0.0
350.0   120.0   16.666666666666668
400.0   120.0   0.0
400.0   150.0   0.0
350.0   150.0   0.0
400.0   150.0   16.666666666666668
350.0   120.0   16.666666666666668
350.0   150.0   16.666666666666668
400.0   150.0   16.666666666666668
350.0   150.0   0.0
350.0   120.0   16.666666666666668
400.0   150.0   16.666666666666668
400.0   120.0   16.666666666666668
400.0   120.0   0.0
350.0   120.0   16.666666666666668
400.0   150.0   16.666666666666668
400.0   120.0   0.0
350.0   150.0   0.0
350.0   120.0   16.666666666666668
400.0   120.0   16.666666666666668
350.0   150.0   16.666666666666668
350.0   120.0   33.333333333333336
400.0   120.0   16.666666666666668
400.0   150.0   16.666666666666668
350.0   150.0   16.666666666666668
400.0   150.0   33.333333333333336
350.0   120.0   33.333333333333336
350.0   150.0   33.333333333333336
400.0   150.0   33.333333333333336
350.0   150.0   16.666666666666668
350.0   120.0   33.333333333333336
400.0   150.0   33.333333333333336
400.0   120.0   33.333333333333336
400.0   120.0   16.666666666666668
350.0   120.0   33.333333333333336
400.0   150.0   33.333333333333336
400.0   120.0   16.666666666666668
350.0   150.0   16.666666666666668
350.0   120.0   33.333333333333336
400.0   120.0   33.333333333333336
350.0   150.0   33.333333333333336
350.0   120.0   50.0
400.0   120.0   33.333333333333336
400.0   150.0   33.333333333333336
350.0   150.0   33.333333333333336
400.0   150.0   50.0
350.0   120.0   50.0
350.0   150.0   50.0
400.0   150.0   50.0
350.0   150.0   33.333333333333336
350.0   120.0   50.0
400.0   150.0   50.0
400.0   120.0   50.0
400.0   120.0   33.333333333333336
350.0   120.0   50.0
400.0   150.0   50.0
400.0   120.0   33.333333333333336
350.0   150.0   33.333333333333336
400.0   0.0   0.0
450.0   0.0   0.0
400.0   30.0   0.0
400.0   0.0   16.666666666666668
450.0   0.0   0.0
450.0   30.0   0.0
400.0   30.0   0.0
450.0   30.0   16.666666666666668
400.0   0.0   16.666666666666668
400.0   30.0   16.666666666666668
450.0   30.0   16.666666666666668
400.0   30.0   0.0
400.0   0.0   16.666666666666668
450.0   30.0   16.666666666666668
450.0   0.0   16.666666666666668
450.0   0.0   0.0
400.0   0.0   16.666666666666668
450.0   30.0   16.666666666666668
450.0   0.0   0.0
400.0   30.0   0.0
400.0   0.0   16.666666666666668
450.0   0.0   16.666666666666668
400.0   30.0   16.666666666666668
400.0   0.0   33.333333333333336
450.0   0.0   16.666666666666668
450.0   30.0   16.666666666666668
400.0   30.0   16.666666666666668
450.0   30.0   33.333333333333336
400.0   0.0   33.333333333333336
400.0   30.0   33.333333333333336
450.0   30.0   33.333333333333336
400.0   30.0   16.666666666666668
400.0   0.0   33.333333333333336
450.0   30.0   33.333333333333336
450.0   0.0   33.333333333333336
450.0   0.0   16.666666666666668
400.0   0.0   33.333333333333336
450.0   30.0   33.333333333333336
450.0   0.0   16.666666666666668
400.0   30.0   16.666666666666668
400.0   0.0   33.333333333333336
450.0   0.0   33.333333333333336
400.0   30.0   33.333333333333336
400.0   0.0   50.0
450.0   0.0   33.333333333333336
450.0   30.0   33.333333333333336
400.0   30.0   33.333333333333336
450.0   30.0   50.0
400.0   0.0   50.0
400.0   30.0   50.0
450.0   30.0   50.0
400.0   30.0   33.333333333333336
400.0   0.0   50.0
450.0   30.0   50.0
450.0   0.0   50.0
450.0   0.0   33.333333333333336
400.0   0.0   50.0
450.0   30.0   50.0
450.0   0.0   33.333333333333336
400.0   30.0   33.333333333333336
400.0   30.0   0.0
450.0   30.0   0.0
400.0   60.0   0.0
400.0   30.0   16.666666666666668
450.0   30.0   0.0
450.0   60.0   0.0
400.0   60.0   0.0
450.0   60.0   16.666666666666668
400.0   30.0   16.666666666666668
400.0   60.0   16.666666666666668
450.0   60.0   16.666666666666668
400.0   60.0   0.0
400.0   30.0   16.666666666666668
450.0   60.0   16.666666666666668
450.0   30.0   16.666666666666668
450.0   30.0   0.0
400.0   30.0   16.666666666666668
450.0   60.0   16.666666666666668
450.0   30.0   0.0
400.0   60.0   0.0
400.0   30.0   16.666666666666668
450.0   30.0   16.666666666666668
400.0   60.0   16.666666666666668
400.0   30.0   33.333333333333336
450.0   30.0   16.666666666666668
450.0   60.0   16.666666666666668
400.0   60.0   16.666666666666668
450.0   60.0   33.333333333333336
400.0   30.0   33.333333333333336
400.0   60.0   33.333333333333336
450.0   60.0   33.333333333333336
400.0   60.0   16.666666666666668
400.0   30.0   33.333333333333336
450.0   60.0   33.333333333333336
450.0   30.0   33.333333333333336
450.0   30.0   16.666666666666668
400.0   30.0   33.333333333333336
450.0   60.0   33.333333333333336
450.0   30.0   16.666666666666668
400.0   60.0   16.666666666666668
400.0   30.0   33.333333333333336
450.0   30.0   33.333333333333336
400.0   60.0   33.333333333333336
400.0   30.0   50.0
450.0   30.0   33.333333333333336
450.0   60.0   33.333333333333336
400.0   60.0   33.333333333333336
450.0   60.0   50.0
400.0   30.0   50.0
400.0   60.0   50.0
450.0   60.0   50.0
400.0   60.0   33.333333333333336
400.0   30.0   50.0
450.0   60.0   50.0
450.0   30.0   50.0
450.0   30.0   33.333333333333336
400.0   30.0   50.0
450.0   60.0   50.0
450.0   30.0   33.333333333333336
400.0   60.0   33.333333333333336
400.0   60.0   0.0
450.0   60.0   0.0
400.0   90.0   0.0
400.0   60.0   16.666666666666668
450.0   60.0   0.0
450.0   90.0   0.0
400.0   90.0   0.0
450.0   90.0   16.666666666666668
400.0   60.0   16.666666666666668
400.0   90.0   16.666666666666668
450.0   90.0   16.666666666666668
400.0   90.0   0.0
400.0   60.0   16.666666666666668
450.0   90.0   16.666666666666668
450.0   60.0   16.666666666666668
450.0   60.0   0.0
400.0   60.0   16.666666666666668
450.0   90.0   16.666666666666668
450.0   60.0   0.0
400.0   90.0   0.0
400.0   60.0   16.666666666666668
450.0   60.0   16.666666666666668
400.0   90.0   16.666666666666668
400.0   60.0   33.333333333333336
450.0   60.0   16.666666666666668
450.0   90.0   16.666666666666668
400.0   90.0   16.666666666666668
450.0   90.0   33.333333333333336
400.0   60.0   33.333333333333336
400.0   90.0   33.333333333333336
450.0   90.0   33.333333333333336
400.0   90.0   16.666666666666668
400.0   60.0   33.333333333333336
450.0   90.0   33.333333333333336
450.0   60.0   33.333333333333336
450.0   60.0   16.666666666666668
400.0   60.0   33.333333333333336
450.0   90.0   33.333333333333336
450.0   60.0   16.666666666666668
400.0   90.0   16.666666666666668
400.0   60.0   33.333333333333336
450.0   60.0   33.333333333333336
400.0   90.0   33.333333333333336
400.0   60.0   50.0
450.0   60.0   33.333333333333336
450.0   90.0   33.333333333333336
400.0   90.0   33.333333333333336
450.0   90.0   50.0
400.0   60.0   50.0
400.0   90.0   50.0
450.0   90.0   50.0
400.0   90.0   33.333333333333336
400.0   60.0   50.0
450.0   90.0   50.0
450.0   60.0   50.0
450.0   60.0   33.333333333333336
400.0   60.0   50.0
450.0   90.0   50.0
450.0   60.0   33.333333333333336
400.0   90.0   33.333333333333336
400.0   90.0   0.0
450.0   90.0   0.0
400.0   120.0   0.0
400.0   90.0   16.666666666666668
450.0   90.0   0.0
450.0   120.0   0.0
400.0   120.0   0.0
450.0   120.0   16.666666666666668
400.0   90.0   16.666666666666668
400.0   120.0   16.666666666666668
450.0   120.0   16.666666666666668
400.0   120.0   0.0
400.0   90.0   16.666666666666668
450.0   120.0   16.666666666666668
450.0   90.0   16.666666666666668
450.0   90.0   0.0
400.0   90.0   16.666666666666668
450.0   120.0   16.666666666666668
450.0   90.0   0.0
400.0   120.0   0.0
400.0   90.0   16.666666666666668
450.0   90.0   16.666666666666668
400.0   120.0   16.666666666666668
400.0   90.0   33.333333333333336
450.0   90.0   16.666666666666668
450.0   120.0   16.666666666666668
400.0   120.0   16.666666666666668
450.0   120.0   33.333333333333336
400.0   90.0   33.333333333333336
400.0   120.0   33.333333333333336
450.0   120.0   33.333333333333336
400.0   120.0   16.666666666666668
400.0   90.0   33.333333333333336
450.0   120.0   33.333333333333336
450.0   90.0   33.333333333333336
450.0   90.0   16.666666666666668
400.0   90.0   33.333333333333336
450.0   120.0   33.333333333333336
450.0   90.0   16.666666666666668
400.0   120.0   16.666666666666668
400.0   90.0   33.333333333333336
450.0   90.0   33.333333333333336
400.0   120.0   33.333333333333336
400.0   90.0   50.0
450.0   90.0   33.333333333333336
450.0   120.0   33.333333333333336
400.0   120.0   33.333333333333336
450.0   120.0   50.0
400.0   90.0   50.0
400.0   120.0   50.0
450.0   120.0   50.0
400.0   120.0   33.333333333333336
400.0   90.0   50.0
450.0   120.0   50.0
450.0   90.0   50.0
450.0   90.0   33.333333333333336
400.0   90.0   50.0
450.0   120.0   50.0
450.0   90.0   33.333333333333336
400.0   120.0   33.333333333333336
400.0   120.0   0.0
450.0   120.0   0.0
400.0   150.0   0.0
400.0   120.0   16.666666666666668
450.0   120.0   0.0
450.0   150.0   0.0
400.0   150.0   0.0
450.0   150.0   16.666666666666668
400.0   120.0   16.666666666666668
400.0   150.0   16.666666666666668
450.0   150.0   16.666666666666668
400.0   150.0   0.0
400.0   120.0   16.666666666666668
450.0   150.0   16.666666666666668
450.0   120.0   16.666666666666668
450.0   120.0   0.0
400.0   120.0   16.666666666666668
450.0   150.0   16.666666666666668
450.0   120.0   0.0
400.0   150.0   0.0
400.0   120.0   16.666666666666668
450.0   120.0   16.666666666666668
400.0   150.0   16.666666666666668
400.0   120.0   33.333333333333336
450.0   120.0   16.666666666666668
450.0   150.0   16.666666666666668
400.0   150.0   16.666666666666668
450.0   150.0   33.333333333333336
400.0   120.0   33.333333333333336
400.0   150.0   33.333333333333336
450.0   150.0   33.333333333333336
400.0   150.0   16.666666666666668
400.0   120.0   33.333333333333336
450.0   150.0   33.333333333333336
450.0   120.0   33.333333333333336
450.0   120.0   16.666666666666668
400.0   120.0   33.333333333333336
450.0   150.0   33.333333333333336
450.0   120.0   16.666666666666668
400.0   150.0   16.666666666666668
400.0   120.0   33.333333333333336
450.0   120.0   33.333333333333336
400.0   150.0   33.333333333333336
400.0   120.0   50.0
450.0   120.0   33.333333333333336
450.0   150.0   33.333333333333336
400.0   150.0   33.333333333333336
450.0   150.0   50.0
400.0   120.0   50.0
400.0   150.0   50.0
450.0   150.0   50.0
400.0   150.0   33.333333333333336
400.0   120.0   50.0
450.0   150.0   50.0
450.0   120.0   50.0
450.0   120.0   33.333333333333336
400.0   120.0   50.0
450.0   150.0   50.0
450.0   120.0   33.333333333333336
400.0   150.0   33.333333333333336
450.0   0.0   0.0
500.0   0.0   0.0
450.0   30.0   0.0
450.0   0.0   16.666666666666668
500.0   0.0   0.0
500.0   30.0   0.0
450.0   30.0   0.0
500.0   30.0   16.666666666666668
450.0   0.0   16.666666666666668
450.0   30.0   16.666666666666668
500.0   30.0   16.666666666666668
450.0   30.0   0.0
450.0   0.0   16.666666666666668
500.0   30.0   16.666666666666668
500.0   0.0   16.666666666666668
500.0   0.0   0.0
450.0   0.0   16.666666666666668
500.0   30.0   16.666666666666668
500.0   0.0   0.0
450.0   30.0   0.0
450.0   0.0   16.666666666666668
500.0   0.0   16.666666666666668
450.0   30.0   16.666666666666668
450.0   0.0   33.333333333333336
500.0   0.0   16.666666666666668
500.0   30.0   16.666666666666668
450.0   30.0   16.666666666666668
500.0   30.0   33.333333333333336
450.0   0.0   33.333333333333336
450.0   30.0   33.333333333333336
500.0   30.0   33.333333333333336
450.0   30.0   16.666666666666668
450.0   0.0   33.333333333333336
500.0   30.0   33.333333333333336
500.0   0.0   33.333333333333336
500.0   0.0   16.666666666666668
450.0   0.0   33.333333333333336
500.0   30.0   33.333333333333336
500.0   0.0   16.666666666666668
450.0   30.0   16.666666666666668
450.0   0.0   33.333333333333336
500.0   0.0   33.333333333333336
450.0   30.0   33.333333333333336
450.0   0.0   50.0
500.0   0.0   33.333333333333336
500.0   30.0   33.333333333333336
450.0   30.0   33.333333333333336
500.0   30.0   50.0
450.0   0.0   50.0
450.0   30.0   50.0
500.0   30.0   50.0
450.0   30.0   33.333333333333336
450.0   0.0   50.0
500.0   30.0   50.0
500.0   0.0   50.0
500.0   0.0   33.333333333333336
450.0   0.0   50.0
500.0   30.0   50.0
500.0   0.0   33.333333333333336
450.0   30.0   33.333333333333336
450.0   30.0   0.0
500.0   30.0   0.0
450.0   60.0   0.0
450.0   30.0   16.666666666666668
500.0   30.0   0.0
500.0   60.0   0.0
450.0   60.0   0.0
500.0   60.0   16.666666666666668
450.0   30.0   16.666666666666668
450.0   60.0   16.666666666666668
500.0   60.0   16.666666666666668
450.0   60.0   0.0
450.0   30.0   16.666666666666668
500.0   60.0   16.666666666666668
500.0   30.0   16.666666666666668
500.0   30.0   0.0
450.0   30.0   16.666666666666668
500.0   60.0   16.666666666666668
500.0   30.0   0.0
450.0   60.0   0.0
450.0   30.0   16.666666666666668
500.0   30.0   16.666666666666668
450.0   60.0   16.666666666666668
450.0   30.0   33.333333333333336
500.0   30.0   16.666666666666668
500.0   60.0   16.666666666666668
450.0   60.0   16.666666666666668
500.0   60.0   33.333333333333336
450.0   30.0   33.333333333333336
450.0   60.0   33.333333333333336
500.0   60.0   33.333333333333336
450.0   60.0   16.666666666666668
450.0   30.0   33.333333333333336
500.0   60.0   33.333333333333336
500.0   30.0   33.333333333333336
500.0   30.0   16.666666666666668
450.0   30.0   33.333333333333336
500.0   60.0   33.333333333333336
500.0   30.0   16.666666666666668
450.0   60.0   16.666666666666668
450.0   30.0   33.333333333333336
500.0   30.0   33.333333333333336
450.0   60.0   33.333333333333336
450.0   30.0   50.0
500.0   30.0   33.333333333333336
500.0   60.0   33.333333333333336
450.0   60.0   33.333333333333336
500.0   60.0   50.0
450.0   30.0   50.0
450.0   60.0   50.0
500.0   60.0   50.0
450.0   60.0   33.333333333333336
450.0   30.0   50.0
500.0   60.0   50.0
500.0   30.0   50.0
500.0   30.0   33.333333333333336
450.0   30.0   50.0
500.0   60.0   50.0
500.0   30.0   33.333333333333336
450.0   60.0   33.333333333333336
450.0   60.0   0.0
500.0   60.0   0.0
450.0   90.0   0.0
450.0   60.0   16.666666666666668
500.0   60.0   0.0
500.0   90.0   0.0
450.0   90.0   0.0
500.0   90.0   16.666666666666668
450.0   60.0   16.666666666666668
450.0   90.0   16.666666666666668
500.0   90.0   16.666666666666668
450.0   90.0   0.0
450.0   60.0   16.666666666666668
500.0   90.0   16.666666666666668
500.0   60.0   16.666666666666668
500.0   60.0   0.0
450.0   60.0   16.666666666666668
500.0   90.0   16.666666666666668
500.0   60.0   0.0
450.0   90.0   0.0
450.0   60.0   16.666666666666668
500.0   60.0   16.666666666666668
450.0   90.0   16.666666666666668
450.0   60.0   33.333333333333336
500.0   60.0   16.666666666666668
500.0   90.0   16.666666666666668
450.0   90.0   16.666666666666668
500.0   90.0   33.333333333333336
450.0   60.0   33.333333333333336
450.0   90.0   33.333333333333336
500.0   90.0   33.333333333333336
450.0   90.0   16.666666666666668
450.0   60.0   33.333333333333336
500.0   90.0   33.333333333333336
500.0   60.0   33.333333333333336
500.0   60.0   16.666666666666668
450.0   60.0   33.333333333333336
500.0   90.0   33.333333333333336
500.0   60.0   16.666666666666668
450.0   90.0   16.666666666666668
450.0   60.0   33.333333333333336
500.0   60.0   33.333333333333336
450.0   90.0   33.333333333333336
450.0   60.0   50.0
500.0   60.0   33.333333333333336
500.0   90.0   33.333333333333336
450.0   90.0   33.333333333333336
500.0   90.0   50.0
450.0   60.0   50.0
450.0   90.0   50.0
500.0   90.0   50.0
450.0   90.0   33.333333333333336
450.0   60.0   50.0
500.0   90.0   50.0
500.0   60.0   50.0
500.0   60.0   33.333333333333336
450.0   60.0   50.0
500.0   90.0   50.0
500.0   60.0   33.333333333333336
450.0   90.0   33.333333333333336
450.0   90.0   0.0
500.0   90.0   0.0
450.0   120.0   0.0
450.0   90.0   16.666666666666668
500.0   90.0   0.0
500.0   120.0   0.0
450.0   120.0   0.0
500.0   120.0   16.666666666666668
450.0   90.0   16.666666666666668
450.0   120.0   16.666666666666668
500.0   120.0   16.666666666666668
450.0   120.0   0.0
450.0   90.0   16.666666666666668
500.0   120.0   16.666666666666668
500.0   90.0   16.666666666666668
500.0   90.0   0.0
450.0   90.0   16.666666666666668
500.0   120.0   16.666666666666668
500.0   90.0   0.0
450.0   120.0   0.0
450.0   90.0   16.666666666666668
500.0   90.0   16.666666666666668
450.0   120.0   16.666666666666668
450.0   90.0   33.333333333333336
500.0   90.0   16.666666666666668
500.0   120.0   16.666666666666668
450.0   120.0   16.666666666666668
500.0   120.0   33.333333333333336
450.0   90.0   33.333333333333336
450.0   120.0   33.333333333333336
500.0   120.0   33.333333333333336
450.0   120.0   16.666666666666668
450.0   90.0   33.333333333333336
500.0   120.0   33.333333333333336
500.0   90.0   33.333333333333336
500.0   90.0   16.666666666666668
450.0   90.0   33.333333333333336
500.0   120.0   33.333333333333336
500.0   90.0   16.666666666666668
450.0   120.0   16.666666666666668
450.0   90.0   33.333333333333336
500.0   90.0   33.333333333333336
450.0   120.0   33.333333333333336
450.0   90.0   50.0
500.0   90.0   33.333333333333336
500.0   120.0   33.333333333333336
450.0   120.0   33.333333333333336
500.0   120.0   50.0
450.0   90.0   50.0
450.0   120.0   50.0
500.0   120.0   50.0
450.0   120.0   33.333333333333336
450.0   90.0   50.0
500.0   120.0   50.0
500.0   90.0   50.0
500.0   90.0   33.333333333333336
450.0   90.0   50.0
500.0   120.0   50.0
500.0   90.0   33.333333333333336
450.0   120.0   33.333333333333336
450.0   120.0   0.0
500.0   120.0   0.0
450.0   150.0   0.0
450.0   120.0   16.666666666666668
500.0   120.0   0.0
500.0   150.0   0.0
450.0   150.0   0.0
500.0   150.0   16.666666666666668
450.0   120.0   16.666666666666668
450.0   150.0   16.666666666666668
500.0   150.0   16.666666666666668
450.0   150.0   0.0
450.0   120.0   16.666666666666668
500.0   150.0   16.666666666666668
500.0   120.0   16.666666666666668
500.0   120.0   0.0
450.0   120.0   16.666666666666668
500.0   150.0   16.666666666666668
500.0   120.0   0.0
450.0   150.0   0.0
450.0   120.0   16.666666666666668
500.0   120.0   16.666666666666668
450.0   150.0   16.666666666666668
450.0   120.0   33.333333333333336
500.0   120.0   16.666666666666668
500.0   150.0   16.666666666666668
450.0   150.0   16.666666666666668
500.0   150.0   33.333333333333336
450.0   120.0   33.333333333333336
450.0   150.0   33.333333333333336
500.0   150.0   33.333333333333336
450.0   150.0   16.666666666666668
450.0   120.0   33.333333333333336
500.0   150.0   33.333333333333336
500.0   120.0   33.333333333333336
500.0   120.0   16.666666666666668
450.0   120.0   33.333333333333336
500.0   150.0   33.333333333333336
500.0   120.0   16.666666666666668
450.0   150.0   16.666666666666668
450.0   120.0   33.333333333333336
500.0   120.0   33.333333333333336
450.0   150.0   33.333333333333336
450.0   120.0   50.0
500.0   120.0   33.333333333333336
500.0   150.0   33.333333333333336
450.0   150.0   33.333333333333336
500.0   150.0   50.0
450.0   120.0   50.0
450.0   150.0   50.0
500.0   150.0   50.0
450.0   150.0   33.333333333333336
450.0   120.0   50.0
500.0   150.0   50.0
500.0   120.0   50.0
500.0   120.0   33.333333333333336
450.0   120.0   50.0
500.0   150.0   50.0
500.0   120.0   33.333333333333336
450.0   150.0   33.333333333333336
             </DataArray>   
          </Points>  
          <Cells>  
             <DataArray type="Int32" Name="connectivity" format="ascii">   
0   1   2   3
4   5   6   7
8   9   10   11
12   13   14   15
16   17   18   19
20   21   22   23
24   25   26   27
28   29   30   31
32   33   34   35
36   37   38   39
40   41   42   43
44   45   46   47
48   49   50   51
52   53   54   55
56   57   58   59
60   61   62   63
64   65   66   67
68   69   70   71
72   73   74   75
76   77   78   79
80   81   82   83
84   85   86   87
88   89   90   91
92   93   94   95
96   97   98   99
100   101   102   103
104   105   106   107
108   109   110   111
112   113   114   115
116   117   118   119
120   121   122   123
124   125   126   127
128   129   130   131
132   133   134   135
136   137   138   139
140   141   142   143
144   145   146   147
148   149   150   151
152   153   154   155
156   157   158   159
160   161   162   163
164   165   166   167
168   169   170   171
172   173   174   175
176   177   178   179
180   181   182   183
184   185   186   187
188   189   190   191
192   193   194   195
196   197   198   199
200   201   202   203
204   205   206   207
208   209   210   211
212   213   214   215
216   217   218   219
220   221   222   223
224   225   226   227
228   229   230   231
232   233   234   235
236   237   238   239
240   241   242   243
244   245   246   247
248   249   250   251
252   253   254   255
256   257   258   259
260   261   262   263
264   265   266   267
268   269   270   271
272   273   274   275
276   277   278   279
280   281   282   283
284   285   286   287
288   289   290   291
292   293   294   295
296   297   298   299
300   301   302   303
304   305   306   307
308   309   310   311
312   313   314   315
316   317   318   319
320   321   322   323
324   325   326   327
328   329   330   331
332   333   334   335
336   337   338   339
340   341   342   343
344   345   346   347
348   349   350   351
352   353   354   355
356   357   358   359
360   361   362   363
364   365   366   367
368   369   370   371
372   373   374   375
376   377   378   379
380   381   382   383
384   385   386   387
388   389   390   391
392   393   394   395
396   397   398   399
400   401   402   403
404   405   406   407
408   409   410   411
412   413   414   415
416   417   418   419
420   421   422   423
424   425   426   427
428   429   430   431
432   433   434   435
436   437   438   439
440   441   442   443
444   445   446   447
448   449   450   451
452   453   454   455
456   457   458   459
460   461   462   463
464   465   466   467
468   469   470   471
472   473   474   475
476   477   478   479
480   481   482   483
484   485   486   487
488   489   490   491
492   493   494   495
496   497   498   499
500   501   502   503
504   505   506   507
508   509   510   511
512   513   514   515
516   517   518   519
520   521   522   523
524   525   526   527
528   529   530   531
532   533   534   535
536   537   538   539
540   541   542   543
544   545   546   547
548   549   550   551
552   553   554   555
556   557   558   559
560   561   562   563
564   565   566   567
568   569   570   571
572   573   574   575
576   577   578   579
580   581   582   583
584   585   586   587
588   589   590   591
592   593   594   595
596   597   598   599
600   601   602   603
604   605   606   607
608   609   610   611
612   613   614   615
616   617   618   619
620   621   622   623
624   625   626   627
628   629   630   631
632   633   634   635
636   637   638   639
640   641   642   643
644   645   646   647
648   649   650   651
652   653   654   655
656   657   658   659
660   661   662   663
664   665   666   667
668   669   670   671
672   673   674   675
676   677   678   679
680   681   682   683
684   685   686   687
688   689   690   691
692   693   694   695
696   697   698   699
700   701   702   703
704   705   706   707
708   709   710   711
712   713   714   715
716   717   718   719
720   721   722   723
724   725   726   727
728   729   730   731
732   733   734   735
736   737   738   739
740   741   742   743
744   745   746   747
748   749   750   751
752   753   754   755
756   757   758   759
760   761   762   763
764   765   766   767
768   769   770   771
772   773   774   775
776   777   778   779
780   781   782   783
784   785   786   787
788   789   790   791
792   793   794   795
796   797   798   799
800   801   802   803
804   805   806   807
808   809   810   811
812   813   814   815
816   817   818   819
820   821   822   823
824   825   826   827
828   829   830   831
832   833   834   835
836   837   838   839
840   841   842   843
844   845   846   847
848   849   850   851
852   853   854   855
856   857   858   859
860   861   862   863
864   865   866   867
868   869   870   871
872   873   874   875
876   877   878   879
880   881   882   883
884   885   886   887
888   889   890   891
892   893   894   895
896   897   898   899
900   901   902   903
904   905   906   907
908   909   910   911
912   913   914   915
916   917   918   919
920   921   922   923
924   925   926   927
928   929   930   931
932   933   934   935
936   937   938   939
940   941   942   943
944   945   946   947
948   949   950   951
952   953   954   955
956   957   958   959
960   961   962   963
964   965   966   967
968   969   970   971
972   973   974   975
976   977   978   979
980   981   982   983
984   985   986   987
988   989   990   991
992   993   994   995
996   997   998   999
1000   1001   1002   1003
1004   1005   1006   1007
1008   1009   1010   1011
1012   1013   1014   1015
1016   1017   1018   1019
1020   1021   1022   1023
1024   1025   1026   1027
1028   1029   1030   1031
1032   1033   1034   1035
1036   1037   1038   1039
1040   1041   1042   1043
1044   1045   1046   1047
1048   1049   1050   1051
1052   1053   1054   1055
1056   1057   1058   1059
1060   1061   1062   1063
1064   1065   1066   1067
1068   1069   1070   1071
1072   1073   1074   1075
1076   1077   1078   1079
1080   1081   1082   1083
1084   1085   1086   1087
1088   1089   1090   1091
1092   1093   1094   1095
1096   1097   1098   1099
1100   1101   1102   1103
1104   1105   1106   1107
1108   1109   1110   1111
1112   1113   1114   1115
1116   1117   1118   1119
1120   1121   1122   1123
1124   1125   1126   1127
1128   1129   1130   1131
1132   1133   1134   1135
1136   1137   1138   1139
1140   1141   1142   1143
1144   1145   1146   1147
1148   1149   1150   1151
1152   1153   1154   1155
1156   1157   1158   1159
1160   1161   1162   1163
1164   1165   1166   1167
1168   1169   1170   1171
1172   1173   1174   1175
1176   1177   1178   1179
1180   1181   1182   1183
1184   1185   1186   1187
1188   1189   1190   1191
1192   1193   1194   1195
1196   1197   1198   1199
1200   1201   1202   1203
1204   1205   1206   1207
1208   1209   1210   1211
1212   1213   1214   1215
1216   1217   1218   1219
1220   1221   1222   1223
1224   1225   1226   1227
1228   1229   1230   1231
1232   1233   1234   1235
1236   1237   1238   1239
1240   1241   1242   1243
1244   1245   1246   1247
1248   1249   1250   1251
1252   1253   1254   1255
1256   1257   1258   1259
1260   1261   1262   1263
1264   1265   1266   1267
1268   1269   1270   1271
1272   1273   1274   1275
1276   1277   1278   1279
1280   1281   1282   1283
1284   1285   1286   1287
1288   1289   1290   1291
1292   1293   1294   1295
1296   1297   1298   1299
1300   1301   1302   1303
1304   1305   1306   1307
1308   1309   1310   1311
1312   1313   1314   1315
1316   1317   1318   1319
1320   1321   1322   1323
1324   1325   1326   1327
1328   1329   1330   1331
1332   1333   1334   1335
1336   1337   1338   1339
1340   1341   1342   1343
1344   1345   1346   1347
1348   1349   1350   1351
1352   1353   1354   1355
1356   1357   1358   1359
1360   1361   1362   1363
1364   1365   1366   1367
1368   1369   1370   1371
1372   1373   1374   1375
1376   1377   1378   1379
1380   1381   1382   1383
1384   1385   1386   1387
1388   1389   1390   1391
1392   1393   1394   1395
1396   1397   1398   1399
1400   1401   1402   1403
1404   1405   1406   1407
1408   1409   1410   1411
1412   1413   1414   1415
1416   1417   1418   1419
1420   1421   1422   1423
1424   1425   1426   1427
1428   1429   1430   1431
1432   1433   1434   1435
1436   1437   1438   1439
1440   1441   1442   1443
1444   1445   1446   1447
1448   1449   1450   1451
1452   1453   1454   1455
1456   1457   1458   1459
1460   1461   1462   1463
1464   1465   1466   1467
1468   1469   1470   1471
1472   1473   1474   1475
1476   1477   1478   1479
1480   1481   1482   1483
1484   1485   1486   1487
1488   1489   1490   1491
1492   1493   1494   1495
1496   1497   1498   1499
1500   1501   1502   1503
1504   1505   1506   1507
1508   1509   1510   1511
1512   1513   1514   1515
1516   1517   1518   1519
1520   1521   1522   1523
1524   1525   1526   1527
1528   1529   1530   1531
1532   1533   1534   1535
1536   1537   1538   1539
1540   1541   1542   1543
1544   1545   1546   1547
1548   1549   1550   1551
1552   1553   1554   1555
1556   1557   1558   1559
1560   1561   1562   1563
1564   1565   1566   1567
1568   1569   1570   1571
1572   1573   1574   1575
1576   1577   1578   1579
1580   1581   1582   1583
1584   1585   1586   1587
1588   1589   1590   1591
1592   1593   1594   1595
1596   1597   1598   1599
1600   1601   1602   1603
1604   1605   1606   1607
1608   1609   1610   1611
1612   1613   1614   1615
1616   1617   1618   1619
1620   1621   1622   1623
1624   1625   1626   1627
1628   1629   1630   1631
1632   1633   1634   1635
1636   1637   1638   1639
1640   1641   1642   1643
1644   1645   1646   1647
1648   1649   1650   1651
1652   1653   1654   1655
1656   1657   1658   1659
1660   1661   1662   1663
1664   1665   1666   1667
1668   1669   1670   1671
1672   1673   1674   1675
1676   1677   1678   1679
1680   1681   1682   1683
1684   1685   1686   1687
1688   1689   1690   1691
1692   1693   1694   1695
1696   1697   1698   1699
1700   1701   1702   1703
1704   1705   1706   1707
1708   1709   1710   1711
1712   1713   1714   1715
1716   1717   1718   1719
1720   1721   1722   1723
1724   1725   1726   1727
1728   1729   1730   1731
1732   1733   1734   1735
1736   1737   1738   1739
1740   1741   1742   1743
1744   1745   1746   1747
1748   1749   1750   1751
1752   1753   1754   1755
1756   1757   1758   1759
1760   1761   1762   1763
1764   1765   1766   1767
1768   1769   1770   1771
1772   1773   1774   1775
1776   1777   1778   1779
1780   1781   1782   1783
1784   1785   1786   1787
1788   1789   1790   1791
1792   1793   1794   1795
1796   1797   1798   1799
1800   1801   1802   1803
1804   1805   1806   1807
1808   1809   1810   1811
1812   1813   1814   1815
1816   1817   1818   1819
1820   1821   1822   1823
1824   1825   1826   1827
1828   1829   1830   1831
1832   1833   1834   1835
1836   1837   1838   1839
1840   1841   1842   1843
1844   1845   1846   1847
1848   1849   1850   1851
1852   1853   1854   1855
1856   1857   1858   1859
1860   1861   1862   1863
1864   1865   1866   1867
1868   1869   1870   1871
1872   1873   1874   1875
1876   1877   1878   1879
1880   1881   1882   1883
1884   1885   1886   1887
1888   1889   1890   1891
1892   1893   1894   1895
1896   1897   1898   1899
1900   1901   1902   1903
1904   1905   1906   1907
1908   1909   1910   1911
1912   1913   1914   1915
1916   1917   1918   1919
1920   1921   1922   1923
1924   1925   1926   1927
1928   1929   1930   1931
1932   1933   1934   1935
1936   1937   1938   1939
1940   1941   1942   1943
1944   1945   1946   1947
1948   1949   1950   1951
1952   1953   1954   1955
1956   1957   1958   1959
1960   1961   1962   1963
1964   1965   1966   1967
1968   1969   1970   1971
1972   1973   1974   1975
1976   1977   1978   1979
1980   1981   1982   1983
1984   1985   1986   1987
1988   1989   1990   1991
1992   1993   1994   1995
1996   1997   1998   1999
2000   2001   2002   2003
2004   2005   2006   2007
2008   2009   2010   2011
2012   2013   2014   2015
2016   2017   2018   2019
2020   2021   2022   2023
2024   2025   2026   2027
2028   2029   2030   2031
2032   2033   2034   2035
2036   2037   2038   2039
2040   2041   2042   2043
2044   2045   2046   2047
2048   2049   2050   2051
2052   2053   2054   2055
2056   2057   2058   2059
2060   2061   2062   2063
2064   2065   2066   2067
2068   2069   2070   2071
2072   2073   2074   2075
2076   2077   2078   2079
2080   2081   2082   2083
2084   2085   2086   2087
2088   2089   2090   2091
2092   2093   2094   2095
2096   2097   2098   2099
2100   2101   2102   2103
2104   2105   2106   2107
2108   2109   2110   2111
2112   2113   2114   2115
2116   2117   2118   2119
2120   2121   2122   2123
2124   2125   2126   2127
2128   2129   2130   2131
2132   2133   2134   2135
2136   2137   2138   2139
2140   2141   2142   2143
2144   2145   2146   2147
2148   2149   2150   2151
2152   2153   2154   2155
2156   2157   2158   2159
2160   2161   2162   2163
2164   2165   2166   2167
2168   2169   2170   2171
2172   2173   2174   2175
2176   2177   2178   2179
2180   2181   2182   2183
2184   2185   2186   2187
2188   2189   2190   2191
2192   2193   2194   2195
2196   2197   2198   2199
2200   2201   2202   2203
2204   2205   2206   2207
2208   2209   2210   2211
2212   2213   2214   2215
2216   2217   2218   2219
2220   2221   2222   2223
2224   2225   2226   2227
2228   2229   2230   2231
2232   2233   2234   2235
2236   2237   2238   2239
2240   2241   2242   2243
2244   2245   2246   2247
2248   2249   2250   2251
2252   2253   2254   2255
2256   2257   2258   2259
2260   2261   2262   2263
2264   2265   2266   2267
2268   2269   2270   2271
2272   2273   2274   2275
2276   2277   2278   2279
2280   2281   2282   2283
2284   2285   2286   2287
2288   2289   2290   2291
2292   2293   2294   2295
2296   2297   2298   2299
2300   2301   2302   2303
2304   2305   2306   2307
2308   2309   2310   2311
2312   2313   2314   2315
2316   2317   2318   2319
2320   2321   2322   2323
2324   2325   2326   2327
2328   2329   2330   2331
2332   2333   2334   2335
2336   2337   2338   2339
2340   2341   2342   2343
2344   2345   2346   2347
2348   2349   2350   2351
2352   2353   2354   2355
2356   2357   2358   2359
2360   2361   2362   2363
2364   2365   2366   2367
2368   2369   2370   2371
2372   2373   2374   2375
2376   2377   2378   2379
2380   2381   2382   2383
2384   2385   2386   2387
2388   2389   2390   2391
2392   2393   2394   2395
2396   2397   2398   2399
2400   2401   2402   2403
2404   2405   2406   2407
2408   2409   2410   2411
2412   2413   2414   2415
2416   2417   2418   2419
2420   2421   2422   2423
2424   2425   2426   2427
2428   2429   2430   2431
2432   2433   2434   2435
2436   2437   2438   2439
2440   2441   2442   2443
2444   2445   2446   2447
2448   2449   2450   2451
2452   2453   2454   2455
2456   2457   2458   2459
2460   2461   2462   2463
2464   2465   2466   2467
2468   2469   2470   2471
2472   2473   2474   2475
2476   2477   2478   2479
2480   2481   2482   2483
2484   2485   2486   2487
2488   2489   2490   2491
2492   2493   2494   2495
2496   2497   2498   2499
2500   2501   2502   2503
2504   2505   2506   2507
2508   2509   2510   2511
2512   2513   2514   2515
2516   2517   2518   2519
2520   2521   2522   2523
2524   2525   2526   2527
2528   2529   2530   2531
2532   2533   2534   2535
2536   2537   2538   2539
2540   2541   2542   2543
2544   2545   2546   2547
2548   2549   2550   2551
2552   2553   2554   2555
2556   2557   2558   2559
2560   2561   2562   2563
2564   2565   2566   2567
2568   2569   2570   2571
2572   2573   2574   2575
2576   2577   2578   2579
2580   2581   2582   2583
2584   2585   2586   2587
2588   2589   2590   2591
2592   2593   2594   2595
2596   2597   2598   2599
2600   2601   2602   2603
2604   2605   2606   2607
2608   2609   2610   2611
2612   2613   2614   2615
2616   2617   2618   2619
2620   2621   2622   2623
2624   2625   2626   2627
2628   2629   2630   2631
2632   2633   2634   2635
2636   2637   2638   2639
2640   2641   2642   2643
2644   2645   2646   2647
2648   2649   2650   2651
2652   2653   2654   2655
2656   2657   2658   2659
2660   2661   2662   2663
2664   2665   2666   2667
2668   2669   2670   2671
2672   2673   2674   2675
2676   2677   2678   2679
2680   2681   2682   2683
2684   2685   2686   2687
2688   2689   2690   2691
2692   2693   2694   2695
2696   2697   2698   2699
2700   2701   2702   2703
2704   2705   2706   2707
2708   2709   2710   2711
2712   2713   2714   2715
2716   2717   2718   2719
2720   2721   2722   2723
2724   2725   2726   2727
2728   2729   2730   2731
2732   2733   2734   2735
2736   2737   2738   2739
2740   2741   2742   2743
2744   2745   2746   2747
2748   2749   2750   2751
2752   2753   2754   2755
2756   2757   2758   2759
2760   2761   2762   2763
2764   2765   2766   2767
2768   2769   2770   2771
2772   2773   2774   2775
2776   2777   2778   2779
2780   2781   2782   2783
2784   2785   2786   2787
2788   2789   2790   2791
2792   2793   2794   2795
2796   2797   2798   2799
2800   2801   2802   2803
2804   2805   2806   2807
2808   2809   2810   2811
2812   2813   2814   2815
2816   2817   2818   2819
2820   2821   2822   2823
2824   2825   2826   2827
2828   2829   2830   2831
2832   2833   2834   2835
2836   2837   2838   2839
2840   2841   2842   2843
2844   2845   2846   2847
2848   2849   2850   2851
2852   2853   2854   2855
2856   2857   2858   2859
2860   2861   2862   2863
2864   2865   2866   2867
2868   2869   2870   2871
2872   2873   2874   2875
2876   2877   2878   2879
2880   2881   2882   2883
2884   2885   2886   2887
2888   2889   2890   2891
2892   2893   2894   2895
2896   2897   2898   2899
2900   2901   2902   2903
2904   2905   2906   2907
2908   2909   2910   2911
2912   2913   2914   2915
2916   2917   2918   2919
2920   2921   2922   2923
2924   2925   2926   2927
2928   2929   2930   2931
2932   2933   2934   2935
2936   2937   2938   2939
2940   2941   2942   2943
2944   2945   2946   2947
2948   2949   2950   2951
2952   2953   2954   2955
2956   2957   2958   2959
2960   2961   2962   2963
2964   2965   2966   2967
2968   2969   2970   2971
2972   2973   2974   2975
2976   2977   2978   2979
2980   2981   2982   2983
2984   2985   2986   2987
2988   2989   2990   2991
2992   2993   2994   2995
2996   2997   2998   2999
3000   3001   3002   3003
3004   3005   3006   3007
3008   3009   3010   3011
3012   3013   3014   3015
3016   3017   3018   3019
3020   3021   3022   3023
3024   3025   3026   3027
3028   3029   3030   3031
3032   3033   3034   3035
3036   3037   3038   3039
3040   3041   3042   3043
3044   3045   3046   3047
3048   3049   3050   3051
3052   3053   3054   3055
3056   3057   3058   3059
3060   3061   3062   3063
3064   3065   3066   3067
3068   3069   3070   3071
3072   3073   3074   3075
3076   3077   3078   3079
3080   3081   3082   3083
3084   3085   3086   3087
3088   3089   3090   3091
3092   3093   3094   3095
3096   3097   3098   3099
3100   3101   3102   3103
3104   3105   3106   3107
3108   3109   3110   3111
3112   3113   3114   3115
3116   3117   3118   3119
3120   3121   3122   3123
3124   3125   3126   3127
3128   3129   3130   3131
3132   3133   3134   3135
3136   3137   3138   3139
3140   3141   3142   3143
3144   3145   3146   3147
3148   3149   3150   3151
3152   3153   3154   3155
3156   3157   3158   3159
3160   3161   3162   3163
3164   3165   3166   3167
3168   3169   3170   3171
3172   3173   3174   3175
3176   3177   3178   3179
3180   3181   3182   3183
3184   3185   3186   3187
3188   3189   3190   3191
3192   3193   3194   3195
3196   3197   3198   3199
3200   3201   3202   3203
3204   3205   3206   3207
3208   3209   3210   3211
3212   3213   3214   3215
3216   3217   3218   3219
3220   3221   3222   3223
3224   3225   3226   3227
3228   3229   3230   3231
3232   3233   3234   3235
3236   3237   3238   3239
3240   3241   3242   3243
3244   3245   3246   3247
3248   3249   3250   3251
3252   3253   3254   3255
3256   3257   3258   3259
3260   3261   3262   3263
3264   3265   3266   3267
3268   3269   3270   3271
3272   3273   3274   3275
3276   3277   3278   3279
3280   3281   3282   3283
3284   3285   3286   3287
3288   3289   3290   3291
3292   3293   3294   3295
3296   3297   3298   3299
3300   3301   3302   3303
3304   3305   3306   3307
3308   3309   3310   3311
3312   3313   3314   3315
3316   3317   3318   3319
3320   3321   3322   3323
3324   3325   3326   3327
3328   3329   3330   3331
3332   3333   3334   3335
3336   3337   3338   3339
3340   3341   3342   3343
3344   3345   3346   3347
3348   3349   3350   3351
3352   3353   3354   3355
3356   3357   3358   3359
3360   3361   3362   3363
3364   3365   3366   3367
3368   3369   3370   3371
3372   3373   3374   3375
3376   3377   3378   3379
3380   3381   3382   3383
3384   3385   3386   3387
3388   3389   3390   3391
3392   3393   3394   3395
3396   3397   3398   3399
3400   3401   3402   3403
3404   3405   3406   3407
3408   3409   3410   3411
3412   3413   3414   3415
3416   3417   3418   3419
3420   3421   3422   3423
3424   3425   3426   3427
3428   3429   3430   3431
3432   3433   3434   3435
3436   3437   3438   3439
3440   3441   3442   3443
3444   3445   3446   3447
3448   3449   3450   3451
3452   3453   3454   3455
3456   3457   3458   3459
3460   3461   3462   3463
3464   3465   3466   3467
3468   3469   3470   3471
3472   3473   3474   3475
3476   3477   3478   3479
3480   3481   3482   3483
3484   3485   3486   3487
3488   3489   3490   3491
3492   3493   3494   3495
3496   3497   3498   3499
3500   3501   3502   3503
3504   3505   3506   3507
3508   3509   3510   3511
3512   3513   3514   3515
3516   3517   3518   3519
3520   3521   3522   3523
3524   3525   3526   3527
3528   3529   3530   3531
3532   3533   3534   3535
3536   3537   3538   3539
3540   3541   3542   3543
3544   3545   3546   3547
3548   3549   3550   3551
3552   3553   3554   3555
3556   3557   3558   3559
3560   3561   3562   3563
3564   3565   3566   3567
3568   3569   3570   3571
3572   3573   3574   3575
3576   3577   3578   3579
3580   3581   3582   3583
3584   3585   3586   3587
3588   3589   3590   3591
3592   3593   3594   3595
3596   3597   3598   3599
3600   3601   3602   3603
3604   3605   3606   3607
3608   3609   3610   3611
3612   3613   3614   3615
3616   3617   3618   3619
3620   3621   3622   3623
3624   3625   3626   3627
3628   3629   3630   3631
3632   3633   3634   3635
3636   3637   3638   3639
3640   3641   3642   3643
3644   3645   3646   3647
3648   3649   3650   3651
3652   3653   3654   3655
3656   3657   3658   3659
3660   3661   3662   3663
3664   3665   3666   3667
3668   3669   3670   3671
3672   3673   3674   3675
3676   3677   3678   3679
3680   3681   3682   3683
3684   3685   3686   3687
3688   3689   3690   3691
3692   3693   3694   3695
3696   3697   3698   3699
3700   3701   3702   3703
3704   3705   3706   3707
3708   3709   3710   3711
3712   3713   3714   3715
3716   3717   3718   3719
3720   3721   3722   3723
3724   3725   3726   3727
3728   3729   3730   3731
3732   3733   3734   3735
3736   3737   3738   3739
3740   3741   3742   3743
3744   3745   3746   3747
3748   3749   3750   3751
3752   3753   3754   3755
3756   3757   3758   3759
3760   3761   3762   3763
3764   3765   3766   3767
3768   3769   3770   3771
3772   3773   3774   3775
3776   3777   3778   3779
3780   3781   3782   3783
3784   3785   3786   3787
3788   3789   3790   3791
3792   3793   3794   3795
3796   3797   3798   3799
3800   3801   3802   3803
3804   3805   3806   3807
3808   3809   3810   3811
3812   3813   3814   3815
3816   3817   3818   3819
3820   3821   3822   3823
3824   3825   3826   3827
3828   3829   3830   3831
3832   3833   3834   3835
3836   3837   3838   3839
3840   3841   3842   3843
3844   3845   3846   3847
3848   3849   3850   3851
3852   3853   3854   3855
3856   3857   3858   3859
3860   3861   3862   3863
3864   3865   3866   3867
3868   3869   3870   3871
3872   3873   3874   3875
3876   3877   3878   3879
3880   3881   3882   3883
3884   3885   3886   3887
3888   3889   3890   3891
3892   3893   3894   3895
3896   3897   3898   3899
3900   3901   3902   3903
3904   3905   3906   3907
3908   3909   3910   3911
3912   3913   3914   3915
3916   3917   3918   3919
3920   3921   3922   3923
3924   3925   3926   3927
3928   3929   3930   3931
3932   3933   3934   3935
3936   3937   3938   3939
3940   3941   3942   3943
3944   3945   3946   3947
3948   3949   3950   3951
3952   3953   3954   3955
3956   3957   3958   3959
3960   3961   3962   3963
3964   3965   3966   3967
3968   3969   3970   3971
3972   3973   3974   3975
3976   3977   3978   3979
3980   3981   3982   3983
3984   3985   3986   3987
3988   3989   3990   3991
3992   3993   3994   3995
3996   3997   3998   3999
4000   4001   4002   4003
4004   4005   4006   4007
4008   4009   4010   4011
4012   4013   4014   4015
4016   4017   4018   4019
4020   4021   4022   4023
4024   4025   4026   4027
4028   4029   4030   4031
4032   4033   4034   4035
4036   4037   4038   4039
4040   4041   4042   4043
4044   4045   4046   4047
4048   4049   4050   4051
4052   4053   4054   4055
4056   4057   4058   4059
4060   4061   4062   4063
4064   4065   4066   4067
4068   4069   4070   4071
4072   4073   4074   4075
4076   4077   4078   4079
4080   4081   4082   4083
4084   4085   4086   4087
4088   4089   4090   4091
4092   4093   4094   4095
4096   4097   4098   4099
4100   4101   4102   4103
4104   4105   4106   4107
4108   4109   4110   4111
4112   4113   4114   4115
4116   4117   4118   4119
4120   4121   4122   4123
4124   4125   4126   4127
4128   4129   4130   4131
4132   4133   4134   4135
4136   4137   4138   4139
4140   4141   4142   4143
4144   4145   4146   4147
4148   4149   4150   4151
4152   4153   4154   4155
4156   4157   4158   4159
4160   4161   4162   4163
4164   4165   4166   4167
4168   4169   4170   4171
4172   4173   4174   4175
4176   4177   4178   4179
4180   4181   4182   4183
4184   4185   4186   4187
4188   4189   4190   4191
4192   4193   4194   4195
4196   4197   4198   4199
4200   4201   4202   4203
4204   4205   4206   4207
4208   4209   4210   4211
4212   4213   4214   4215
4216   4217   4218   4219
4220   4221   4222   4223
4224   4225   4226   4227
4228   4229   4230   4231
4232   4233   4234   4235
4236   4237   4238   4239
4240   4241   4242   4243
4244   4245   4246   4247
4248   4249   4250   4251
4252   4253   4254   4255
4256   4257   4258   4259
4260   4261   4262   4263
4264   4265   4266   4267
4268   4269   4270   4271
4272   4273   4274   4275
4276   4277   4278   4279
4280   4281   4282   4283
4284   4285   4286   4287
4288   4289   4290   4291
4292   4293   4294   4295
4296   4297   4298   4299
4300   4301   4302   4303
4304   4305   4306   4307
4308   4309   4310   4311
4312   4313   4314   4315
4316   4317   4318   4319
4320   4321   4322   4323
4324   4325   4326   4327
4328   4329   4330   4331
4332   4333   4334   4335
4336   4337   4338   4339
4340   4341   4342   4343
4344   4345   4346   4347
4348   4349   4350   4351
4352   4353   4354   4355
4356   4357   4358   4359
4360   4361   4362   4363
4364   4365   4366   4367
4368   4369   4370   4371
4372   4373   4374   4375
4376   4377   4378   4379
4380   4381   4382   4383
4384   4385   4386   4387
4388   4389   4390   4391
4392   4393   4394   4395
4396   4397   4398   4399
4400   4401   4402   4403
4404   4405   4406   4407
4408   4409   4410   4411
4412   4413   4414   4415
4416   4417   4418   4419
4420   4421   4422   4423
4424   4425   4426   4427
4428   4429   4430   4431
4432   4433   4434   4435
4436   4437   4438   4439
4440   4441   4442   4443
4444   4445   4446   4447
4448   4449   4450   4451
4452   4453   4454   4455
4456   4457   4458   4459
4460   4461   4462   4463
4464   4465   4466   4467
4468   4469   4470   4471
4472   4473   4474   4475
4476   4477   4478   4479
4480   4481   4482   4483
4484   4485   4486   4487
4488   4489   4490   4491
4492   4493   4494   4495
4496   4497   4498   4499
4500   4501   4502   4503
4504   4505   4506   4507
4508   4509   4510   4511
4512   4513   4514   4515
4516   4517   4518   4519
4520   4521   4522   4523
4524   4525   4526   4527
4528   4529   4530   4531
4532   4533   4534   4535
4536   4537   4538   4539
4540   4541   4542   4543
4544   4545   4546   4547
4548   4549   4550   4551
4552   4553   4554   4555
4556   4557   4558   4559
4560   4561   4562   4563
4564   4565   4566   4567
4568   4569   4570   4571
4572   4573   4574   4575
4576   4577   4578   4579
4580   4581   4582   4583
4584   4585   4586   4587
4588   4589   4590   4591
4592   4593   4594   4595
4596   4597   4598   4599
4600   4601   4602   4603
4604   4605   4606   4607
4608   4609   4610   4611
4612   4613   4614   4615
4616   4617   4618   4619
4620   4621   4622   4623
4624   4625   4626   4627
4628   4629   4630   4631
4632   4633   4634   4635
4636   4637   4638   4639
4640   4641   4642   4643
4644   4645   4646   4647
4648   4649   4650   4651
4652   4653   4654   4655
4656   4657   4658   4659
4660   4661   4662   4663
4664   4665   4666   4667
4668   4669   4670   4671
4672   4673   4674   4675
4676   4677   4678   4679
4680   4681   4682   4683
4684   4685   4686   4687
4688   4689   4690   4691
4692   4693   4694   4695
4696   4697   4698   4699
4700   4701   4702   4703
4704   4705   4706   4707
4708   4709   4710   4711
4712   4713   4714   4715
4716   4717   4718   4719
4720   4721   4722   4723
4724   4725   4726   4727
4728   4729   4730   4731
4732   4733   4734   4735
4736   4737   4738   4739
4740   4741   4742   4743
4744   4745   4746   4747
4748   4749   4750   4751
4752   4753   4754   4755
4756   4757   4758   4759
4760   4761   4762   4763
4764   4765   4766   4767
4768   4769   4770   4771
4772   4773   4774   4775
4776   4777   4778   4779
4780   4781   4782   4783
4784   4785   4786   4787
4788   4789   4790   4791
4792   4793   4794   4795
4796   4797   4798   4799
4800   4801   4802   4803
4804   4805   4806   4807
4808   4809   4810   4811
4812   4813   4814   4815
4816   4817   4818   4819
4820   4821   4822   4823
4824   4825   4826   4827
4828   4829   4830   4831
4832   4833   4834   4835
4836   4837   4838   4839
4840   4841   4842   4843
4844   4845   4846   4847
4848   4849   4850   4851
4852   4853   4854   4855
4856   4857   4858   4859
4860   4861   4862   4863
4864   4865   4866   4867
4868   4869   4870   4871
4872   4873   4874   4875
4876   4877   4878   4879
4880   4881   4882   4883
4884   4885   4886   4887
4888   4889   4890   4891
4892   4893   4894   4895
4896   4897   4898   4899
4900   4901   4902   4903
4904   4905   4906   4907
4908   4909   4910   4911
4912   4913   4914   4915
4916   4917   4918   4919
4920   4921   4922   4923
4924   4925   4926   4927
4928   4929   4930   4931
4932   4933   4934   4935
4936   4937   4938   4939
4940   4941   4942   4943
4944   4945   4946   4947
4948   4949   4950   4951
4952   4953   4954   4955
4956   4957   4958   4959
4960   4961   4962   4963
4964   4965   4966   4967
4968   4969   4970   4971
4972   4973   4974   4975
4976   4977   4978   4979
4980   4981   4982   4983
4984   4985   4986   4987
4988   4989   4990   4991
4992   4993   4994   4995
4996   4997   4998   4999
5000   5001   5002   5003
5004   5005   5006   5007
5008   5009   5010   5011
5012   5013   5014   5015
5016   5017   5018   5019
5020   5021   5022   5023
5024   5025   5026   5027
5028   5029   5030   5031
5032   5033   5034   5035
5036   5037   5038   5039
5040   5041   5042   5043
5044   5045   5046   5047
5048   5049   5050   5051
5052   5053   5054   5055
5056   5057   5058   5059
5060   5061   5062   5063
5064   5065   5066   5067
5068   5069   5070   5071
5072   5073   5074   5075
5076   5077   5078   5079
5080   5081   5082   5083
5084   5085   5086   5087
5088   5089   5090   5091
5092   5093   5094   5095
5096   5097   5098   5099
5100   5101   5102   5103
5104   5105   5106   5107
5108   5109   5110   5111
5112   5113   5114   5115
5116   5117   5118   5119
5120   5121   5122   5123
5124   5125   5126   5127
5128   5129   5130   5131
5132   5133   5134   5135
5136   5137   5138   5139
5140   5141   5142   5143
5144   5145   5146   5147
5148   5149   5150   5151
5152   5153   5154   5155
5156   5157   5158   5159
5160   5161   5162   5163
5164   5165   5166   5167
5168   5169   5170   5171
5172   5173   5174   5175
5176   5177   5178   5179
5180   5181   5182   5183
5184   5185   5186   5187
5188   5189   5190   5191
5192   5193   5194   5195
5196   5197   5198   5199
5200   5201   5202   5203
5204   5205   5206   5207
5208   5209   5210   5211
5212   5213   5214   5215
5216   5217   5218   5219
5220   5221   5222   5223
5224   5225   5226   5227
5228   5229   5230   5231
5232   5233   5234   5235
5236   5237   5238   5239
5240   5241   5242   5243
5244   5245   5246   5247
5248   5249   5250   5251
5252   5253   5254   5255
5256   5257   5258   5259
5260   5261   5262   5263
5264   5265   5266   5267
5268   5269   5270   5271
5272   5273   5274   5275
5276   5277   5278   5279
5280   5281   5282   5283
5284   5285   5286   5287
5288   5289   5290   5291
5292   5293   5294   5295
5296   5297   5298   5299
5300   5301   5302   5303
5304   5305   5306   5307
5308   5309   5310   5311
5312   5313   5314   5315
5316   5317   5318   5319
5320   5321   5322   5323
5324   5325   5326   5327
5328   5329   5330   5331
5332   5333   5334   5335
5336   5337   5338   5339
5340   5341   5342   5343
5344   5345   5346   5347
5348   5349   5350   5351
5352   5353   5354   5355
5356   5357   5358   5359
5360   5361   5362   5363
5364   5365   5366   5367
5368   5369   5370   5371
5372   5373   5374   5375
5376   5377   5378   5379
5380   5381   5382   5383
5384   5385   5386   5387
5388   5389   5390   5391
5392   5393   5394   5395
5396   5397   5398   5399
5400   5401   5402   5403
5404   5405   5406   5407
5408   5409   5410   5411
5412   5413   5414   5415
5416   5417   5418   5419
5420   5421   5422   5423
5424   5425   5426   5427
5428   5429   5430   5431
5432   5433   5434   5435
5436   5437   5438   5439
5440   5441   5442   5443
5444   5445   5446   5447
5448   5449   5450   5451
5452   5453   5454   5455
5456   5457   5458   5459
5460   5461   5462   5463
5464   5465   5466   5467
5468   5469   5470   5471
5472   5473   5474   5475
5476   5477   5478   5479
5480   5481   5482   5483
5484   5485   5486   5487
5488   5489   5490   5491
5492   5493   5494   5495
5496   5497   5498   5499
5500   5501   5502   5503
5504   5505   5506   5507
5508   5509   5510   5511
5512   5513   5514   5515
5516   5517   5518   5519
5520   5521   5522   5523
5524   5525   5526   5527
5528   5529   5530   5531
5532   5533   5534   5535
5536   5537   5538   5539
5540   5541   5542   5543
5544   5545   5546   5547
5548   5549   5550   5551
5552   5553   5554   5555
5556   5557   5558   5559
5560   5561   5562   5563
5564   5565   5566   5567
5568   5569   5570   5571
5572   5573   5574   5575
5576   5577   5578   5579
5580   5581   5582   5583
5584   5585   5586   5587
5588   5589   5590   5591
5592   5593   5594   5595
5596   5597   5598   5599
5600   5601   5602   5603
5604   5605   5606   5607
5608   5609   5610   5611
5612   5613   5614   5615
5616   5617   5618   5619
5620   5621   5622   5623
5624   5625   5626   5627
5628   5629   5630   5631
5632   5633   5634   5635
5636   5637   5638   5639
5640   5641   5642   5643
5644   5645   5646   5647
5648   5649   5650   5651
5652   5653   5654   5655
5656   5657   5658   5659
5660   5661   5662   5663
5664   5665   5666   5667
5668   5669   5670   5671
5672   5673   5674   5675
5676   5677   5678   5679
5680   5681   5682   5683
5684   5685   5686   5687
5688   5689   5690   5691
5692   5693   5694   5695
5696   5697   5698   5699
5700   5701   5702   5703
5704   5705   5706   5707
5708   5709   5710   5711
5712   5713   5714   5715
5716   5717   5718   5719
5720   5721   5722   5723
5724   5725   5726   5727
5728   5729   5730   5731
5732   5733   5734   5735
5736   5737   5738   5739
5740   5741   5742   5743
5744   5745   5746   5747
5748   5749   5750   5751
5752   5753   5754   5755
5756   5757   5758   5759
5760   5761   5762   5763
5764   5765   5766   5767
5768   5769   5770   5771
5772   5773   5774   5775
5776   5777   5778   5779
5780   5781   5782   5783
5784   5785   5786   5787
5788   5789   5790   5791
5792   5793   5794   5795
5796   5797   5798   5799
5800   5801   5802   5803
5804   5805   5806   5807
5808   5809   5810   5811
5812   5813   5814   5815
5816   5817   5818   5819
5820   5821   5822   5823
5824   5825   5826   5827
5828   5829   5830   5831
5832   5833   5834   5835
5836   5837   5838   5839
5840   5841   5842   5843
5844   5845   5846   5847
5848   5849   5850   5851
5852   5853   5854   5855
5856   5857   5858   5859
5860   5861   5862   5863
5864   5865   5866   5867
5868   5869   5870   5871
5872   5873   5874   5875
5876   5877   5878   5879
5880   5881   5882   5883
5884   5885   5886   5887
5888   5889   5890   5891
5892   5893   5894   5895
5896   5897   5898   5899
5900   5901   5902   5903
5904   5905   5906   5907
5908   5909   5910   5911
5912   5913   5914   5915
5916   5917   5918   5919
5920   5921   5922   5923
5924   5925   5926   5927
5928   5929   5930   5931
5932   5933   5934   5935
5936   5937   5938   5939
5940   5941   5942   5943
5944   5945   5946   5947
5948   5949   5950   5951
5952   5953   5954   5955
5956   5957   5958   5959
5960   5961   5962   5963
5964   5965   5966   5967
5968   5969   5970   5971
5972   5973   5974   5975
5976   5977   5978   5979
5980   5981   5982   5983
5984   5985   5986   5987
5988   5989   5990   5991
5992   5993   5994   5995
5996   5997   5998   5999
              </DataArray>   
              <DataArray type="Int32" Name="offsets" format="ascii">   
4
8
12
16
20
24
28
32
36
40
44
48
52
56
60
64
68
72
76
80
84
88
92
96
100
104
108
112
116
120
124
128
132
136
140
144
148
152
156
160
164
168
172
176
180
184
188
192
196
200
204
208
212
216
220
224
228
232
236
240
244
248
252
256
260
264
268
272
276
280
284
288
292
296
300
304
308
312
316
320
324
328
332
336
340
344
348
352
356
360
364
368
372
376
380
384
388
392
396
400
404
408
412
416
420
424
428
432
436
440
444
448
452
456
460
464
468
472
476
480
484
488
492
496
500
504
508
512
516
520
524
528
532
536
540
544
548
552
556
560
564
568
572
576
580
584
588
592
596
600
604
608
612
616
620
624
628
632
636
640
644
648
652
656
660
664
668
672
676
680
684
688
692
696
700
704
708
712
716
720
724
728
732
736
740
744
748
752
756
760
764
768
772
776
780
784
788
792
796
800
804
808
812
816
820
824
828
832
836
840
844
848
852
856
860
864
868
872
876
880
884
888
892
896
900
904
908
912
916
920
924
928
932
936
940
944
948
952
956
960
964
968
972
976
980
984
988
992
996
1000
1004
1008
1012
1016
1020
1024
1028
1032
1036
1040
1044
1048
1052
1056
1060
1064
1068
1072
1076
1080
1084
1088
1092
1096
1100
1104
1108
1112
1116
1120
1124
1128
1132
1136
1140
1144
1148
1152
1156
1160
1164
1168
1172
1176
1180
1184
1188
1192
1196
1200
1204
1208
1212
1216
1220
1224
1228
1232
1236
1240
1244
1248
1252
1256
1260
1264
1268
1272
1276
1280
1284
1288
1292
1296
1300
1304
1308
1312
1316
1320
1324
1328
1332
1336
1340
1344
1348
1352
1356
1360
1364
1368
1372
1376
1380
1384
1388
1392
1396
1400
1404
1408
1412
1416
1420
1424
1428
1432
1436
1440
1444
1448
1452
1456
1460
1464
1468
1472
1476
1480
1484
1488
1492
1496
1500
1504
1508
1512
1516
1520
1524
1528
1532
1536
1540
1544
1548
1552
1556
1560
1564
1568
1572
1576
1580
1584
1588
1592
1596
1600
1604
1608
1612
1616
1620
1624
1628
1632
1636
1640
1644
1648
1652
1656
1660
1664
1668
1672
1676
1680
1684
1688
1692
1696
1700
1704
1708
1712
1716
1720
1724
1728
1732
1736
1740
1744
1748
1752
1756
1760
1764
1768
1772
1776
1780
1784
1788
1792
1796
1800
1804
1808
1812
1816
1820
1824
1828
1832
1836
1840
1844
1848
1852
1856
1860
1864
1868
1872
1876
1880
1884
1888
1892
1896
1900
1904
1908
1912
1916
1920
1924
1928
1932
1936
1940
1944
1948
1952
1956
1960
1964
1968
1972
1976
1980
1984
1988
1992
1996
2000
2004
2008
2012
2016
2020
2024
2028
2032
2036
2040
2044
2048
2052
2056
2060
2064
2068
2072
2076
2080
2084
2088
2092
2096
2100
2104
2108
2112
2116
2120
2124
2128
2132
2136
2140
2144
2148
2152
2156
2160
2164
2168
2172
2176
2180
2184
2188
2192
2196
2200
2204
2208
2212
2216
2220
2224
2228
2232
2236
2240
2244
2248
2252
2256
2260
2264
2268
2272
2276
2280
2284
2288
2292
2296
2300
2304
2308
2312
2316
2320
2324
2328
2332
2336
2340
2344
2348
2352
2356
2360
2364
2368
2372
2376
2380
2384
2388
2392
2396
2400
2404
2408
2412
2416
2420
2424
2428
2432
2436
2440
2444
2448
2452
2456
2460
2464
2468
2472
2476
2480
2484
2488
2492
2496
2500
2504
2508
2512
2516
2520
2524
2528
2532
2536
2540
2544
2548
2552
2556
2560
2564
2568
2572
2576
2580
2584
2588
2592
2596
2600
2604
2608
2612
2616
2620
2624
2628
2632
2636
2640
2644
2648
2652
2656
2660
2664
2668
2672
2676
2680
2684
2688
2692
2696
2700
2704
2708
2712
2716
2720
2724
2728
2732
2736
2740
2744
2748
2752
2756
2760
2764
2768
2772
2776
2780
2784
2788
2792
2796
2800
2804
2808
2812
2816
2820
2824
2828
2832
2836
2840
2844
2848
2852
2856
2860
2864
2868
2872
2876
2880
2884
2888
2892
2896
2900
2904
2908
2912
2916
2920
2924
2928
2932
2936
2940
2944
2948
2952
2956
2960
2964
2968
2972
2976
2980
2984
2988
2992
2996
3000
3004
3008
3012
3016
3020
3024
3028
3032
3036
3040
3044
3048
3052
3056
3060
3064
3068
3072
3076
3080
3084
3088
3092
3096
3100
3104
3108
3112
3116
3120
3124
3128
3132
3136
3140
3144
3148
3152
3156
3160
3164
3168
3172
3176
3180
3184
3188
3192
3196
3200
3204
3208
3212
3216
3220
3224
3228
3232
3236
3240
3244
3248
3252
3256
3260
3264
3268
3272
3276
3280
3284
3288
3292
3296
3300
3304
3308
3312
3316
3320
3324
3328
3332
3336
3340
3344
3348
3352
3356
3360
3364
3368
3372
3376
3380
3384
3388
3392
3396
3400
3404
3408
3412
3416
3420
3424
3428
3432
3436
3440
3444
3448
3452
3456
3460
3464
3468
3472
3476
3480
3484
3488
3492
3496
3500
3504
3508
3512
3516
3520
3524
3528
3532
3536
3540
3544
3548
3552
3556
3560
3564
3568
3572
3576
3580
3584
3588
3592
3596
3600
3604
3608
3612
3616
3620
3624
3628
3632
3636
3640
3644
3648
3652
3656
3660
3664
3668
3672
3676
3680
3684
3688
3692
3696
3700
3704
3708
3712
3716
3720
3724
3728
3732
3736
3740
3744
3748
3752
3756
3760
3764
3768
3772
3776
3780
3784
3788
3792
3796
3800
3804
3808
3812
3816
3820
3824
3828
3832
3836
3840
3844
3848
3852
3856
3860
3864
3868
3872
3876
3880
3884
3888
3892
3896
3900
3904
3908
3912
3916
3920
3924
3928
3932
3936
3940
3944
3948
3952
3956
3960
3964
3968
3972
3976
3980
3984
3988
3992
3996
4000
4004
4008
4012
4016
4020
4024
4028
4032
4036
4040
4044
4048
4052
4056
4060
4064
4068
4072
4076
4080
4084
4088
4092
4096
4100
4104
4108
4112
4116
4120
4124
4128
4132
4136
4140
4144
4148
4152
4156
4160
4164
4168
4172
4176
4180
4184
4188
4192
4196
4200
4204
4208
4212
4216
4220
4224
4228
4232
4236
4240
4244
4248
4252
4256
4260
4264
4268
4272
4276
4280
4284
4288
4292
4296
4300
4304
4308
4312
4316
4320
4324
4328
4332
4336
4340
4344
4348
4352
4356
4360
4364
4368
4372
4376
4380
4384
4388
4392
4396
4400
4404
4408
4412
4416
4420
4424
4428
4432
4436
4440
4444
4448
4452
4456
4460
4464
4468
4472
4476
4480
4484
4488
4492
4496
4500
4504
4508
4512
4516
4520
4524
4528
4532
4536
4540
4544
4548
4552
4556
4560
4564
4568
4572
4576
4580
4584
4588
4592
4596
4600
4604
4608
4612
4616
4620
4624
4628
4632
4636
4640
4644
4648
4652
4656
4660
4664
4668
4672
4676
4680
4684
4688
4692
4696
4700
4704
4708
4712
4716
4720
4724
4728
4732
4736
4740
4744
4748
4752
4756
4760
4764
4768
4772
4776
4780
4784
4788
4792
4796
4800
4804
4808
4812
4816
4820
4824
4828
4832
4836
4840
4844
4848
4852
4856
4860
4864
4868
4872
4876
4880
4884
4888
4892
4896
4900
4904
4908
4912
4916
4920
4924
4928
4932
4936
4940
4944
4948
4952
4956
4960
4964
4968
4972
4976
4980
4984
4988
4992
4996
5000
5004
5008
5012
5016
5020
5024
5028
5032
5036
5040
5044
5048
5052
5056
5060
5064
5068
5072
5076
5080
5084
5088
5092
5096
5100
5104
5108
5112
5116
5120
5124
5128
5132
5136
5140
5144
5148
5152
5156
5160
5164
5168
5172
5176
5180
5184
5188
5192
5196
5200
5204
5208
5212
5216
5220
5224
5228
5232
5236
5240
5244
5248
5252
5256
5260
5264
5268
5272
5276
5280
5284
5288
5292
5296
5300
5304
5308
5312
5316
5320
5324
5328
5332
5336
5340
5344
5348
5352
5356
5360
5364
5368
5372
5376
5380
5384
5388
5392
5396
5400
5404
5408
5412
5416
5420
5424
5428
5432
5436
5440
5444
5448
5452
5456
5460
5464
5468
5472
5476
5480
5484
5488
5492
5496
5500
5504
5508
5512
5516
5520
5524
5528
5532
5536
5540
5544
5548
5552
5556
5560
5564
5568
5572
5576
5580
5584
5588
5592
5596
5600
5604
5608
5612
5616
5620
5624
5628
5632
5636
5640
5644
5648
5652
5656
5660
5664
5668
5672
5676
5680
5684
5688
5692
5696
5700
5704
5708
5712
5716
5720
5724
5728
5732
5736
5740
5744
5748
5752
5756
5760
5764
5768
5772
5776
5780
5784
5788
5792
5796
5800
5804
5808
5812
5816
5820
5824
5828
5832
5836
5840
5844
5848
5852
5856
5860
5864
5868
5872
5876
5880
5884
5888
5892
5896
5900
5904
5908
5912
5916
5920
5924
5928
5932
5936
5940
5944
5948
5952
5956
5960
5964
5968
5972
5976
5980
5984
5988
5992
5996
6000
              </DataArray>   
              <DataArray type="UInt8" Name="types" format="ascii">   
10
10
10
10
10
10
10
10
10
10
10
10
10
10
10
10
10
10
10
10
10
10
10
10
10
10
10
10
10
10
10
10
10
10
10
10
10
10
10
10
10
10
10
10
10
10
10
10
10
10
10
10
10
10
10
10
10
10
10
10
10
10
10
10
10
10
10
10
10
10
10
10
10
10
10
10
10
10
10
10
10
10
10
10
10
10
10
10
10
10
10
10
10
10
10
10
10
10
10
10
10
10
10
10
10
10
10
10
10
10
10
10
10
10
10
10
10
10
10
10
10
10
10
10
10
10
10
10
10
10
10
10
10
10
10
10
10
10
10
10
10
10
10
10
10
10
10
10
10
10
10
10
10
10
10
10
10
10
10
10
10
10
10
10
10
10
10
10
10
10
10
10
10
10
10
10
10
10
10
10
10
10
10
10
10
10
10
10
10
10
10
10
10
10
10
10
10
10
10
10
10
10
10
10
10
10
10
10
10
10
10
10
10
10
10
10
10
10
10
10
10
10
10
10
10
10
10
10
10
10
10
10
10
10
10
10
10
10
10
10
10
10
10
10
10
10
10
10
10
10
10
10
10
10
10
10
10
10
10
10
10
10
10
10
10
10
10
10
10
10
10
10
10
10
10
10
10
10
10
10
10
10
10
10
10
10
10
10
10
10
10
10
10
10
10
10
10
10
10
10
10
10
10
10
10
10
10
10
10
10
10
10
10
10
10
10
10
10
10
10
10
10
10
10
10
10
10
10
10
10
10
10
10
10
10
10
10
10
10
10
10
10
10
10
10
10
10
10
10
10
10
10
10
10
10
10
10
10
10
10
10
10
10
10
10
10
10
10
10
10
10
10
10
10
10
10
10
10
10
10
10
10
10
10
10
10
10
10
10
10
10
10
10
10
10
10
10
10
10
10
10
10
10
10
10
10
10
10
10
10
10
10
10
10
10
10
10
10
10
10
10
10
10
10
10
10
10
10
10
10
10
10
10
10
10
10
10
10
10
10
10
10
10
10
10
10
10
10
10
10
10
10
10
10
10
10
10
10
10
10
10
10
10
10
10
10
10
10
10
10
10
10
10
10
10
10
10
10
10
10
10
10
10
10
10
10
10
10
10
10
10
10
10
10
10
10
10
10
10
10
10
10
10
10
10
10
10
10
10
10
10
10
10
10
10
10
10
10
10
10
10
10
10
10
10
10
10
10
10
10
10
10
10
10
10
10
10
10
10
10
10
10
10
10
10
10
10
10
10
10
10
10
10
10
10
10
10
10
10
10
10
10
10
10
10
10
10
10
10
10
10
10
10
10
10
10
10
10
10
10
10
10
10
10
10
10
10
10
10
10
10
10
10
10
10
10
10
10
10
10
10
10
10
10
10
10
10
10
10
10
10
10
10
10
10
10
10
10
10
10
10
10
10
10
10
10
10
10
10
10
10
10
10
10
10
10
10
10
10
10
10
10
10
10
10
10
10
10
10
10
10
10
10
10
10
10
10
10
10
10
10
10
10
10
10
10
10
10
10
10
10
10
10
10
10
10
10
10
10
10
10
10
10
10
10
10
10
10
10
10
10
10
10
10
10
10
10
10
10
10
10
10
10
10
10
10
10
10
10
10
10
10
10
10
10
10
10
10
10
10
10
10
10
10
10
10
10
10
10
10
10
10
10
10
10
10
10
10
10
10
10
10
10
10
10
10
10
10
10
10
10
10
10
10
10
10
10
10
10
10
10
10
10
10
10
10
10
10
10
10
10
10
10
10
10
10
10
10
10
10
10
10
10
10
10
10
10
10
10
10
10
10
10
10
10
10
10
10
10
10
10
10
10
10
10
10
10
10
10
10
10
10
10
10
10
10
10
10
10
10
10
10
10
10
10
10
10
10
10
10
10
10
10
10
10
10
10
10
10
10
10
10
10
10
10
10
10
10
10
10
10
10
10
10
10
10
10
10
10
10
10
10
10
10
10
10
10
10
10
10
10
10
10
10
10
10
10
10
10
10
10
10
10
10
10
10
10
10
10
10
10
10
10
10
10
10
10
10
10
10
10
10
10
10
10
10
10
10
10
10
10
10
10
10
10
10
10
10
10
10
10
10
10
10
10
10
10
10
10
10
10
10
10
10
10
10
10
10
10
10
10
10
10
10
10
10
10
10
10
10
10
10
10
10
10
10
10
10
10
10
10
10
10
10
10
10
10
10
10
10
10
10
10
10
10
10
10
10
10
10
10
10
10
10
10
10
10
10
10
10
10
10
10
10
10
10
10
10
10
10
10
10
10
10
10
10
10
10
10
10
10
10
10
10
10
10
10
10
10
10
10
10
10
10
10
10
10
10
10
10
10
10
10
10
10
10
10
10
10
10
10
10
10
10
10
10
10
10
10
10
10
10
10
10
10
10
10
10
10
10
10
10
10
10
10
10
10
10
10
10
10
10
10
10
10
10
10
10
10
10
10
10
10
10
10
10
10
10
10
10
10
10
10
10
10
10
10
10
10
10
10
10
10
10
10
10
10
10
10
10
10
10
10
10
10
10
10
10
10
10
10
10
10
10
10
10
10
10
10
10
10
10
10
10
10
10
10
10
10
10
10
10
10
10
10
10
10
10
10
10
10
10
10
10
10
10
10
10
10
10
10
10
10
10
10
10
10
10
10
10
10
10
10
10
10
10
10
10
10
10
10
10
10
10
10
10
10
10
10
10
10
10
10
10
10
10
10
10
10
10
10
10
10
10
10
10
10
10
10
10
10
10
10
10
10
10
10
10
10
10
10
10
10
10
10
10
10
10
10
10
10
10
10
10
10
10
10
10
10
10
10
10
10
10
10
10
10
10
10
10
10
10
10
10
10
10
10
10
10
10
10
10
10
10
10
10
10
10
10
10
10
10
10
10
10
10
10
10
10
10
10
10
10
10
10
10
10
10
10
10
10
10
10
10
10
10
10
10
10
10
10
10
10
10
10
10
10
10
10
10
10
10
10
10
10
10
10
10
10
10
10
10
10
10
10
10
10
10
10
10
10
10
10
10
10
10
10
10
10
10
10
10
10
10
10
10
10
10
10
10
10
10
10
10
10
10
10
10
10
10
10
10
10
10
10
10
10
10
10
10
10
10
10
10
10
10
10
10
10
10
10
10
10
10
10
10
10
10
10
10
10
10
10
10
10
10
10
10
10
10
10
10
10
10
10
10
10
10
10
10
10
10
10
10
10
10
10
10
10
10
10
10
10
10
10
10
10
10
10
10
10
10
10
10
10
10
10
10
10
10
10
10
10
10
10
10
10
10
10
10
10
10
10
10
10
10
10
10
10
10
10
10
10
10
10
10
10
10
10
10
10
10
10
10
10
10
10
10
10
10
10
10
10
10
10
10
10
10
10
10
10
10
10
10
10
10
10
10
10
10
              </DataArray>   
          </Cells>  
          <PointData>  
             <DataArray type="Float64" NumberOfComponents="3" Name="Strains" format="ascii">   
-3.804594846542328e-05   0.0   -2.512614045984744e-05
-3.804594846542328e-05   0.0   -2.512614045984744e-05
-3.804594846542328e-05   0.0   -2.512614045984744e-05
-3.804594846542328e-05   0.0   -2.512614045984744e-05
-2.4193891593193993e-05   4.1939932969488415e-06   4.770169720372965e-07
-2.4193891593193993e-05   4.1939932969488415e-06   4.770169720372965e-07
-2.4193891593193993e-05   4.1939932969488415e-06   4.770169720372965e-07
-2.4193891593193993e-05   4.1939932969488415e-06   4.770169720372965e-07
-2.370477280360002e-05   0.0   -2.373473355581596e-05
-2.370477280360002e-05   0.0   -2.373473355581596e-05
-2.370477280360002e-05   0.0   -2.373473355581596e-05
-2.370477280360002e-05   0.0   -2.373473355581596e-05
-3.9803725816603534e-05   5.042914426638858e-06   7.110614320669805e-08
-3.9803725816603534e-05   5.042914426638858e-06   7.110614320669805e-08
-3.9803725816603534e-05   5.042914426638858e-06   7.110614320669805e-08
-3.9803725816603534e-05   5.042914426638858e-06   7.110614320669805e-08
-3.087536063451159e-05   1.1595057533595618e-06   -1.2479457289645617e-05
-3.087536063451159e-05   1.1595057533595618e-06   -1.2479457289645617e-05
-3.087536063451159e-05   1.1595057533595618e-06   -1.2479457289645617e-05
-3.087536063451159e-05   1.1595057533595618e-06   -1.2479457289645617e-05
-3.98037258166036e-05   0.0   -2.6760482211799284e-05
-3.98037258166036e-05   0.0   -2.6760482211799284e-05
-3.98037258166036e-05   0.0   -2.6760482211799284e-05
-3.98037258166036e-05   0.0   -2.6760482211799284e-05
-2.370477280360002e-05   5.042914426638871e-06   3.096854799190014e-06
-2.370477280360002e-05   5.042914426638871e-06   3.096854799190014e-06
-2.370477280360002e-05   5.042914426638871e-06   3.096854799190014e-06
-2.370477280360002e-05   5.042914426638871e-06   3.096854799190014e-06
-2.376011706158811e-05   0.0   -2.4312579089179102e-05
-2.376011706158811e-05   0.0   -2.4312579089179102e-05
-2.376011706158811e-05   0.0   -2.4312579089179102e-05
-2.376011706158811e-05   0.0   -2.4312579089179102e-05
-4.103291281029419e-05   5.405421547778604e-06   1.2321608966639843e-06
-4.103291281029419e-05   5.405421547778604e-06   1.2321608966639843e-06
-4.103291281029419e-05   5.405421547778604e-06   1.2321608966639843e-06
-4.103291281029419e-05   5.405421547778604e-06   1.2321608966639843e-06
-3.17819214390958e-05   2.0399192688501472e-06   -1.2166856687976247e-05
-3.17819214390958e-05   2.0399192688501472e-06   -1.2166856687976247e-05
-3.17819214390958e-05   2.0399192688501472e-06   -1.2166856687976247e-05
-3.17819214390958e-05   2.0399192688501472e-06   -1.2166856687976247e-05
-4.103291281029426e-05   0.0   -2.755583201784627e-05
-4.103291281029426e-05   0.0   -2.755583201784627e-05
-4.103291281029426e-05   0.0   -2.755583201784627e-05
-4.103291281029426e-05   0.0   -2.755583201784627e-05
-2.3760117061588067e-05   5.405421547778604e-06   4.475413825331147e-06
-2.3760117061588067e-05   5.405421547778604e-06   4.475413825331147e-06
-2.3760117061588067e-05   5.405421547778604e-06   4.475413825331147e-06
-2.3760117061588067e-05   5.405421547778604e-06   4.475413825331147e-06
-2.3734656170004626e-05   0.0   -2.4462876940900183e-05
-2.3734656170004626e-05   0.0   -2.4462876940900183e-05
-2.3734656170004626e-05   0.0   -2.4462876940900183e-05
-2.3734656170004626e-05   0.0   -2.4462876940900183e-05
-4.369234006006294e-05   6.166310537511072e-06   5.100143220023801e-06
-4.369234006006294e-05   6.166310537511072e-06   5.100143220023801e-06
-4.369234006006294e-05   6.166310537511072e-06   5.100143220023801e-06
-4.369234006006294e-05   6.166310537511072e-06   5.100143220023801e-06
-3.238378449014939e-05   2.577462564121737e-06   -1.1594140612465171e-05
-3.238378449014939e-05   2.577462564121737e-06   -1.1594140612465171e-05
-3.238378449014939e-05   2.577462564121737e-06   -1.1594140612465171e-05
-3.238378449014939e-05   2.577462564121737e-06   -1.1594140612465171e-05
-2.4193891593194037e-05   0.0   -2.260974448167813e-05
-2.4193891593194037e-05   0.0   -2.260974448167813e-05
-2.4193891593194037e-05   0.0   -2.260974448167813e-05
-2.4193891593194037e-05   0.0   -2.260974448167813e-05
-1.1031336526617321e-05   1.5341847438443706e-06   2.4835814225633167e-07
-1.1031336526617321e-05   1.5341847438443706e-06   2.4835814225633167e-07
-1.1031336526617321e-05   1.5341847438443706e-06   2.4835814225633167e-07
-1.1031336526617321e-05   1.5341847438443706e-06   2.4835814225633167e-07
-1.0598567858864475e-05   0.0   -2.242010629487677e-05
-1.0598567858864475e-05   0.0   -2.242010629487677e-05
-1.0598567858864475e-05   0.0   -2.242010629487677e-05
-1.0598567858864475e-05   0.0   -2.242010629487677e-05
-2.370477280360002e-05   2.191045434898587e-06   -1.8910586479234243e-06
-2.370477280360002e-05   2.191045434898587e-06   -1.8910586479234243e-06
-2.370477280360002e-05   2.191045434898587e-06   -1.8910586479234243e-06
-2.370477280360002e-05   2.191045434898587e-06   -1.8910586479234243e-06
-1.7396229726029233e-05   1.5803182233443448e-07   -1.1185488943002824e-05
-1.7396229726029233e-05   1.5803182233443448e-07   -1.1185488943002824e-05
-1.7396229726029233e-05   1.5803182233443448e-07   -1.1185488943002824e-05
-1.7396229726029233e-05   1.5803182233443448e-07   -1.1185488943002824e-05
-2.37047728036e-05   0.0   -2.373473355581594e-05
-2.37047728036e-05   0.0   -2.373473355581594e-05
-2.37047728036e-05   0.0   -2.373473355581594e-05
-2.37047728036e-05   0.0   -2.373473355581594e-05
-1.0598567858864475e-05   2.191045434898587e-06   -5.764313869842661e-07
-1.0598567858864475e-05   2.191045434898587e-06   -5.764313869842661e-07
-1.0598567858864475e-05   2.191045434898587e-06   -5.764313869842661e-07
-1.0598567858864475e-05   2.191045434898587e-06   -5.764313869842661e-07
-1.0350807716188883e-05   0.0   -2.2699159367695876e-05
-1.0350807716188883e-05   0.0   -2.2699159367695876e-05
-1.0350807716188883e-05   0.0   -2.2699159367695876e-05
-1.0350807716188883e-05   0.0   -2.2699159367695876e-05
-2.376011706158811e-05   2.6890328691386454e-06   -1.9637301801804266e-06
-2.376011706158811e-05   2.6890328691386454e-06   -1.9637301801804266e-06
-2.376011706158811e-05   2.6890328691386454e-06   -1.9637301801804266e-06
-2.376011706158811e-05   2.6890328691386454e-06   -1.9637301801804266e-06
-1.7027790259894424e-05   8.629784901000377e-07   -1.2088642222246639e-05
-1.7027790259894424e-05   8.629784901000377e-07   -1.2088642222246639e-05
-1.7027790259894424e-05   8.629784901000377e-07   -1.2088642222246639e-05
-1.7027790259894424e-05   8.629784901000377e-07   -1.2088642222246639e-05
-2.376011706158811e-05   0.0   -2.4312579089179102e-05
-2.376011706158811e-05   0.0   -2.4312579089179102e-05
-2.376011706158811e-05   0.0   -2.4312579089179102e-05
-2.376011706158811e-05   0.0   -2.4312579089179102e-05
-1.0350807716188902e-05   2.6890328691386454e-06   -3.503104586972414e-07
-1.0350807716188902e-05   2.6890328691386454e-06   -3.503104586972414e-07
-1.0350807716188902e-05   2.6890328691386454e-06   -3.503104586972414e-07
-1.0350807716188902e-05   2.6890328691386454e-06   -3.503104586972414e-07
-1.0123301742569824e-05   0.0   -2.2583837067843504e-05
-1.0123301742569824e-05   0.0   -2.2583837067843504e-05
-1.0123301742569824e-05   0.0   -2.2583837067843504e-05
-1.0123301742569824e-05   0.0   -2.2583837067843504e-05
-2.3734656170004606e-05   3.131733121761094e-06   -1.7772862285088376e-06
-2.3734656170004606e-05   3.131733121761094e-06   -1.7772862285088376e-06
-2.3734656170004606e-05   3.131733121761094e-06   -1.7772862285088376e-06
-2.3734656170004606e-05   3.131733121761094e-06   -1.7772862285088376e-06
-1.694170940207896e-05   1.4406183511129853e-06   -1.2084195312662727e-05
-1.694170940207896e-05   1.4406183511129853e-06   -1.2084195312662727e-05
-1.694170940207896e-05   1.4406183511129853e-06   -1.2084195312662727e-05
-1.694170940207896e-05   1.4406183511129853e-06   -1.2084195312662727e-05
-1.103133652661734e-05   0.0   -2.1689233635371512e-05
-1.103133652661734e-05   0.0   -2.1689233635371512e-05
-1.103133652661734e-05   0.0   -2.1689233635371512e-05
-1.103133652661734e-05   0.0   -2.1689233635371512e-05
1.3949707477907024e-06   -1.9956753938014569e-07   -1.0984620349861707e-06
1.3949707477907024e-06   -1.9956753938014569e-07   -1.0984620349861707e-06
1.3949707477907024e-06   -1.9956753938014569e-07   -1.0984620349861707e-06
1.3949707477907024e-06   -1.9956753938014569e-07   -1.0984620349861707e-06
1.6765405963477878e-06   0.0   -2.218624733319363e-05
1.6765405963477878e-06   0.0   -2.218624733319363e-05
1.6765405963477878e-06   0.0   -2.218624733319363e-05
1.6765405963477878e-06   0.0   -2.218624733319363e-05
-1.0598567858864475e-05   3.897649361384983e-07   -1.9615922028563303e-06
-1.0598567858864475e-05   3.897649361384983e-07   -1.9615922028563303e-06
-1.0598567858864475e-05   3.897649361384983e-07   -1.9615922028563303e-06
-1.0598567858864475e-05   3.897649361384983e-07   -1.9615922028563303e-06
-4.677397965134765e-06   -4.141780815184983e-07   -1.1347842881811637e-05
-4.677397965134765e-06   -4.141780815184983e-07   -1.1347842881811637e-05
-4.677397965134765e-06   -4.141780815184983e-07   -1.1347842881811637e-05
-4.677397965134765e-06   -4.141780815184983e-07   -1.1347842881811637e-05
-1.0598567858864493e-05   0.0   -2.242010629487681e-05
-1.0598567858864493e-05   0.0   -2.242010629487681e-05
-1.0598567858864493e-05   0.0   -2.242010629487681e-05
-1.0598567858864493e-05   0.0   -2.242010629487681e-05
1.6765405963477907e-06   3.897649361384983e-07   -1.7277332411732324e-06
1.6765405963477907e-06   3.897649361384983e-07   -1.7277332411732324e-06
1.6765405963477907e-06   3.897649361384983e-07   -1.7277332411732324e-06
1.6765405963477907e-06   3.897649361384983e-07   -1.7277332411732324e-06
1.9002943516377711e-06   0.0   -2.2153622868981523e-05
1.9002943516377711e-06   0.0   -2.2153622868981523e-05
1.9002943516377711e-06   0.0   -2.2153622868981523e-05
1.9002943516377711e-06   0.0   -2.2153622868981523e-05
-1.0350807716188864e-05   9.092274978572573e-07   -2.2806559213181232e-06
-1.0350807716188864e-05   9.092274978572573e-07   -2.2806559213181232e-06
-1.0350807716188864e-05   9.092274978572573e-07   -2.2806559213181232e-06
-1.0350807716188864e-05   9.092274978572573e-07   -2.2806559213181232e-06
-4.349136753613352e-06   2.220695215793729e-07   -1.1871146073177267e-05
-4.349136753613352e-06   2.220695215793729e-07   -1.1871146073177267e-05
-4.349136753613352e-06   2.220695215793729e-07   -1.1871146073177267e-05
-4.349136753613352e-06   2.220695215793729e-07   -1.1871146073177267e-05
-1.0350807716188902e-05   0.0   -2.2699159367695917e-05
-1.0350807716188902e-05   0.0   -2.2699159367695917e-05
-1.0350807716188902e-05   0.0   -2.2699159367695917e-05
-1.0350807716188902e-05   0.0   -2.2699159367695917e-05
1.9002943516377743e-06   9.092274978572573e-07   -1.735119422603772e-06
1.9002943516377743e-06   9.092274978572573e-07   -1.735119422603772e-06
1.9002943516377743e-06   9.092274978572573e-07   -1.735119422603772e-06
1.9002943516377743e-06   9.092274978572573e-07   -1.735119422603772e-06
2.197536148057841e-06   0.0   -2.1677709060049143e-05
2.197536148057841e-06   0.0   -2.1677709060049143e-05
2.197536148057841e-06   0.0   -2.1677709060049143e-05
2.197536148057841e-06   0.0   -2.1677709060049143e-05
-1.0123301742569815e-05   1.5102133463238947e-06   -2.0491072501307262e-06
-1.0123301742569815e-05   1.5102133463238947e-06   -2.0491072501307262e-06
-1.0123301742569815e-05   1.5102133463238947e-06   -2.0491072501307262e-06
-1.0123301742569815e-05   1.5102133463238947e-06   -2.0491072501307262e-06
-4.076635784065521e-06   8.512085897056133e-07   -1.1731480993666898e-05
-4.076635784065521e-06   8.512085897056133e-07   -1.1731480993666898e-05
-4.076635784065521e-06   8.512085897056133e-07   -1.1731480993666898e-05
-4.076635784065521e-06   8.512085897056133e-07   -1.1731480993666898e-05
1.394970747790705e-06   0.0   -2.1808974158999597e-05
1.394970747790705e-06   0.0   -2.1808974158999597e-05
1.394970747790705e-06   0.0   -2.1808974158999597e-05
1.394970747790705e-06   0.0   -2.1808974158999597e-05
1.489332948192034e-05   -1.7468960589475885e-06   -3.598472374854071e-07
1.489332948192034e-05   -1.7468960589475885e-06   -3.598472374854071e-07
1.489332948192034e-05   -1.7468960589475885e-06   -3.598472374854071e-07
1.489332948192034e-05   -1.7468960589475885e-06   -3.598472374854071e-07
1.4934040206122917e-05   0.0   -2.297445824724919e-05
1.4934040206122917e-05   0.0   -2.297445824724919e-05
1.4934040206122917e-05   0.0   -2.297445824724919e-05
1.4934040206122917e-05   0.0   -2.297445824724919e-05
1.6765405963477935e-06   -1.313684856759132e-06   -9.041465023516981e-08
1.6765405963477935e-06   -1.313684856759132e-06   -9.041465023516981e-08
1.6765405963477935e-06   -1.313684856759132e-06   -9.041465023516981e-08
1.6765405963477935e-06   -1.313684856759132e-06   -9.041465023516981e-08
8.16450547695681e-06   -9.712367402079915e-07   -1.1109158321180874e-05
8.16450547695681e-06   -9.712367402079915e-07   -1.1109158321180874e-05
8.16450547695681e-06   -9.712367402079915e-07   -1.1109158321180874e-05
8.16450547695681e-06   -9.712367402079915e-07   -1.1109158321180874e-05
1.6765405963477935e-06   0.0   -2.2186247333193708e-05
1.6765405963477935e-06   0.0   -2.2186247333193708e-05
1.6765405963477935e-06   0.0   -2.2186247333193708e-05
1.6765405963477935e-06   0.0   -2.2186247333193708e-05
1.4934040206122917e-05   -1.313684856759132e-06   -8.786255642906495e-07
1.4934040206122917e-05   -1.313684856759132e-06   -8.786255642906495e-07
1.4934040206122917e-05   -1.313684856759132e-06   -8.786255642906495e-07
1.4934040206122917e-05   -1.313684856759132e-06   -8.786255642906495e-07
1.4882341193302038e-05   0.0   -2.2646493588349846e-05
1.4882341193302038e-05   0.0   -2.2646493588349846e-05
1.4882341193302038e-05   0.0   -2.2646493588349846e-05
1.4882341193302038e-05   0.0   -2.2646493588349846e-05
1.9002943516377743e-06   -8.214511989471394e-07   -5.168781328744581e-07
1.9002943516377743e-06   -8.214511989471394e-07   -5.168781328744581e-07
1.9002943516377743e-06   -8.214511989471394e-07   -5.168781328744581e-07
1.9002943516377743e-06   -8.214511989471394e-07   -5.168781328744581e-07
8.279440894824916e-06   -3.8353854596344934e-07   -1.1411536629976566e-05
8.279440894824916e-06   -3.8353854596344934e-07   -1.1411536629976566e-05
8.279440894824916e-06   -3.8353854596344934e-07   -1.1411536629976566e-05
8.279440894824916e-06   -3.8353854596344934e-07   -1.1411536629976566e-05
1.9002943516377728e-06   0.0   -2.2153622868981544e-05
1.9002943516377728e-06   0.0   -2.2153622868981544e-05
1.9002943516377728e-06   0.0   -2.2153622868981544e-05
1.9002943516377728e-06   0.0   -2.2153622868981544e-05
1.4882341193302038e-05   -8.214511989471394e-07   -1.0097488522427414e-06
1.4882341193302038e-05   -8.214511989471394e-07   -1.0097488522427414e-06
1.4882341193302038e-05   -8.214511989471394e-07   -1.0097488522427414e-06
1.4882341193302038e-05   -8.214511989471394e-07   -1.0097488522427414e-06
1.5182348856751204e-05   0.0   -2.1774156812795803e-05
1.5182348856751204e-05   0.0   -2.1774156812795803e-05
1.5182348856751204e-05   0.0   -2.1774156812795803e-05
1.5182348856751204e-05   0.0   -2.1774156812795803e-05
2.1975361480578447e-06   -1.6074625457770302e-07   -3.63545455602521e-08
2.1975361480578447e-06   -1.6074625457770302e-07   -3.63545455602521e-08
2.1975361480578447e-06   -1.6074625457770302e-07   -3.63545455602521e-08
2.1975361480578447e-06   -1.6074625457770302e-07   -3.63545455602521e-08
8.541321604194483e-06   3.1622171348813315e-07   -1.0895511086627475e-05
8.541321604194483e-06   3.1622171348813315e-07   -1.0895511086627475e-05
8.541321604194483e-06   3.1622171348813315e-07   -1.0895511086627475e-05
8.541321604194483e-06   3.1622171348813315e-07   -1.0895511086627475e-05
1.489332948192034e-05   0.0   -2.2857111794368147e-05
1.489332948192034e-05   0.0   -2.2857111794368147e-05
1.489332948192034e-05   0.0   -2.2857111794368147e-05
1.489332948192034e-05   0.0   -2.2857111794368147e-05
3.369904635580637e-05   -4.437945085597169e-06   5.822982610750449e-06
3.369904635580637e-05   -4.437945085597169e-06   5.822982610750449e-06
3.369904635580637e-05   -4.437945085597169e-06   5.822982610750449e-06
3.369904635580637e-05   -4.437945085597169e-06   5.822982610750449e-06
3.166732381246516e-05   0.0   -2.5235540413053992e-05
3.166732381246516e-05   0.0   -2.5235540413053992e-05
3.166732381246516e-05   0.0   -2.5235540413053992e-05
3.166732381246516e-05   0.0   -2.5235540413053992e-05
1.4934040206122917e-05   -3.7684702763413354e-06   4.914347763321199e-06
1.4934040206122917e-05   -3.7684702763413354e-06   4.914347763321199e-06
1.4934040206122917e-05   -3.7684702763413354e-06   4.914347763321199e-06
1.4934040206122917e-05   -3.7684702763413354e-06   4.914347763321199e-06
2.3280326647192748e-05   -1.9820238489048717e-06   -1.0067997494923712e-05
2.3280326647192748e-05   -1.9820238489048717e-06   -1.0067997494923712e-05
2.3280326647192748e-05   -1.9820238489048717e-06   -1.0067997494923712e-05
2.3280326647192748e-05   -1.9820238489048717e-06   -1.0067997494923712e-05
1.4934040206122905e-05   0.0   -2.2974458247249168e-05
1.4934040206122905e-05   0.0   -2.2974458247249168e-05
1.4934040206122905e-05   0.0   -2.2974458247249168e-05
1.4934040206122905e-05   0.0   -2.2974458247249168e-05
3.166732381246505e-05   -3.7684702763413286e-06   2.6532655975163887e-06
3.166732381246505e-05   -3.7684702763413286e-06   2.6532655975163887e-06
3.166732381246505e-05   -3.7684702763413286e-06   2.6532655975163887e-06
3.166732381246505e-05   -3.7684702763413286e-06   2.6532655975163887e-06
3.073595362255006e-05   0.0   -2.471101412605851e-05
3.073595362255006e-05   0.0   -2.471101412605851e-05
3.073595362255006e-05   0.0   -2.471101412605851e-05
3.073595362255006e-05   0.0   -2.471101412605851e-05
1.4882341193302038e-05   -3.440867562847775e-06   3.776193793730184e-06
1.4882341193302038e-05   -3.440867562847775e-06   3.776193793730184e-06
1.4882341193302038e-05   -3.440867562847775e-06   3.776193793730184e-06
1.4882341193302038e-05   -3.440867562847775e-06   3.776193793730184e-06
2.2834996914336477e-05   -1.447129899007771e-06   -1.0674475006297879e-05
2.2834996914336477e-05   -1.447129899007771e-06   -1.0674475006297879e-05
2.2834996914336477e-05   -1.447129899007771e-06   -1.0674475006297879e-05
2.2834996914336477e-05   -1.447129899007771e-06   -1.0674475006297879e-05
1.4882341193302038e-05   0.0   -2.2646493588349846e-05
1.4882341193302038e-05   0.0   -2.2646493588349846e-05
1.4882341193302038e-05   0.0   -2.2646493588349846e-05
1.4882341193302038e-05   0.0   -2.2646493588349846e-05
3.0735953622549955e-05   -3.440867562847755e-06   1.711673256021521e-06
3.0735953622549955e-05   -3.440867562847755e-06   1.711673256021521e-06
3.0735953622549955e-05   -3.440867562847755e-06   1.711673256021521e-06
3.0735953622549955e-05   -3.440867562847755e-06   1.711673256021521e-06
2.934083541868237e-05   0.0   -2.3373452197187093e-05
2.934083541868237e-05   0.0   -2.3373452197187093e-05
2.934083541868237e-05   0.0   -2.3373452197187093e-05
2.934083541868237e-05   0.0   -2.3373452197187093e-05
1.5182348856751176e-05   -2.6654923073188083e-06   1.8233207904227993e-06
1.5182348856751176e-05   -2.6654923073188083e-06   1.8233207904227993e-06
1.5182348856751176e-05   -2.6654923073188083e-06   1.8233207904227993e-06
1.5182348856751176e-05   -2.6654923073188083e-06   1.8233207904227993e-06
2.2111588305992205e-05   -6.05798840697708e-07   -1.0961227704951519e-05
2.2111588305992205e-05   -6.05798840697708e-07   -1.0961227704951519e-05
2.2111588305992205e-05   -6.05798840697708e-07   -1.0961227704951519e-05
2.2111588305992205e-05   -6.05798840697708e-07   -1.0961227704951519e-05
-3.289439692176086e-05   4.1939932969488415e-06   -2.1687064399753326e-05
-3.289439692176086e-05   4.1939932969488415e-06   -2.1687064399753326e-05
-3.289439692176086e-05   4.1939932969488415e-06   -2.1687064399753326e-05
-3.289439692176086e-05   4.1939932969488415e-06   -2.1687064399753326e-05
-2.107901172970585e-05   3.764570913296117e-06   -2.2524091765199216e-06
-2.107901172970585e-05   3.764570913296117e-06   -2.2524091765199216e-06
-2.107901172970585e-05   3.764570913296117e-06   -2.2524091765199216e-06
-2.107901172970585e-05   3.764570913296117e-06   -2.2524091765199216e-06
-2.160322756100508e-05   5.042914426638851e-06   -1.8223529849103386e-05
-2.160322756100508e-05   5.042914426638851e-06   -1.8223529849103386e-05
-2.160322756100508e-05   5.042914426638851e-06   -1.8223529849103386e-05
-2.160322756100508e-05   5.042914426638851e-06   -1.8223529849103386e-05
-3.323762112828704e-05   4.524724351154347e-06   1.4780401416572661e-06
-3.323762112828704e-05   4.524724351154347e-06   1.4780401416572661e-06
-3.323762112828704e-05   4.524724351154347e-06   1.4780401416572661e-06
-3.323762112828704e-05   4.524724351154347e-06   1.4780401416572661e-06
-2.6125364170995844e-05   4.384043569593331e-06   -1.0291312984891544e-05
-2.6125364170995844e-05   4.384043569593331e-06   -1.0291312984891544e-05
-2.6125364170995844e-05   4.384043569593331e-06   -1.0291312984891544e-05
-2.6125364170995844e-05   4.384043569593331e-06   -1.0291312984891544e-05
-3.323762112828704e-05   5.042914426638851e-06   -1.7912615803812677e-05
-3.323762112828704e-05   5.042914426638851e-06   -1.7912615803812677e-05
-3.323762112828704e-05   5.042914426638851e-06   -1.7912615803812677e-05
-3.323762112828704e-05   5.042914426638851e-06   -1.7912615803812677e-05
-2.160322756100515e-05   4.524724351154361e-06   1.1671260963666086e-06
-2.160322756100515e-05   4.524724351154361e-06   1.1671260963666086e-06
-2.160322756100515e-05   4.524724351154361e-06   1.1671260963666086e-06
-2.160322756100515e-05   4.524724351154361e-06   1.1671260963666086e-06
-2.1706561520420458e-05   5.405421547778604e-06   -1.639118282601359e-05
-2.1706561520420458e-05   5.405421547778604e-06   -1.639118282601359e-05
-2.1706561520420458e-05   5.405421547778604e-06   -1.639118282601359e-05
-2.1706561520420458e-05   5.405421547778604e-06   -1.639118282601359e-05
-3.3460433957574676e-05   4.868049398794986e-06   3.5210278586336085e-06
-3.3460433957574676e-05   4.868049398794986e-06   3.5210278586336085e-06
-3.3460433957574676e-05   4.868049398794986e-06   3.5210278586336085e-06
-3.3460433957574676e-05   4.868049398794986e-06   3.5210278586336085e-06
-2.688516995650251e-05   4.8616916691211e-06   -7.43393083868236e-06
-2.688516995650251e-05   4.8616916691211e-06   -7.43393083868236e-06
-2.688516995650251e-05   4.8616916691211e-06   -7.43393083868236e-06
-2.688516995650251e-05   4.8616916691211e-06   -7.43393083868236e-06
-3.3460433957574676e-05   5.405421547778604e-06   -1.6068759536623428e-05
-3.3460433957574676e-05   5.405421547778604e-06   -1.6068759536623428e-05
-3.3460433957574676e-05   5.405421547778604e-06   -1.6068759536623428e-05
-3.3460433957574676e-05   5.405421547778604e-06   -1.6068759536623428e-05
-2.1706561520420492e-05   4.868049398794999e-06   3.198604569243428e-06
-2.1706561520420492e-05   4.868049398794999e-06   3.198604569243428e-06
-2.1706561520420492e-05   4.868049398794999e-06   3.198604569243428e-06
-2.1706561520420492e-05   4.868049398794999e-06   3.198604569243428e-06
-2.157606391525332e-05   6.166310537511065e-06   -1.2133120622788383e-05
-2.157606391525332e-05   6.166310537511065e-06   -1.2133120622788383e-05
-2.157606391525332e-05   6.166310537511065e-06   -1.2133120622788383e-05
-2.157606391525332e-05   6.166310537511065e-06   -1.2133120622788383e-05
-3.251637008924877e-05   5.144477269567173e-06   6.7138229613035704e-06
-3.251637008924877e-05   5.144477269567173e-06   6.7138229613035704e-06
-3.251637008924877e-05   5.144477269567173e-06   6.7138229613035704e-06
-3.251637008924877e-05   5.144477269567173e-06   6.7138229613035704e-06
-2.6175804865737934e-05   5.336553830073712e-06   -3.969031680851724e-06
-2.6175804865737934e-05   5.336553830073712e-06   -3.969031680851724e-06
-2.6175804865737934e-05   5.336553830073712e-06   -3.969031680851724e-06
-2.6175804865737934e-05   5.336553830073712e-06   -3.969031680851724e-06
-2.107901172970585e-05   1.5341847438443638e-06   -2.3093887506032523e-05
-2.107901172970585e-05   1.5341847438443638e-06   -2.3093887506032523e-05
-2.107901172970585e-05   1.5341847438443638e-06   -2.3093887506032523e-05
-2.107901172970585e-05   1.5341847438443638e-06   -2.3093887506032523e-05
-1.0007024254990573e-05   1.7519329842282901e-06   -4.509926103943357e-06
-1.0007024254990573e-05   1.7519329842282901e-06   -4.509926103943357e-06
-1.0007024254990573e-05   1.7519329842282901e-06   -4.509926103943357e-06
-1.0007024254990573e-05   1.7519329842282901e-06   -4.509926103943357e-06
-1.0239569656391326e-05   2.191045434898587e-06   -2.305559459460729e-05
-1.0239569656391326e-05   2.191045434898587e-06   -2.305559459460729e-05
-1.0239569656391326e-05   2.191045434898587e-06   -2.305559459460729e-05
-1.0239569656391326e-05   2.191045434898587e-06   -2.305559459460729e-05
-2.160322756100508e-05   2.450793270914511e-06   -4.272013455193857e-06
-2.160322756100508e-05   2.450793270914511e-06   -4.272013455193857e-06
-2.160322756100508e-05   2.450793270914511e-06   -4.272013455193857e-06
-2.160322756100508e-05   2.450793270914511e-06   -4.272013455193857e-06
-1.5687465753969193e-05   1.972789907005271e-06   -1.3844814448574864e-05
-1.5687465753969193e-05   1.972789907005271e-06   -1.3844814448574864e-05
-1.5687465753969193e-05   1.972789907005271e-06   -1.3844814448574864e-05
-1.5687465753969193e-05   1.972789907005271e-06   -1.3844814448574864e-05
-2.160322756100506e-05   2.191045434898587e-06   -2.3211443296216766e-05
-2.160322756100506e-05   2.191045434898587e-06   -2.3211443296216766e-05
-2.160322756100506e-05   2.191045434898587e-06   -2.3211443296216766e-05
-2.160322756100506e-05   2.191045434898587e-06   -2.3211443296216766e-05
-1.0239569656391307e-05   2.450793270914511e-06   -4.116164753584252e-06
-1.0239569656391307e-05   2.450793270914511e-06   -4.116164753584252e-06
-1.0239569656391307e-05   2.450793270914511e-06   -4.116164753584252e-06
-1.0239569656391307e-05   2.450793270914511e-06   -4.116164753584252e-06
-1.030779123913889e-05   2.6890328691386387e-06   -2.2625722759450563e-05
-1.030779123913889e-05   2.6890328691386387e-06   -2.2625722759450563e-05
-1.030779123913889e-05   2.6890328691386387e-06   -2.2625722759450563e-05
-1.030779123913889e-05   2.6890328691386387e-06   -2.2625722759450563e-05
-2.1706561520420458e-05   3.030039655929707e-06   -3.8323763627225085e-06
-2.1706561520420458e-05   3.030039655929707e-06   -3.8323763627225085e-06
-2.1706561520420458e-05   3.030039655929707e-06   -3.8323763627225085e-06
-2.1706561520420458e-05   3.030039655929707e-06   -3.8323763627225085e-06
-1.580395719974015e-05   2.5071612650687713e-06   -1.3356323196006442e-05
-1.580395719974015e-05   2.5071612650687713e-06   -1.3356323196006442e-05
-1.580395719974015e-05   2.5071612650687713e-06   -1.3356323196006442e-05
-1.580395719974015e-05   2.5071612650687713e-06   -1.3356323196006442e-05
-2.1706561520420458e-05   2.689032869138632e-06   -2.2830326831525155e-05
-2.1706561520420458e-05   2.689032869138632e-06   -2.2830326831525155e-05
-2.1706561520420458e-05   2.689032869138632e-06   -2.2830326831525155e-05
-2.1706561520420458e-05   2.689032869138632e-06   -2.2830326831525155e-05
-1.0307791239138906e-05   3.030039655929707e-06   -3.6277722906479034e-06
-1.0307791239138906e-05   3.030039655929707e-06   -3.6277722906479034e-06
-1.0307791239138906e-05   3.030039655929707e-06   -3.6277722906479034e-06
-1.0307791239138906e-05   3.030039655929707e-06   -3.6277722906479034e-06
-1.027610438210821e-05   3.131733121761094e-06   -2.2397011643900927e-05
-1.027610438210821e-05   3.131733121761094e-06   -2.2397011643900927e-05
-1.027610438210821e-05   3.131733121761094e-06   -2.2397011643900927e-05
-1.027610438210821e-05   3.131733121761094e-06   -2.2397011643900927e-05
-2.157606391525334e-05   3.6539410383056974e-06   -3.877070505252465e-06
-2.157606391525334e-05   3.6539410383056974e-06   -3.877070505252465e-06
-2.157606391525334e-05   3.6539410383056974e-06   -3.877070505252465e-06
-2.157606391525334e-05   3.6539410383056974e-06   -3.877070505252465e-06
-1.5890310410246544e-05   2.990860815642844e-06   -1.2955478213332757e-05
-1.5890310410246544e-05   2.990860815642844e-06   -1.2955478213332757e-05
-1.5890310410246544e-05   2.990860815642844e-06   -1.2955478213332757e-05
-1.5890310410246544e-05   2.990860815642844e-06   -1.2955478213332757e-05
-1.0007024254990573e-05   -1.9956753938014569e-07   -2.4190318215416586e-05
-1.0007024254990573e-05   -1.9956753938014569e-07   -2.4190318215416586e-05
-1.0007024254990573e-05   -1.9956753938014569e-07   -2.4190318215416586e-05
-1.0007024254990573e-05   -1.9956753938014569e-07   -2.4190318215416586e-05
9.241771778891579e-07   -5.403324592322275e-08   -5.884328584542882e-06
9.241771778891579e-07   -5.403324592322275e-08   -5.884328584542882e-06
9.241771778891579e-07   -5.403324592322275e-08   -5.884328584542882e-06
9.241771778891579e-07   -5.403324592322275e-08   -5.884328584542882e-06
8.854545084454317e-07   3.897649361384983e-07   -2.432048118954437e-05
8.854545084454317e-07   3.897649361384983e-07   -2.432048118954437e-05
8.854545084454317e-07   3.897649361384983e-07   -2.432048118954437e-05
8.854545084454317e-07   3.897649361384983e-07   -2.432048118954437e-05
-1.0239569656391307e-05   5.902219710300638e-07   -5.899048469084729e-06
-1.0239569656391307e-05   5.902219710300638e-07   -5.899048469084729e-06
-1.0239569656391307e-05   5.902219710300638e-07   -5.899048469084729e-06
-1.0239569656391307e-05   5.902219710300638e-07   -5.899048469084729e-06
-4.636384282870449e-06   1.966279132668017e-07   -1.5001534323628209e-05
-4.636384282870449e-06   1.966279132668017e-07   -1.5001534323628209e-05
-4.636384282870449e-06   1.966279132668017e-07   -1.5001534323628209e-05
-4.636384282870449e-06   1.966279132668017e-07   -1.5001534323628209e-05
-1.0239569656391307e-05   3.897649361384983e-07   -2.4440755410479314e-05
-1.0239569656391307e-05   3.897649361384983e-07   -2.4440755410479314e-05
-1.0239569656391307e-05   3.897649361384983e-07   -2.4440755410479314e-05
-1.0239569656391307e-05   3.897649361384983e-07   -2.4440755410479314e-05
8.85454508445433e-07   5.902219710300638e-07   -5.778774248149776e-06
8.85454508445433e-07   5.902219710300638e-07   -5.778774248149776e-06
8.85454508445433e-07   5.902219710300638e-07   -5.778774248149776e-06
8.85454508445433e-07   5.902219710300638e-07   -5.778774248149776e-06
8.310446671934463e-07   9.092274978572505e-07   -2.4369642994646883e-05
8.310446671934463e-07   9.092274978572505e-07   -2.4369642994646883e-05
8.310446671934463e-07   9.092274978572505e-07   -2.4369642994646883e-05
8.310446671934463e-07   9.092274978572505e-07   -2.4369642994646883e-05
-1.0307791239138872e-05   1.2199362102314397e-06   -5.991341711517518e-06
-1.0307791239138872e-05   1.2199362102314397e-06   -5.991341711517518e-06
-1.0307791239138872e-05   1.2199362102314397e-06   -5.991341711517518e-06
-1.0307791239138872e-05   1.2199362102314397e-06   -5.991341711517518e-06
-4.716265688291736e-06   7.420987682271588e-07   -1.5023848497726826e-05
-4.716265688291736e-06   7.420987682271588e-07   -1.5023848497726826e-05
-4.716265688291736e-06   7.420987682271588e-07   -1.5023848497726826e-05
-4.716265688291736e-06   7.420987682271588e-07   -1.5023848497726826e-05
-1.0307791239138872e-05   9.092274978572505e-07   -2.455606822207139e-05
-1.0307791239138872e-05   9.092274978572505e-07   -2.455606822207139e-05
-1.0307791239138872e-05   9.092274978572505e-07   -2.455606822207139e-05
-1.0307791239138872e-05   9.092274978572505e-07   -2.455606822207139e-05
8.310446671934476e-07   1.2199362102314533e-06   -5.8049164840930374e-06
8.310446671934476e-07   1.2199362102314533e-06   -5.8049164840930374e-06
8.310446671934476e-07   1.2199362102314533e-06   -5.8049164840930374e-06
8.310446671934476e-07   1.2199362102314533e-06   -5.8049164840930374e-06
7.140887859665725e-07   1.5102133463238947e-06   -2.4328540785473763e-05
7.140887859665725e-07   1.5102133463238947e-06   -2.4328540785473763e-05
7.140887859665725e-07   1.5102133463238947e-06   -2.4328540785473763e-05
7.140887859665725e-07   1.5102133463238947e-06   -2.4328540785473763e-05
-1.0276104382108201e-05   1.8757662681667214e-06   -6.230883925121533e-06
-1.0276104382108201e-05   1.8757662681667214e-06   -6.230883925121533e-06
-1.0276104382108201e-05   1.8757662681667214e-06   -6.230883925121533e-06
-1.0276104382108201e-05   1.8757662681667214e-06   -6.230883925121533e-06
-4.7619833151856485e-06   1.3024713098094262e-06   -1.5077108728311387e-05
-4.7619833151856485e-06   1.3024713098094262e-06   -1.5077108728311387e-05
-4.7619833151856485e-06   1.3024713098094262e-06   -1.5077108728311387e-05
-4.7619833151856485e-06   1.3024713098094262e-06   -1.5077108728311387e-05
9.241771778891579e-07   -1.7468960589475817e-06   -2.231624520647314e-05
9.241771778891579e-07   -1.7468960589475817e-06   -2.231624520647314e-05
9.241771778891579e-07   -1.7468960589475817e-06   -2.231624520647314e-05
9.241771778891579e-07   -1.7468960589475817e-06   -2.231624520647314e-05
1.2188634722007454e-05   -1.7954209816976142e-06   -3.571264253259313e-06
1.2188634722007454e-05   -1.7954209816976142e-06   -3.571264253259313e-06
1.2188634722007454e-05   -1.7954209816976142e-06   -3.571264253259313e-06
1.2188634722007454e-05   -1.7954209816976142e-06   -3.571264253259313e-06
1.229610037515916e-05   -1.3136848567591253e-06   -2.2620204912604615e-05
1.229610037515916e-05   -1.3136848567591253e-06   -2.2620204912604615e-05
1.229610037515916e-05   -1.3136848567591253e-06   -2.2620204912604615e-05
1.229610037515916e-05   -1.3136848567591253e-06   -2.2620204912604615e-05
8.85454508445433e-07   -1.2087553800896344e-06   -3.6654194874167687e-06
8.85454508445433e-07   -1.2087553800896344e-06   -3.6654194874167687e-06
8.85454508445433e-07   -1.2087553800896344e-06   -3.6654194874167687e-06
8.85454508445433e-07   -1.2087553800896344e-06   -3.6654194874167687e-06
6.489709214346904e-06   -1.4490636513594577e-06   -1.2861659034490669e-05
6.489709214346904e-06   -1.4490636513594577e-06   -1.2861659034490669e-05
6.489709214346904e-06   -1.4490636513594577e-06   -1.2861659034490669e-05
6.489709214346904e-06   -1.4490636513594577e-06   -1.2861659034490669e-05
8.854545084454317e-07   -1.3136848567591253e-06   -2.2683162598606315e-05
8.854545084454317e-07   -1.3136848567591253e-06   -2.2683162598606315e-05
8.854545084454317e-07   -1.3136848567591253e-06   -2.2683162598606315e-05
8.854545084454317e-07   -1.3136848567591253e-06   -2.2683162598606315e-05
1.229610037515916e-05   -1.2087553800896344e-06   -3.602461801415017e-06
1.229610037515916e-05   -1.2087553800896344e-06   -3.602461801415017e-06
1.229610037515916e-05   -1.2087553800896344e-06   -3.602461801415017e-06
1.229610037515916e-05   -1.2087553800896344e-06   -3.602461801415017e-06
1.2243249703306217e-05   -8.214511989471394e-07   -2.303946961136063e-05
1.2243249703306217e-05   -8.214511989471394e-07   -2.303946961136063e-05
1.2243249703306217e-05   -8.214511989471394e-07   -2.303946961136063e-05
1.2243249703306217e-05   -8.214511989471394e-07   -2.303946961136063e-05
8.310446671934463e-07   -6.348977096855128e-07   -4.131059978062979e-06
8.310446671934463e-07   -6.348977096855128e-07   -4.131059978062979e-06
8.310446671934463e-07   -6.348977096855128e-07   -4.131059978062979e-06
8.310446671934463e-07   -6.348977096855128e-07   -4.131059978062979e-06
6.4266257218203955e-06   -9.819172494388207e-07   -1.3248816678589237e-05
6.4266257218203955e-06   -9.819172494388207e-07   -1.3248816678589237e-05
6.4266257218203955e-06   -9.819172494388207e-07   -1.3248816678589237e-05
6.4266257218203955e-06   -9.819172494388207e-07   -1.3248816678589237e-05
8.310446671934453e-07   -8.214511989471326e-07   -2.315140170491752e-05
8.310446671934453e-07   -8.214511989471326e-07   -2.315140170491752e-05
8.310446671934453e-07   -8.214511989471326e-07   -2.315140170491752e-05
8.310446671934453e-07   -8.214511989471326e-07   -2.315140170491752e-05
1.2243249703306195e-05   -6.348977096855128e-07   -4.019127884506048e-06
1.2243249703306195e-05   -6.348977096855128e-07   -4.019127884506048e-06
1.2243249703306195e-05   -6.348977096855128e-07   -4.019127884506048e-06
1.2243249703306195e-05   -6.348977096855128e-07   -4.019127884506048e-06
1.1891047303061155e-05   -1.6074625457770302e-07   -2.308113924793038e-05
1.1891047303061155e-05   -1.6074625457770302e-07   -2.308113924793038e-05
1.1891047303061155e-05   -1.6074625457770302e-07   -2.308113924793038e-05
1.1891047303061155e-05   -1.6074625457770302e-07   -2.308113924793038e-05
7.140887859665725e-07   7.388181336771165e-08   -4.593651893540016e-06
7.140887859665725e-07   7.388181336771165e-08   -4.593651893540016e-06
7.140887859665725e-07   7.388181336771165e-08   -4.593651893540016e-06
7.140887859665725e-07   7.388181336771165e-08   -4.593651893540016e-06
6.362428918641846e-06   -4.363881612579583e-07   -1.3701390129890044e-05
6.362428918641846e-06   -4.363881612579583e-07   -1.3701390129890044e-05
6.362428918641846e-06   -4.363881612579583e-07   -1.3701390129890044e-05
6.362428918641846e-06   -4.363881612579583e-07   -1.3701390129890044e-05
1.2188634722007454e-05   -4.437945085597169e-06   -1.3499763260528986e-05
1.2188634722007454e-05   -4.437945085597169e-06   -1.3499763260528986e-05
1.2188634722007454e-05   -4.437945085597169e-06   -1.3499763260528986e-05
1.2188634722007454e-05   -4.437945085597169e-06   -1.3499763260528986e-05
2.329219049719688e-05   -3.3309657599764223e-06   5.67035062682581e-06
2.329219049719688e-05   -3.3309657599764223e-06   5.67035062682581e-06
2.329219049719688e-05   -3.3309657599764223e-06   5.67035062682581e-06
2.329219049719688e-05   -3.3309657599764223e-06   5.67035062682581e-06
2.419596395026702e-05   -3.7684702763413354e-06   -1.6375612454601545e-05
2.419596395026702e-05   -3.7684702763413354e-06   -1.6375612454601545e-05
2.419596395026702e-05   -3.7684702763413354e-06   -1.6375612454601545e-05
2.419596395026702e-05   -3.7684702763413354e-06   -1.6375612454601545e-05
1.2296100375159182e-05   -3.01577172568925e-06   3.0058743735202794e-06
1.2296100375159182e-05   -3.01577172568925e-06   3.0058743735202794e-06
1.2296100375159182e-05   -3.01577172568925e-06   3.0058743735202794e-06
1.2296100375159182e-05   -3.01577172568925e-06   3.0058743735202794e-06
1.7156082702365297e-05   -3.6213691377743007e-06   -4.730737724572217e-06
1.7156082702365297e-05   -3.6213691377743007e-06   -4.730737724572217e-06
1.7156082702365297e-05   -3.6213691377743007e-06   -4.730737724572217e-06
1.7156082702365297e-05   -3.6213691377743007e-06   -4.730737724572217e-06
1.229610037515915e-05   -3.7684702763413354e-06   -1.6827231584992753e-05
1.229610037515915e-05   -3.7684702763413354e-06   -1.6827231584992753e-05
1.229610037515915e-05   -3.7684702763413354e-06   -1.6827231584992753e-05
1.229610037515915e-05   -3.7684702763413354e-06   -1.6827231584992753e-05
2.419596395026702e-05   -3.01577172568925e-06   3.457493503911555e-06
2.419596395026702e-05   -3.01577172568925e-06   3.457493503911555e-06
2.419596395026702e-05   -3.01577172568925e-06   3.457493503911555e-06
2.419596395026702e-05   -3.01577172568925e-06   3.457493503911555e-06
2.4116616214784668e-05   -3.4408675628477684e-06   -1.780042517124208e-05
2.4116616214784668e-05   -3.4408675628477684e-06   -1.780042517124208e-05
2.4116616214784668e-05   -3.4408675628477684e-06   -1.780042517124208e-05
2.4116616214784668e-05   -3.4408675628477684e-06   -1.780042517124208e-05
1.2243249703306217e-05   -2.685697905938382e-06   1.5354172204097352e-06
1.2243249703306217e-05   -2.685697905938382e-06   1.5354172204097352e-06
1.2243249703306217e-05   -2.685697905938382e-06   1.5354172204097352e-06
1.2243249703306217e-05   -2.685697905938382e-06   1.5354172204097352e-06
1.7766522706424794e-05   -3.193898051060296e-06   -7.3651176977147825e-06
1.7766522706424794e-05   -3.193898051060296e-06   -7.3651176977147825e-06
1.7766522706424794e-05   -3.193898051060296e-06   -7.3651176977147825e-06
1.7766522706424794e-05   -3.193898051060296e-06   -7.3651176977147825e-06
1.2243249703306195e-05   -3.4408675628477616e-06   -1.825352696538768e-05
1.2243249703306195e-05   -3.4408675628477616e-06   -1.825352696538768e-05
1.2243249703306195e-05   -3.4408675628477616e-06   -1.825352696538768e-05
1.2243249703306195e-05   -3.4408675628477616e-06   -1.825352696538768e-05
2.4116616214784668e-05   -2.685697905938382e-06   1.9885190145553278e-06
2.4116616214784668e-05   -2.685697905938382e-06   1.9885190145553278e-06
2.4116616214784668e-05   -2.685697905938382e-06   1.9885190145553278e-06
2.4116616214784668e-05   -2.685697905938382e-06   1.9885190145553278e-06
2.3983801731723904e-05   -2.665492307318815e-06   -2.071128762150453e-05
2.3983801731723904e-05   -2.665492307318815e-06   -2.071128762150453e-05
2.3983801731723904e-05   -2.665492307318815e-06   -2.071128762150453e-05
2.3983801731723904e-05   -2.665492307318815e-06   -2.071128762150453e-05
1.1891047303061176e-05   -1.9759447444917785e-06   -9.704254447628875e-07
1.1891047303061176e-05   -1.9759447444917785e-06   -9.704254447628875e-07
1.1891047303061176e-05   -1.9759447444917785e-06   -9.704254447628875e-07
1.1891047303061176e-05   -1.9759447444917785e-06   -9.704254447628875e-07
1.7265962783856632e-05   -2.7469723327961103e-06   -9.466001359772694e-06
1.7265962783856632e-05   -2.7469723327961103e-06   -9.466001359772694e-06
1.7265962783856632e-05   -2.7469723327961103e-06   -9.466001359772694e-06
1.7265962783856632e-05   -2.7469723327961103e-06   -9.466001359772694e-06
-2.610805420939373e-05   3.7645709132961305e-06   -1.809206879535685e-05
-2.610805420939373e-05   3.7645709132961305e-06   -1.809206879535685e-05
-2.610805420939373e-05   3.7645709132961305e-06   -1.809206879535685e-05
-2.610805420939373e-05   3.7645709132961305e-06   -1.809206879535685e-05
-1.713923336042295e-05   2.8682404880483125e-06   -3.6818323022208983e-06
-1.713923336042295e-05   2.8682404880483125e-06   -3.6818323022208983e-06
-1.713923336042295e-05   2.8682404880483125e-06   -3.6818323022208983e-06
-1.713923336042295e-05   2.8682404880483125e-06   -3.6818323022208983e-06
-1.7218473440518374e-05   4.524724351154347e-06   -1.5026164879253711e-05
-1.7218473440518374e-05   4.524724351154347e-06   -1.5026164879253711e-05
-1.7218473440518374e-05   4.524724351154347e-06   -1.5026164879253711e-05
-1.7218473440518374e-05   4.524724351154347e-06   -1.5026164879253711e-05
-2.5701860159814486e-05   3.4742287647013834e-06   -2.5688966188842205e-07
-2.5701860159814486e-05   3.4742287647013834e-06   -2.5688966188842205e-07
-2.5701860159814486e-05   3.4742287647013834e-06   -2.5688966188842205e-07
-2.5701860159814486e-05   3.4742287647013834e-06   -2.5688966188842205e-07
-2.063031156695544e-05   3.83025573453161e-06   -8.923086831885035e-06
-2.063031156695544e-05   3.83025573453161e-06   -8.923086831885035e-06
-2.063031156695544e-05   3.83025573453161e-06   -8.923086831885035e-06
-2.063031156695544e-05   3.83025573453161e-06   -8.923086831885035e-06
-2.5701860159814486e-05   4.524724351154347e-06   -1.439586752738195e-05
-2.5701860159814486e-05   4.524724351154347e-06   -1.439586752738195e-05
-2.5701860159814486e-05   4.524724351154347e-06   -1.439586752738195e-05
-2.5701860159814486e-05   4.524724351154347e-06   -1.439586752738195e-05
-1.7218473440518374e-05   3.4742287647013834e-06   -8.871870137601841e-07
-1.7218473440518374e-05   3.4742287647013834e-06   -8.871870137601841e-07
-1.7218473440518374e-05   3.4742287647013834e-06   -8.871870137601841e-07
-1.7218473440518374e-05   3.4742287647013834e-06   -8.871870137601841e-07
-1.719718099534844e-05   4.868049398794999e-06   -1.2858216686844335e-05
-1.719718099534844e-05   4.868049398794999e-06   -1.2858216686844335e-05
-1.719718099534844e-05   4.868049398794999e-06   -1.2858216686844335e-05
-1.719718099534844e-05   4.868049398794999e-06   -1.2858216686844335e-05
-2.530796158869473e-05   3.7412563237467368e-06   1.3358268137617568e-06
-2.530796158869473e-05   3.7412563237467368e-06   1.3358268137617568e-06
-2.530796158869473e-05   3.7412563237467368e-06   1.3358268137617568e-06
-2.530796158869473e-05   3.7412563237467368e-06   1.3358268137617568e-06
-2.080285977479405e-05   4.181482567679873e-06   -6.436811955765905e-06
-2.080285977479405e-05   4.181482567679873e-06   -6.436811955765905e-06
-2.080285977479405e-05   4.181482567679873e-06   -6.436811955765905e-06
-2.080285977479405e-05   4.181482567679873e-06   -6.436811955765905e-06
-2.530796158869473e-05   4.868049398794999e-06   -1.218214084181537e-05
-2.530796158869473e-05   4.868049398794999e-06   -1.218214084181537e-05
-2.530796158869473e-05   4.868049398794999e-06   -1.218214084181537e-05
-2.530796158869473e-05   4.868049398794999e-06   -1.218214084181537e-05
-1.7197180995348468e-05   3.741256323746764e-06   6.597509687328318e-07
-1.7197180995348468e-05   3.741256323746764e-06   6.597509687328318e-07
-1.7197180995348468e-05   3.741256323746764e-06   6.597509687328318e-07
-1.7197180995348468e-05   3.741256323746764e-06   6.597509687328318e-07
-1.721186729374839e-05   5.144477269567173e-06   -9.828770158066527e-06
-1.721186729374839e-05   5.144477269567173e-06   -9.828770158066527e-06
-1.721186729374839e-05   5.144477269567173e-06   -9.828770158066527e-06
-1.721186729374839e-05   5.144477269567173e-06   -9.828770158066527e-06
-2.4796485068850766e-05   4.006662203705121e-06   3.494948506621245e-06
-2.4796485068850766e-05   4.006662203705121e-06   3.494948506621245e-06
-2.4796485068850766e-05   4.006662203705121e-06   3.494948506621245e-06
-2.4796485068850766e-05   4.006662203705121e-06   3.494948506621245e-06
-2.0324253502124864e-05   4.368347406481061e-06   -4.1757818929205875e-06
-2.0324253502124864e-05   4.368347406481061e-06   -4.1757818929205875e-06
-2.0324253502124864e-05   4.368347406481061e-06   -4.1757818929205875e-06
-2.0324253502124864e-05   4.368347406481061e-06   -4.1757818929205875e-06
-1.713923336042295e-05   1.7519329842282901e-06   -2.1018032922159323e-05
-1.713923336042295e-05   1.7519329842282901e-06   -2.1018032922159323e-05
-1.713923336042295e-05   1.7519329842282901e-06   -2.1018032922159323e-05
-1.713923336042295e-05   1.7519329842282901e-06   -2.1018032922159323e-05
-8.748273147818703e-06   1.4333208550924251e-06   -7.224266511967108e-06
-8.748273147818703e-06   1.4333208550924251e-06   -7.224266511967108e-06
-8.748273147818703e-06   1.4333208550924251e-06   -7.224266511967108e-06
-8.748273147818703e-06   1.4333208550924251e-06   -7.224266511967108e-06
-8.851563345373406e-06   2.450793270914511e-06   -2.071779721554763e-05
-8.851563345373406e-06   2.450793270914511e-06   -2.071779721554763e-05
-8.851563345373406e-06   2.450793270914511e-06   -2.071779721554763e-05
-8.851563345373406e-06   2.450793270914511e-06   -2.071779721554763e-05
-1.7218473440518374e-05   2.0299719630254085e-06   -6.520454272239209e-06
-1.7218473440518374e-05   2.0299719630254085e-06   -6.520454272239209e-06
-1.7218473440518374e-05   2.0299719630254085e-06   -6.520454272239209e-06
-1.7218473440518374e-05   2.0299719630254085e-06   -6.520454272239209e-06
-1.2877738198869522e-05   2.0247257885571226e-06   -1.3751865303639652e-05
-1.2877738198869522e-05   2.0247257885571226e-06   -1.3751865303639652e-05
-1.2877738198869522e-05   2.0247257885571226e-06   -1.3751865303639652e-05
-1.2877738198869522e-05   2.0247257885571226e-06   -1.3751865303639652e-05
-1.7218473440518353e-05   2.450793270914511e-06   -2.0465304430814096e-05
-1.7218473440518353e-05   2.450793270914511e-06   -2.0465304430814096e-05
-1.7218473440518353e-05   2.450793270914511e-06   -2.0465304430814096e-05
-1.7218473440518353e-05   2.450793270914511e-06   -2.0465304430814096e-05
-8.851563345373419e-06   2.0299719630254085e-06   -6.772947056972696e-06
-8.851563345373419e-06   2.0299719630254085e-06   -6.772947056972696e-06
-8.851563345373419e-06   2.0299719630254085e-06   -6.772947056972696e-06
-8.851563345373419e-06   2.0299719630254085e-06   -6.772947056972696e-06
-8.917522736033739e-06   3.0300396559296934e-06   -2.0170598590312644e-05
-8.917522736033739e-06   3.0300396559296934e-06   -2.0170598590312644e-05
-8.917522736033739e-06   3.0300396559296934e-06   -2.0170598590312644e-05
-8.917522736033739e-06   3.0300396559296934e-06   -2.0170598590312644e-05
-1.719718099534844e-05   2.5610380367591177e-06   -6.089767186619112e-06
-1.719718099534844e-05   2.5610380367591177e-06   -6.089767186619112e-06
-1.719718099534844e-05   2.5610380367591177e-06   -6.089767186619112e-06
-1.719718099534844e-05   2.5610380367591177e-06   -6.089767186619112e-06
-1.2898889699610294e-05   2.516259139768496e-06   -1.3226718674654928e-05
-1.2898889699610294e-05   2.516259139768496e-06   -1.3226718674654928e-05
-1.2898889699610294e-05   2.516259139768496e-06   -1.3226718674654928e-05
-1.2898889699610294e-05   2.516259139768496e-06   -1.3226718674654928e-05
-1.719718099534844e-05   3.0300396559296934e-06   -1.98891976188103e-05
-1.719718099534844e-05   3.0300396559296934e-06   -1.98891976188103e-05
-1.719718099534844e-05   3.0300396559296934e-06   -1.98891976188103e-05
-1.719718099534844e-05   3.0300396559296934e-06   -1.98891976188103e-05
-8.917522736033756e-06   2.5610380367591177e-06   -6.371168158121437e-06
-8.917522736033756e-06   2.5610380367591177e-06   -6.371168158121437e-06
-8.917522736033756e-06   2.5610380367591177e-06   -6.371168158121437e-06
-8.917522736033756e-06   2.5610380367591177e-06   -6.371168158121437e-06
-9.003973067391412e-06   3.6539410383056974e-06   -2.0122722977448438e-05
-9.003973067391412e-06   3.6539410383056974e-06   -2.0122722977448438e-05
-9.003973067391412e-06   3.6539410383056974e-06   -2.0122722977448438e-05
-9.003973067391412e-06   3.6539410383056974e-06   -2.0122722977448438e-05
-1.7211867293748377e-05   3.127008848985278e-06   -6.126739953261345e-06
-1.7211867293748377e-05   3.127008848985278e-06   -6.126739953261345e-06
-1.7211867293748377e-05   3.127008848985278e-06   -6.126739953261345e-06
-1.7211867293748377e-05   3.127008848985278e-06   -6.126739953261345e-06
-1.3048959864420348e-05   3.0040048622816118e-06   -1.2991116610119006e-05
-1.3048959864420348e-05   3.0040048622816118e-06   -1.2991116610119006e-05
-1.3048959864420348e-05   3.0040048622816118e-06   -1.2991116610119006e-05
-1.3048959864420348e-05   3.0040048622816118e-06   -1.2991116610119006e-05
-8.748273147818686e-06   -5.40332459232363e-08   -2.2670923256314524e-05
-8.748273147818686e-06   -5.40332459232363e-08   -2.2670923256314524e-05
-8.748273147818686e-06   -5.40332459232363e-08   -2.2670923256314524e-05
-8.748273147818686e-06   -5.40332459232363e-08   -2.2670923256314524e-05
-4.4800386250669767e-07   7.692367204499562e-08   -8.75856696334693e-06
-4.4800386250669767e-07   7.692367204499562e-08   -8.75856696334693e-06
-4.4800386250669767e-07   7.692367204499562e-08   -8.75856696334693e-06
-4.4800386250669767e-07   7.692367204499562e-08   -8.75856696334693e-06
-5.3050590670612e-07   5.902219710300638e-07   -2.2455724696860628e-05
-5.3050590670612e-07   5.902219710300638e-07   -2.2455724696860628e-05
-5.3050590670612e-07   5.902219710300638e-07   -2.2455724696860628e-05
-5.3050590670612e-07   5.902219710300638e-07   -2.2455724696860628e-05
-8.851563345373392e-06   6.651490280091253e-07   -8.632251866602594e-06
-8.851563345373392e-06   6.651490280091253e-07   -8.632251866602594e-06
-8.851563345373392e-06   6.651490280091253e-07   -8.632251866602594e-06
-8.851563345373392e-06   6.651490280091253e-07   -8.632251866602594e-06
-4.618077570881775e-06   3.8822661659659234e-07   -1.5521908043907786e-05
-4.618077570881775e-06   3.8822661659659234e-07   -1.5521908043907786e-05
-4.618077570881775e-06   3.8822661659659234e-07   -1.5521908043907786e-05
-4.618077570881775e-06   3.8822661659659234e-07   -1.5521908043907786e-05
-8.851563345373406e-06   5.902219710300638e-07   -2.2500680931048056e-05
-8.851563345373406e-06   5.902219710300638e-07   -2.2500680931048056e-05
-8.851563345373406e-06   5.902219710300638e-07   -2.2500680931048056e-05
-8.851563345373406e-06   5.902219710300638e-07   -2.2500680931048056e-05
-5.3050590670612e-07   6.651490280091253e-07   -8.587295632415145e-06
-5.3050590670612e-07   6.651490280091253e-07   -8.587295632415145e-06
-5.3050590670612e-07   6.651490280091253e-07   -8.587295632415145e-06
-5.3050590670612e-07   6.651490280091253e-07   -8.587295632415145e-06
-5.890892548628574e-07   1.2199362102314533e-06   -2.2515101006978305e-05
-5.890892548628574e-07   1.2199362102314533e-06   -2.2515101006978305e-05
-5.890892548628574e-07   1.2199362102314533e-06   -2.2515101006978305e-05
-5.890892548628574e-07   1.2199362102314533e-06   -2.2515101006978305e-05
-8.917522736033739e-06   1.2517145505714549e-06   -8.653445542564167e-06
-8.917522736033739e-06   1.2517145505714549e-06   -8.653445542564167e-06
-8.917522736033739e-06   1.2517145505714549e-06   -8.653445542564167e-06
-8.917522736033739e-06   1.2517145505714549e-06   -8.653445542564167e-06
-4.7254236230631475e-06   9.07221591091718e-07   -1.543358162182731e-05
-4.7254236230631475e-06   9.07221591091718e-07   -1.543358162182731e-05
-4.7254236230631475e-06   9.07221591091718e-07   -1.543358162182731e-05
-4.7254236230631475e-06   9.07221591091718e-07   -1.543358162182731e-05
-8.917522736033739e-06   1.2199362102314533e-06   -2.2534168011182303e-05
-8.917522736033739e-06   1.2199362102314533e-06   -2.2534168011182303e-05
-8.917522736033739e-06   1.2199362102314533e-06   -2.2534168011182303e-05
-8.917522736033739e-06   1.2199362102314533e-06   -2.2534168011182303e-05
-5.890892548628574e-07   1.251714550571482e-06   -8.634378538360107e-06
-5.890892548628574e-07   1.251714550571482e-06   -8.634378538360107e-06
-5.890892548628574e-07   1.251714550571482e-06   -8.634378538360107e-06
-5.890892548628574e-07   1.251714550571482e-06   -8.634378538360107e-06
-6.828247736692272e-07   1.8757662681667214e-06   -2.2804231826958367e-05
-6.828247736692272e-07   1.8757662681667214e-06   -2.2804231826958367e-05
-6.828247736692272e-07   1.8757662681667214e-06   -2.2804231826958367e-05
-6.828247736692272e-07   1.8757662681667214e-06   -2.2804231826958367e-05
-9.003973067391419e-06   1.8518151353099244e-06   -8.921280657707366e-06
-9.003973067391419e-06   1.8518151353099244e-06   -8.921280657707366e-06
-9.003973067391419e-06   1.8518151353099244e-06   -8.921280657707366e-06
-9.003973067391419e-06   1.8518151353099244e-06   -8.921280657707366e-06
-4.839627212579756e-06   1.432390997519866e-06   -1.561020259971932e-05
-4.839627212579756e-06   1.432390997519866e-06   -1.561020259971932e-05
-4.839627212579756e-06   1.432390997519866e-06   -1.561020259971932e-05
-4.839627212579756e-06   1.432390997519866e-06   -1.561020259971932e-05
-4.480038625066983e-07   -1.7954209816976142e-06   -2.0250169820599997e-05
-4.480038625066983e-07   -1.7954209816976142e-06   -2.0250169820599997e-05
-4.480038625066983e-07   -1.7954209816976142e-06   -2.0250169820599997e-05
-4.480038625066983e-07   -1.7954209816976142e-06   -2.0250169820599997e-05
7.804461048303964e-06   -1.1985105409102997e-06   -6.137915371443221e-06
7.804461048303964e-06   -1.1985105409102997e-06   -6.137915371443221e-06
7.804461048303964e-06   -1.1985105409102997e-06   -6.137915371443221e-06
7.804461048303964e-06   -1.1985105409102997e-06   -6.137915371443221e-06
7.801420397453793e-06   -1.2087553800896344e-06   -2.0011936731883815e-05
7.801420397453793e-06   -1.2087553800896344e-06   -2.0011936731883815e-05
7.801420397453793e-06   -1.2087553800896344e-06   -2.0011936731883815e-05
7.801420397453793e-06   -1.2087553800896344e-06   -2.0011936731883815e-05
-5.3050590670612e-07   -6.580333730166774e-07   -6.455826095861056e-06
-5.3050590670612e-07   -6.580333730166774e-07   -6.455826095861056e-06
-5.3050590670612e-07   -6.580333730166774e-07   -6.455826095861056e-06
-5.3050590670612e-07   -6.580333730166774e-07   -6.455826095861056e-06
3.6293728665940077e-06   -1.17207338229809e-06   -1.3080533379125769e-05
3.6293728665940077e-06   -1.17207338229809e-06   -1.3080533379125769e-05
3.6293728665940077e-06   -1.17207338229809e-06   -1.3080533379125769e-05
3.6293728665940077e-06   -1.17207338229809e-06   -1.3080533379125769e-05
-5.3050590670612e-07   -1.2087553800896344e-06   -2.034236993612759e-05
-5.3050590670612e-07   -1.2087553800896344e-06   -2.034236993612759e-05
-5.3050590670612e-07   -1.2087553800896344e-06   -2.034236993612759e-05
-5.3050590670612e-07   -1.2087553800896344e-06   -2.034236993612759e-05
7.801420397453806e-06   -6.580333730166774e-07   -6.125392891617298e-06
7.801420397453806e-06   -6.580333730166774e-07   -6.125392891617298e-06
7.801420397453806e-06   -6.580333730166774e-07   -6.125392891617298e-06
7.801420397453806e-06   -6.580333730166774e-07   -6.125392891617298e-06
7.842724571426374e-06   -6.348977096855263e-07   -2.053713703790324e-05
7.842724571426374e-06   -6.348977096855263e-07   -2.053713703790324e-05
7.842724571426374e-06   -6.348977096855263e-07   -2.053713703790324e-05
7.842724571426374e-06   -6.348977096855263e-07   -2.053713703790324e-05
-5.890892548628583e-07   -1.2805193794378287e-07   -6.788221457132892e-06
-5.890892548628583e-07   -1.2805193794378287e-07   -6.788221457132892e-06
-5.890892548628583e-07   -1.2805193794378287e-07   -6.788221457132892e-06
-5.890892548628583e-07   -1.2805193794378287e-07   -6.788221457132892e-06
3.5191625330042077e-06   -7.037246870453002e-07   -1.3289904120783768e-05
3.5191625330042077e-06   -7.037246870453002e-07   -1.3289904120783768e-05
3.5191625330042077e-06   -7.037246870453002e-07   -1.3289904120783768e-05
3.5191625330042077e-06   -7.037246870453002e-07   -1.3289904120783768e-05
-5.890892548628566e-07   -6.348977096855263e-07   -2.0841244500948214e-05
-5.890892548628566e-07   -6.348977096855263e-07   -2.0841244500948214e-05
-5.890892548628566e-07   -6.348977096855263e-07   -2.0841244500948214e-05
-5.890892548628566e-07   -6.348977096855263e-07   -2.0841244500948214e-05
7.842724571426391e-06   -1.2805193794375577e-07   -6.484113994087838e-06
7.842724571426391e-06   -1.2805193794375577e-07   -6.484113994087838e-06
7.842724571426391e-06   -1.2805193794375577e-07   -6.484113994087838e-06
7.842724571426391e-06   -1.2805193794375577e-07   -6.484113994087838e-06
7.78588643006864e-06   7.388181336771165e-08   -2.1136386471599496e-05
7.78588643006864e-06   7.388181336771165e-08   -2.1136386471599496e-05
7.78588643006864e-06   7.388181336771165e-08   -2.1136386471599496e-05
7.78588643006864e-06   7.388181336771165e-08   -2.1136386471599496e-05
-6.828247736692276e-07   4.904569415061888e-07   -7.271812875586204e-06
-6.828247736692276e-07   4.904569415061888e-07   -7.271812875586204e-06
-6.828247736692276e-07   4.904569415061888e-07   -7.271812875586204e-06
-6.828247736692276e-07   4.904569415061888e-07   -7.271812875586204e-06
3.482158261608339e-06   -2.0356979593886388e-07   -1.379703522524832e-05
3.482158261608339e-06   -2.0356979593886388e-07   -1.379703522524832e-05
3.482158261608339e-06   -2.0356979593886388e-07   -1.379703522524832e-05
3.482158261608339e-06   -2.0356979593886388e-07   -1.379703522524832e-05
7.80446104830395e-06   -3.3309657599764087e-06   -1.1314596271414927e-05
7.80446104830395e-06   -3.3309657599764087e-06   -1.1314596271414927e-05
7.80446104830395e-06   -3.3309657599764087e-06   -1.1314596271414927e-05
7.80446104830395e-06   -3.3309657599764087e-06   -1.1314596271414927e-05
1.5507869451099468e-05   -2.16543687355734e-06   2.223735065095742e-06
1.5507869451099468e-05   -2.16543687355734e-06   2.223735065095742e-06
1.5507869451099468e-05   -2.16543687355734e-06   2.223735065095742e-06
1.5507869451099468e-05   -2.16543687355734e-06   2.223735065095742e-06
1.6042527693038998e-05   -3.01577172568925e-06   -1.2705301982420164e-05
1.6042527693038998e-05   -3.01577172568925e-06   -1.2705301982420164e-05
1.6042527693038998e-05   -3.01577172568925e-06   -1.2705301982420164e-05
1.6042527693038998e-05   -3.01577172568925e-06   -1.2705301982420164e-05
7.801420397453793e-06   -1.8519407681421055e-06   3.315782690268952e-07
7.801420397453793e-06   -1.8519407681421055e-06   3.315782690268952e-07
7.801420397453793e-06   -1.8519407681421055e-06   3.315782690268952e-07
7.801420397453793e-06   -1.8519407681421055e-06   3.315782690268952e-07
1.1285431636858728e-05   -2.5598936858573732e-06   -5.05033537935218e-06
1.1285431636858728e-05   -2.5598936858573732e-06   -5.05033537935218e-06
1.1285431636858728e-05   -2.5598936858573732e-06   -5.05033537935218e-06
1.1285431636858728e-05   -2.5598936858573732e-06   -5.05033537935218e-06
7.801420397453782e-06   -3.01577172568925e-06   -1.340360055694843e-05
7.801420397453782e-06   -3.01577172568925e-06   -1.340360055694843e-05
7.801420397453782e-06   -3.01577172568925e-06   -1.340360055694843e-05
7.801420397453782e-06   -3.01577172568925e-06   -1.340360055694843e-05
1.6042527693038998e-05   -1.8519407681421055e-06   1.0298768435551954e-06
1.6042527693038998e-05   -1.8519407681421055e-06   1.0298768435551954e-06
1.6042527693038998e-05   -1.8519407681421055e-06   1.0298768435551954e-06
1.6042527693038998e-05   -1.8519407681421055e-06   1.0298768435551954e-06
1.6455759753014235e-05   -2.685697905938382e-06   -1.4322426272916274e-05
1.6455759753014235e-05   -2.685697905938382e-06   -1.4322426272916274e-05
1.6455759753014235e-05   -2.685697905938382e-06   -1.4322426272916274e-05
1.6455759753014235e-05   -2.685697905938382e-06   -1.4322426272916274e-05
7.84272457142636e-06   -1.585421805819703e-06   -6.275332970077159e-07
7.84272457142636e-06   -1.585421805819703e-06   -6.275332970077159e-07
7.84272457142636e-06   -1.585421805819703e-06   -6.275332970077159e-07
7.84272457142636e-06   -1.585421805819703e-06   -6.275332970077159e-07
1.1675505954872178e-05   -2.3578559114486545e-06   -6.552041806040035e-06
1.1675505954872178e-05   -2.3578559114486545e-06   -6.552041806040035e-06
1.1675505954872178e-05   -2.3578559114486545e-06   -6.552041806040035e-06
1.1675505954872178e-05   -2.3578559114486545e-06   -6.552041806040035e-06
7.842724571426374e-06   -2.685697905938382e-06   -1.4982591932987516e-05
7.842724571426374e-06   -2.685697905938382e-06   -1.4982591932987516e-05
7.842724571426374e-06   -2.685697905938382e-06   -1.4982591932987516e-05
7.842724571426374e-06   -2.685697905938382e-06   -1.4982591932987516e-05
1.6455759753014208e-05   -1.585421805819703e-06   3.263236306348606e-08
1.6455759753014208e-05   -1.585421805819703e-06   3.263236306348606e-08
1.6455759753014208e-05   -1.585421805819703e-06   3.263236306348606e-08
1.6455759753014208e-05   -1.585421805819703e-06   3.263236306348606e-08
1.6898062975072836e-05   -1.9759447444917785e-06   -1.7079166695732728e-05
1.6898062975072836e-05   -1.9759447444917785e-06   -1.7079166695732728e-05
1.6898062975072836e-05   -1.9759447444917785e-06   -1.7079166695732728e-05
1.6898062975072836e-05   -1.9759447444917785e-06   -1.7079166695732728e-05
7.785886430068627e-06   -1.0179944647303386e-06   -2.4669759552492873e-06
7.785886430068627e-06   -1.0179944647303386e-06   -2.4669759552492873e-06
7.785886430068627e-06   -1.0179944647303386e-06   -2.4669759552492873e-06
7.785886430068627e-06   -1.0179944647303386e-06   -2.4669759552492873e-06
1.1632524798183315e-05   -2.0283309189851953e-06   -8.271838029554133e-06
1.1632524798183315e-05   -2.0283309189851953e-06   -8.271838029554133e-06
1.1632524798183315e-05   -2.0283309189851953e-06   -8.271838029554133e-06
1.1632524798183315e-05   -2.0283309189851953e-06   -8.271838029554133e-06
-1.8679939304086716e-05   2.8682404880483125e-06   -1.4264668543859918e-05
-1.8679939304086716e-05   2.8682404880483125e-06   -1.4264668543859918e-05
-1.8679939304086716e-05   2.8682404880483125e-06   -1.4264668543859918e-05
-1.8679939304086716e-05   2.8682404880483125e-06   -1.4264668543859918e-05
-1.2750987170686854e-05   1.8167793007110096e-06   -5.0139583672625845e-06
-1.2750987170686854e-05   1.8167793007110096e-06   -5.0139583672625845e-06
-1.2750987170686854e-05   1.8167793007110096e-06   -5.0139583672625845e-06
-1.2750987170686854e-05   1.8167793007110096e-06   -5.0139583672625845e-06
-1.2703945435909252e-05   3.4742287647013834e-06   -1.2119961989622452e-05
-1.2703945435909252e-05   3.4742287647013834e-06   -1.2119961989622452e-05
-1.2703945435909252e-05   3.4742287647013834e-06   -1.2119961989622452e-05
-1.2703945435909252e-05   3.4742287647013834e-06   -1.2119961989622452e-05
-1.811361776780014e-05   2.3166044367818584e-06   -2.409266839719249e-06
-1.811361776780014e-05   2.3166044367818584e-06   -2.409266839719249e-06
-1.811361776780014e-05   2.3166044367818584e-06   -2.409266839719249e-06
-1.811361776780014e-05   2.3166044367818584e-06   -2.409266839719249e-06
-1.4901707176834668e-05   2.7633923294524275e-06   -8.030523893597384e-06
-1.4901707176834668e-05   2.7633923294524275e-06   -8.030523893597384e-06
-1.4901707176834668e-05   2.7633923294524275e-06   -8.030523893597384e-06
-1.4901707176834668e-05   2.7633923294524275e-06   -8.030523893597384e-06
-1.811361776780014e-05   3.4742287647013834e-06   -1.1425387392870705e-05
-1.811361776780014e-05   3.4742287647013834e-06   -1.1425387392870705e-05
-1.811361776780014e-05   3.4742287647013834e-06   -1.1425387392870705e-05
-1.811361776780014e-05   3.4742287647013834e-06   -1.1425387392870705e-05
-1.2703945435909266e-05   2.3166044367819126e-06   -3.1038414364709154e-06
-1.2703945435909266e-05   2.3166044367819126e-06   -3.1038414364709154e-06
-1.2703945435909266e-05   2.3166044367819126e-06   -3.1038414364709154e-06
-1.2703945435909266e-05   2.3166044367819126e-06   -3.1038414364709154e-06
-1.2607177823784584e-05   3.7412563237467368e-06   -1.0569127939521377e-05
-1.2607177823784584e-05   3.7412563237467368e-06   -1.0569127939521377e-05
-1.2607177823784584e-05   3.7412563237467368e-06   -1.0569127939521377e-05
-1.2607177823784584e-05   3.7412563237467368e-06   -1.0569127939521377e-05
-1.769162033650393e-05   2.5505921377178e-06   -1.3806585733717167e-06
-1.769162033650393e-05   2.5505921377178e-06   -1.3806585733717167e-06
-1.769162033650393e-05   2.5505921377178e-06   -1.3806585733717167e-06
-1.769162033650393e-05   2.5505921377178e-06   -1.3806585733717167e-06
-1.4900040055979878e-05   3.042520589202852e-06   -6.328449445136054e-06
-1.4900040055979878e-05   3.042520589202852e-06   -6.328449445136054e-06
-1.4900040055979878e-05   3.042520589202852e-06   -6.328449445136054e-06
-1.4900040055979878e-05   3.042520589202852e-06   -6.328449445136054e-06
-1.769162033650393e-05   3.7412563237467368e-06   -9.854729427903987e-06
-1.769162033650393e-05   3.7412563237467368e-06   -9.854729427903987e-06
-1.769162033650393e-05   3.7412563237467368e-06   -9.854729427903987e-06
-1.769162033650393e-05   3.7412563237467368e-06   -9.854729427903987e-06
-1.2607177823784597e-05   2.5505921377178e-06   -2.0950570849889976e-06
-1.2607177823784597e-05   2.5505921377178e-06   -2.0950570849889976e-06
-1.2607177823784597e-05   2.5505921377178e-06   -2.0950570849889976e-06
-1.2607177823784597e-05   2.5505921377178e-06   -2.0950570849889976e-06
-1.2569318564308797e-05   4.006662203705121e-06   -8.426498102298303e-06
-1.2569318564308797e-05   4.006662203705121e-06   -8.426498102298303e-06
-1.2569318564308797e-05   4.006662203705121e-06   -8.426498102298303e-06
-1.2569318564308797e-05   4.006662203705121e-06   -8.426498102298303e-06
-1.7141032965623792e-05   2.8465277430462913e-06   -1.1089342371131163e-07
-1.7141032965623792e-05   2.8465277430462913e-06   -1.1089342371131163e-07
-1.7141032965623792e-05   2.8465277430462913e-06   -1.1089342371131163e-07
-1.7141032965623792e-05   2.8465277430462913e-06   -1.1089342371131163e-07
-1.4457889920431624e-05   3.1958755629119396e-06   -4.792407190950978e-06
-1.4457889920431624e-05   3.1958755629119396e-06   -4.792407190950978e-06
-1.4457889920431624e-05   3.1958755629119396e-06   -4.792407190950978e-06
-1.4457889920431624e-05   3.1958755629119396e-06   -4.792407190950978e-06
-1.2750987170686827e-05   1.4333208550924251e-06   -1.8246812188526992e-05
-1.2750987170686827e-05   1.4333208550924251e-06   -1.8246812188526992e-05
-1.2750987170686827e-05   1.4333208550924251e-06   -1.8246812188526992e-05
-1.2750987170686827e-05   1.4333208550924251e-06   -1.8246812188526992e-05
-7.36702395427533e-06   9.445185882566028e-07   -9.56682152127597e-06
-7.36702395427533e-06   9.445185882566028e-07   -9.56682152127597e-06
-7.36702395427533e-06   9.445185882566028e-07   -9.56682152127597e-06
-7.36702395427533e-06   9.445185882566028e-07   -9.56682152127597e-06
-7.370910250658091e-06   2.0299719630254085e-06   -1.808743768819045e-05
-7.370910250658091e-06   2.0299719630254085e-06   -1.808743768819045e-05
-7.370910250658091e-06   2.0299719630254085e-06   -1.808743768819045e-05
-7.370910250658091e-06   2.0299719630254085e-06   -1.808743768819045e-05
-1.2703945435909252e-05   1.4729578962104604e-06   -8.864837272682828e-06
-1.2703945435909252e-05   1.4729578962104604e-06   -8.864837272682828e-06
-1.2703945435909252e-05   1.4729578962104604e-06   -8.864837272682828e-06
-1.2703945435909252e-05   1.4729578962104604e-06   -8.864837272682828e-06
-9.955313615373463e-06   1.571027672397701e-06   -1.3504732172621534e-05
-9.955313615373463e-06   1.571027672397701e-06   -1.3504732172621534e-05
-9.955313615373463e-06   1.571027672397701e-06   -1.3504732172621534e-05
-9.955313615373463e-06   1.571027672397701e-06   -1.3504732172621534e-05
-1.2703945435909238e-05   2.0299719630254085e-06   -1.775322924810137e-05
-1.2703945435909238e-05   2.0299719630254085e-06   -1.775322924810137e-05
-1.2703945435909238e-05   2.0299719630254085e-06   -1.775322924810137e-05
-1.2703945435909238e-05   2.0299719630254085e-06   -1.775322924810137e-05
-7.370910250658091e-06   1.4729578962104062e-06   -9.199045712771762e-06
-7.370910250658091e-06   1.4729578962104062e-06   -9.199045712771762e-06
-7.370910250658091e-06   1.4729578962104062e-06   -9.199045712771762e-06
-7.370910250658091e-06   1.4729578962104062e-06   -9.199045712771762e-06
-7.365909596686791e-06   2.5610380367591177e-06   -1.7682324272841066e-05
-7.365909596686791e-06   2.5610380367591177e-06   -1.7682324272841066e-05
-7.365909596686791e-06   2.5610380367591177e-06   -1.7682324272841066e-05
-7.365909596686791e-06   2.5610380367591177e-06   -1.7682324272841066e-05
-1.2607177823784584e-05   1.954907740146154e-06   -8.583199049710304e-06
-1.2607177823784584e-05   1.954907740146154e-06   -8.583199049710304e-06
-1.2607177823784584e-05   1.954907740146154e-06   -8.583199049710304e-06
-1.2607177823784584e-05   1.954907740146154e-06   -8.583199049710304e-06
-9.90944504554739e-06   2.0060300605242542e-06   -1.3110093738998973e-05
-9.90944504554739e-06   2.0060300605242542e-06   -1.3110093738998973e-05
-9.90944504554739e-06   2.0060300605242542e-06   -1.3110093738998973e-05
-9.90944504554739e-06   2.0060300605242542e-06   -1.3110093738998973e-05
-1.2607177823784584e-05   2.5610380367591177e-06   -1.7318646094873267e-05
-1.2607177823784584e-05   2.5610380367591177e-06   -1.7318646094873267e-05
-1.2607177823784584e-05   2.5610380367591177e-06   -1.7318646094873267e-05
-1.2607177823784584e-05   2.5610380367591177e-06   -1.7318646094873267e-05
-7.365909596686801e-06   1.954907740146154e-06   -8.946877227678063e-06
-7.365909596686801e-06   1.954907740146154e-06   -8.946877227678063e-06
-7.365909596686801e-06   1.954907740146154e-06   -8.946877227678063e-06
-7.365909596686801e-06   1.954907740146154e-06   -8.946877227678063e-06
-7.372467509236483e-06   3.127008848985305e-06   -1.775398049965577e-05
-7.372467509236483e-06   3.127008848985305e-06   -1.775398049965577e-05
-7.372467509236483e-06   3.127008848985305e-06   -1.775398049965577e-05
-7.372467509236483e-06   3.127008848985305e-06   -1.775398049965577e-05
-1.2569318564308783e-05   2.4795372206651983e-06   -8.704079097543135e-06
-1.2569318564308783e-05   2.4795372206651983e-06   -8.704079097543135e-06
-1.2569318564308783e-05   2.4795372206651983e-06   -8.704079097543135e-06
-1.2569318564308783e-05   2.4795372206651983e-06   -8.704079097543135e-06
-9.974087516039818e-06   2.4375360209125964e-06   -1.3004263458139907e-05
-9.974087516039818e-06   2.4375360209125964e-06   -1.3004263458139907e-05
-9.974087516039818e-06   2.4375360209125964e-06   -1.3004263458139907e-05
-9.974087516039818e-06   2.4375360209125964e-06   -1.3004263458139907e-05
-7.3670239542753164e-06   7.692367204499562e-08   -2.0152968150789253e-05
-7.3670239542753164e-06   7.692367204499562e-08   -2.0152968150789253e-05
-7.3670239542753164e-06   7.692367204499562e-08   -2.0152968150789253e-05
-7.3670239542753164e-06   7.692367204499562e-08   -2.0152968150789253e-05
-2.0530531607349334e-06   1.6587724094535398e-07   -1.1242978020215065e-05
-2.0530531607349334e-06   1.6587724094535398e-07   -1.1242978020215065e-05
-2.0530531607349334e-06   1.6587724094535398e-07   -1.1242978020215065e-05
-2.0530531607349334e-06   1.6587724094535398e-07   -1.1242978020215065e-05
-2.057470348731959e-06   6.651490280091253e-07   -1.9926828055545816e-05
-2.057470348731959e-06   6.651490280091253e-07   -1.9926828055545816e-05
-2.057470348731959e-06   6.651490280091253e-07   -1.9926828055545816e-05
-2.057470348731959e-06   6.651490280091253e-07   -1.9926828055545816e-05
-7.370910250658074e-06   6.983397651332771e-07   -1.1091009327943453e-05
-7.370910250658074e-06   6.983397651332771e-07   -1.1091009327943453e-05
-7.370910250658074e-06   6.983397651332771e-07   -1.1091009327943453e-05
-7.370910250658074e-06   6.983397651332771e-07   -1.1091009327943453e-05
-4.680541118445361e-06   4.7141411534584515e-07   -1.5438802491758853e-05
-4.680541118445361e-06   4.7141411534584515e-07   -1.5438802491758853e-05
-4.680541118445361e-06   4.7141411534584515e-07   -1.5438802491758853e-05
-4.680541118445361e-06   4.7141411534584515e-07   -1.5438802491758853e-05
-7.370910250658074e-06   6.651490280091253e-07   -1.9946742497820296e-05
-7.370910250658074e-06   6.651490280091253e-07   -1.9946742497820296e-05
-7.370910250658074e-06   6.651490280091253e-07   -1.9946742497820296e-05
-7.370910250658074e-06   6.651490280091253e-07   -1.9946742497820296e-05
-2.057470348731959e-06   6.983397651333313e-07   -1.1071094885668905e-05
-2.057470348731959e-06   6.983397651333313e-07   -1.1071094885668905e-05
-2.057470348731959e-06   6.983397651333313e-07   -1.1071094885668905e-05
-2.057470348731959e-06   6.983397651333313e-07   -1.1071094885668905e-05
-2.0508026669968003e-06   1.2517145505714549e-06   -1.9976116769557538e-05
-2.0508026669968003e-06   1.2517145505714549e-06   -1.9976116769557538e-05
-2.0508026669968003e-06   1.2517145505714549e-06   -1.9976116769557538e-05
-2.0508026669968003e-06   1.2517145505714549e-06   -1.9976116769557538e-05
-7.365909596686791e-06   1.2325226967818442e-06   -1.1106090107800424e-05
-7.365909596686791e-06   1.2325226967818442e-06   -1.1106090107800424e-05
-7.365909596686791e-06   1.2325226967818442e-06   -1.1106090107800424e-05
-7.365909596686791e-06   1.2325226967818442e-06   -1.1106090107800424e-05
-4.712265760520656e-06   9.37867956434977e-07   -1.535203699053579e-05
-4.712265760520656e-06   9.37867956434977e-07   -1.535203699053579e-05
-4.712265760520656e-06   9.37867956434977e-07   -1.535203699053579e-05
-4.712265760520656e-06   9.37867956434977e-07   -1.535203699053579e-05
-7.365909596686791e-06   1.2517145505714549e-06   -1.9964601657283755e-05
-7.365909596686791e-06   1.2517145505714549e-06   -1.9964601657283755e-05
-7.365909596686791e-06   1.2517145505714549e-06   -1.9964601657283755e-05
-7.365909596686791e-06   1.2517145505714549e-06   -1.9964601657283755e-05
-2.0508026669968003e-06   1.2325226967818442e-06   -1.1117605220074166e-05
-2.0508026669968003e-06   1.2325226967818442e-06   -1.1117605220074166e-05
-2.0508026669968003e-06   1.2325226967818442e-06   -1.1117605220074166e-05
-2.0508026669968003e-06   1.2325226967818442e-06   -1.1117605220074166e-05
-2.0541991216970508e-06   1.8518151353099244e-06   -2.0277824194679027e-05
-2.0541991216970508e-06   1.8518151353099244e-06   -2.0277824194679027e-05
-2.0541991216970508e-06   1.8518151353099244e-06   -2.0277824194679027e-05
-2.0541991216970508e-06   1.8518151353099244e-06   -2.0277824194679027e-05
-7.372467509236493e-06   1.7760446283607853e-06   -1.136858124461043e-05
-7.372467509236493e-06   1.7760446283607853e-06   -1.136858124461043e-05
-7.372467509236493e-06   1.7760446283607853e-06   -1.136858124461043e-05
-7.372467509236493e-06   1.7760446283607853e-06   -1.136858124461043e-05
-4.753150410644539e-06   1.4104573158130683e-06   -1.5514757354735025e-05
-4.753150410644539e-06   1.4104573158130683e-06   -1.5514757354735025e-05
-4.753150410644539e-06   1.4104573158130683e-06   -1.5514757354735025e-05
-4.753150410644539e-06   1.4104573158130683e-06   -1.5514757354735025e-05
-2.05305316073493e-06   -1.1985105409102997e-06   -1.7837090682017707e-05
-2.05305316073493e-06   -1.1985105409102997e-06   -1.7837090682017707e-05
-2.05305316073493e-06   -1.1985105409102997e-06   -1.7837090682017707e-05
-2.05305316073493e-06   -1.1985105409102997e-06   -1.7837090682017707e-05
3.1761158859633194e-06   -5.453094396373954e-07   -8.729888276756855e-06
3.1761158859633194e-06   -5.453094396373954e-07   -8.729888276756855e-06
3.1761158859633194e-06   -5.453094396373954e-07   -8.729888276756855e-06
3.1761158859633194e-06   -5.453094396373954e-07   -8.729888276756855e-06
3.2185436903973453e-06   -6.580333730166774e-07   -1.742610769855818e-05
3.2185436903973453e-06   -6.580333730166774e-07   -1.742610769855818e-05
3.2185436903973453e-06   -6.580333730166774e-07   -1.742610769855818e-05
3.2185436903973453e-06   -6.580333730166774e-07   -1.742610769855818e-05
-2.0574703487319557e-06   -4.261533896078584e-08   -9.002001787109561e-06
-2.0574703487319557e-06   -4.261533896078584e-08   -9.002001787109561e-06
-2.0574703487319557e-06   -4.261533896078584e-08   -9.002001787109561e-06
-2.0574703487319557e-06   -4.261533896078584e-08   -9.002001787109561e-06
5.751405606263002e-07   -5.646619590669779e-07   -1.3076458663976294e-05
5.751405606263002e-07   -5.646619590669779e-07   -1.3076458663976294e-05
5.751405606263002e-07   -5.646619590669779e-07   -1.3076458663976294e-05
5.751405606263002e-07   -5.646619590669779e-07   -1.3076458663976294e-05
-2.057470348731959e-06   -6.580333730166774e-07   -1.7795358518991758e-05
-2.057470348731959e-06   -6.580333730166774e-07   -1.7795358518991758e-05
-2.057470348731959e-06   -6.580333730166774e-07   -1.7795358518991758e-05
-2.057470348731959e-06   -6.580333730166774e-07   -1.7795358518991758e-05
3.2185436903973453e-06   -4.261533896078584e-08   -8.632750966675951e-06
3.2185436903973453e-06   -4.261533896078584e-08   -8.632750966675951e-06
3.2185436903973453e-06   -4.261533896078584e-08   -8.632750966675951e-06
3.2185436903973453e-06   -4.261533896078584e-08   -8.632750966675951e-06
3.320419317492304e-06   -1.2805193794378287e-07   -1.7789180389799983e-05
3.320419317492304e-06   -1.2805193794378287e-07   -1.7789180389799983e-05
3.320419317492304e-06   -1.2805193794378287e-07   -1.7789180389799983e-05
3.320419317492304e-06   -1.2805193794378287e-07   -1.7789180389799983e-05
-2.0508026669967973e-06   4.399135596066259e-07   -9.177923047515064e-06
-2.0508026669967973e-06   4.399135596066259e-07   -9.177923047515064e-06
-2.0508026669967973e-06   4.399135596066259e-07   -9.177923047515064e-06
-2.0508026669967973e-06   4.399135596066259e-07   -9.177923047515064e-06
5.444714460889124e-07   -1.4621910812240117e-07   -1.3151700302020437e-05
5.444714460889124e-07   -1.4621910812240117e-07   -1.3151700302020437e-05
5.444714460889124e-07   -1.4621910812240117e-07   -1.3151700302020437e-05
5.444714460889124e-07   -1.4621910812240117e-07   -1.3151700302020437e-05
-2.050802666996799e-06   -1.2805193794378287e-07   -1.8129959688330163e-05
-2.050802666996799e-06   -1.2805193794378287e-07   -1.8129959688330163e-05
-2.050802666996799e-06   -1.2805193794378287e-07   -1.8129959688330163e-05
-2.050802666996799e-06   -1.2805193794378287e-07   -1.8129959688330163e-05
3.320419317492304e-06   4.399135596066259e-07   -8.837143748984758e-06
3.320419317492304e-06   4.399135596066259e-07   -8.837143748984758e-06
3.320419317492304e-06   4.399135596066259e-07   -8.837143748984758e-06
3.320419317492304e-06   4.399135596066259e-07   -8.837143748984758e-06
3.3707574235666187e-06   4.904569415061888e-07   -1.8313209710918823e-05
3.3707574235666187e-06   4.904569415061888e-07   -1.8313209710918823e-05
3.3707574235666187e-06   4.904569415061888e-07   -1.8313209710918823e-05
3.3707574235666187e-06   4.904569415061888e-07   -1.8313209710918823e-05
-2.0541991216970508e-06   9.91750311381105e-07   -9.57239149073759e-06
-2.0541991216970508e-06   9.91750311381105e-07   -9.57239149073759e-06
-2.0541991216970508e-06   9.91750311381105e-07   -9.57239149073759e-06
-2.0541991216970508e-06   9.91750311381105e-07   -9.57239149073759e-06
5.621857410146665e-07   3.001375864857773e-07   -1.3518065293653247e-05
5.621857410146665e-07   3.001375864857773e-07   -1.3518065293653247e-05
5.621857410146665e-07   3.001375864857773e-07   -1.3518065293653247e-05
5.621857410146665e-07   3.001375864857773e-07   -1.3518065293653247e-05
3.1761158859633194e-06   -2.16543687355734e-06   -9.78283691656644e-06
3.1761158859633194e-06   -2.16543687355734e-06   -9.78283691656644e-06
3.1761158859633194e-06   -2.16543687355734e-06   -9.78283691656644e-06
3.1761158859633194e-06   -2.16543687355734e-06   -9.78283691656644e-06
7.792328514124821e-06   -9.95362634239206e-07   -1.3871046593730654e-06
7.792328514124821e-06   -9.95362634239206e-07   -1.3871046593730654e-06
7.792328514124821e-06   -9.95362634239206e-07   -1.3871046593730654e-06
7.792328514124821e-06   -9.95362634239206e-07   -1.3871046593730654e-06
8.350610024939931e-06   -1.8519407681421055e-06   -1.0249992269417921e-05
8.350610024939931e-06   -1.8519407681421055e-06   -1.0249992269417921e-05
8.350610024939931e-06   -1.8519407681421055e-06   -1.0249992269417921e-05
8.350610024939931e-06   -1.8519407681421055e-06   -1.0249992269417921e-05
3.2185436903973453e-06   -6.533669873153014e-07   -2.415692647009704e-06
3.2185436903973453e-06   -6.533669873153014e-07   -2.415692647009704e-06
3.2185436903973453e-06   -6.533669873153014e-07   -2.415692647009704e-06
3.2185436903973453e-06   -6.533669873153014e-07   -2.415692647009704e-06
5.394149668033724e-06   -1.3723924831762486e-06   -5.610287312220438e-06
5.394149668033724e-06   -1.3723924831762486e-06   -5.610287312220438e-06
5.394149668033724e-06   -1.3723924831762486e-06   -5.610287312220438e-06
5.394149668033724e-06   -1.3723924831762486e-06   -5.610287312220438e-06
3.2185436903973453e-06   -1.8519407681421055e-06   -1.0969136537913946e-05
3.2185436903973453e-06   -1.8519407681421055e-06   -1.0969136537913946e-05
3.2185436903973453e-06   -1.8519407681421055e-06   -1.0969136537913946e-05
3.2185436903973453e-06   -1.8519407681421055e-06   -1.0969136537913946e-05
8.350610024939931e-06   -6.533669873153014e-07   -1.6965483785135837e-06
8.350610024939931e-06   -6.533669873153014e-07   -1.6965483785135837e-06
8.350610024939931e-06   -6.533669873153014e-07   -1.6965483785135837e-06
8.350610024939931e-06   -6.533669873153014e-07   -1.6965483785135837e-06
8.781549454814366e-06   -1.585421805819703e-06   -1.1232512539971202e-05
8.781549454814366e-06   -1.585421805819703e-06   -1.1232512539971202e-05
8.781549454814366e-06   -1.585421805819703e-06   -1.1232512539971202e-05
8.781549454814366e-06   -1.585421805819703e-06   -1.1232512539971202e-05
3.320419317492304e-06   -4.186098845719035e-07   -2.830716130516444e-06
3.320419317492304e-06   -4.186098845719035e-07   -2.830716130516444e-06
3.320419317492304e-06   -4.186098845719035e-07   -2.830716130516444e-06
3.320419317492304e-06   -4.186098845719035e-07   -2.830716130516444e-06
5.732926395245338e-06   -1.1961607960271213e-06   -6.385030713231641e-06
5.732926395245338e-06   -1.1961607960271213e-06   -6.385030713231641e-06
5.732926395245338e-06   -1.1961607960271213e-06   -6.385030713231641e-06
5.732926395245338e-06   -1.1961607960271213e-06   -6.385030713231641e-06
3.320419317492304e-06   -1.585421805819703e-06   -1.1932599692719915e-05
3.320419317492304e-06   -1.585421805819703e-06   -1.1932599692719915e-05
3.320419317492304e-06   -1.585421805819703e-06   -1.1932599692719915e-05
3.320419317492304e-06   -1.585421805819703e-06   -1.1932599692719915e-05
8.781549454814366e-06   -4.186098845719035e-07   -2.1306289777676913e-06
8.781549454814366e-06   -4.186098845719035e-07   -2.1306289777676913e-06
8.781549454814366e-06   -4.186098845719035e-07   -2.1306289777676913e-06
8.781549454814366e-06   -4.186098845719035e-07   -2.1306289777676913e-06
9.355975267188522e-06   -1.0179944647303657e-06   -1.3123318738874585e-05
9.355975267188522e-06   -1.0179944647303657e-06   -1.3123318738874585e-05
9.355975267188522e-06   -1.0179944647303657e-06   -1.3123318738874585e-05
9.355975267188522e-06   -1.0179944647303657e-06   -1.3123318738874585e-05
3.3707574235666255e-06   4.033741625371649e-08   -3.7829547947618343e-06
3.3707574235666255e-06   4.033741625371649e-08   -3.7829547947618343e-06
3.3707574235666255e-06   4.033741625371649e-08   -3.7829547947618343e-06
3.3707574235666255e-06   4.033741625371649e-08   -3.7829547947618343e-06
5.849898998982297e-06   -9.375898588536097e-07   -7.328101055390247e-06
5.849898998982297e-06   -9.375898588536097e-07   -7.328101055390247e-06
5.849898998982297e-06   -9.375898588536097e-07   -7.328101055390247e-06
5.849898998982297e-06   -9.375898588536097e-07   -7.328101055390247e-06
-1.1234774023486277e-05   1.8167793007109554e-06   -1.0577367066939456e-05
-1.1234774023486277e-05   1.8167793007109554e-06   -1.0577367066939456e-05
-1.1234774023486277e-05   1.8167793007109554e-06   -1.0577367066939456e-05
-1.1234774023486277e-05   1.8167793007109554e-06   -1.0577367066939456e-05
-8.338612008374941e-06   7.3301609324766e-07   -6.4006882995652314e-06
-8.338612008374941e-06   7.3301609324766e-07   -6.4006882995652314e-06
-8.338612008374941e-06   7.3301609324766e-07   -6.4006882995652314e-06
-8.338612008374941e-06   7.3301609324766e-07   -6.4006882995652314e-06
-8.21835915308189e-06   2.3166044367818584e-06   -9.331427546149752e-06
-8.21835915308189e-06   2.3166044367818584e-06   -9.331427546149752e-06
-8.21835915308189e-06   2.3166044367818584e-06   -9.331427546149752e-06
-8.21835915308189e-06   2.3166044367818584e-06   -9.331427546149752e-06
-1.0618992661520635e-05   1.1473808059980707e-06   -4.6288375202814904e-06
-1.0618992661520635e-05   1.1473808059980707e-06   -4.6288375202814904e-06
-1.0618992661520635e-05   1.1473808059980707e-06   -4.6288375202814904e-06
-1.0618992661520635e-05   1.1473808059980707e-06   -4.6288375202814904e-06
-9.195971295875282e-06   1.631098990490811e-06   -7.290770707053183e-06
-9.195971295875282e-06   1.631098990490811e-06   -7.290770707053183e-06
-9.195971295875282e-06   1.631098990490811e-06   -7.290770707053183e-06
-9.195971295875282e-06   1.631098990490811e-06   -7.290770707053183e-06
-1.0618992661520635e-05   2.3166044367818584e-06   -8.629893367679517e-06
-1.0618992661520635e-05   2.3166044367818584e-06   -8.629893367679517e-06
-1.0618992661520635e-05   2.3166044367818584e-06   -8.629893367679517e-06
-1.0618992661520635e-05   2.3166044367818584e-06   -8.629893367679517e-06
-8.218359153081903e-06   1.1473808059980707e-06   -5.3303716987518335e-06
-8.218359153081903e-06   1.1473808059980707e-06   -5.3303716987518335e-06
-8.218359153081903e-06   1.1473808059980707e-06   -5.3303716987518335e-06
-8.218359153081903e-06   1.1473808059980707e-06   -5.3303716987518335e-06
-8.045995481696663e-06   2.5505921377178e-06   -8.331450295111567e-06
-8.045995481696663e-06   2.5505921377178e-06   -8.331450295111567e-06
-8.045995481696663e-06   2.5505921377178e-06   -8.331450295111567e-06
-8.045995481696663e-06   2.5505921377178e-06   -8.331450295111567e-06
-1.0129950265014244e-05   1.3580872244478483e-06   -4.142689374953635e-06
-1.0129950265014244e-05   1.3580872244478483e-06   -4.142689374953635e-06
-1.0129950265014244e-05   1.3580872244478483e-06   -4.142689374953635e-06
-1.0129950265014244e-05   1.3580872244478483e-06   -4.142689374953635e-06
-9.03475124138193e-06   1.855237430426599e-06   -6.266311204594806e-06
-9.03475124138193e-06   1.855237430426599e-06   -6.266311204594806e-06
-9.03475124138193e-06   1.855237430426599e-06   -6.266311204594806e-06
-9.03475124138193e-06   1.855237430426599e-06   -6.266311204594806e-06
-1.012995026501423e-05   2.5505921377178e-06   -7.615947347149607e-06
-1.012995026501423e-05   2.5505921377178e-06   -7.615947347149607e-06
-1.012995026501423e-05   2.5505921377178e-06   -7.615947347149607e-06
-1.012995026501423e-05   2.5505921377178e-06   -7.615947347149607e-06
-8.045995481696677e-06   1.3580872244478483e-06   -4.858192322915568e-06
-8.045995481696677e-06   1.3580872244478483e-06   -4.858192322915568e-06
-8.045995481696677e-06   1.3580872244478483e-06   -4.858192322915568e-06
-8.045995481696677e-06   1.3580872244478483e-06   -4.858192322915568e-06
-7.93049308163653e-06   2.8465277430462913e-06   -7.051526930315459e-06
-7.93049308163653e-06   2.8465277430462913e-06   -7.051526930315459e-06
-7.93049308163653e-06   2.8465277430462913e-06   -7.051526930315459e-06
-7.93049308163653e-06   2.8465277430462913e-06   -7.051526930315459e-06
-9.507748238394043e-06   1.692519003951168e-06   -3.730363092262467e-06
-9.507748238394043e-06   1.692519003951168e-06   -3.730363092262467e-06
-9.507748238394043e-06   1.692519003951168e-06   -3.730363092262467e-06
-9.507748238394043e-06   1.692519003951168e-06   -3.730363092262467e-06
-8.614006199052836e-06   2.01275619254209e-06   -5.412075470985982e-06
-8.614006199052836e-06   2.01275619254209e-06   -5.412075470985982e-06
-8.614006199052836e-06   2.01275619254209e-06   -5.412075470985982e-06
-8.614006199052836e-06   2.01275619254209e-06   -5.412075470985982e-06
-8.338612008374941e-06   9.445185882566028e-07   -1.5487206785329375e-05
-8.338612008374941e-06   9.445185882566028e-07   -1.5487206785329375e-05
-8.338612008374941e-06   9.445185882566028e-07   -1.5487206785329375e-05
-8.338612008374941e-06   9.445185882566028e-07   -1.5487206785329375e-05
-5.980151804556603e-06   4.281130493992316e-07   -1.1866283102279898e-05
-5.980151804556603e-06   4.281130493992316e-07   -1.1866283102279898e-05
-5.980151804556603e-06   4.281130493992316e-07   -1.1866283102279898e-05
-5.980151804556603e-06   4.281130493992316e-07   -1.1866283102279898e-05
-5.903063305265565e-06   1.4729578962104062e-06   -1.5433808057649953e-05
-5.903063305265565e-06   1.4729578962104062e-06   -1.5433808057649953e-05
-5.903063305265565e-06   1.4729578962104062e-06   -1.5433808057649953e-05
-5.903063305265565e-06   1.4729578962104062e-06   -1.5433808057649953e-05
-8.21835915308193e-06   9.039834373965826e-07   -1.1233596969334296e-05
-8.21835915308193e-06   9.039834373965826e-07   -1.1233596969334296e-05
-8.21835915308193e-06   9.039834373965826e-07   -1.1233596969334296e-05
-8.21835915308193e-06   9.039834373965826e-07   -1.1233596969334296e-05
-7.040666577101418e-06   1.0305397383026174e-06   -1.3272351709845754e-05
-7.040666577101418e-06   1.0305397383026174e-06   -1.3272351709845754e-05
-7.040666577101418e-06   1.0305397383026174e-06   -1.3272351709845754e-05
-7.040666577101418e-06   1.0305397383026174e-06   -1.3272351709845754e-05
-8.21835915308189e-06   1.4729578962104062e-06   -1.509242338236161e-05
-8.21835915308189e-06   1.4729578962104062e-06   -1.509242338236161e-05
-8.21835915308189e-06   1.4729578962104062e-06   -1.509242338236161e-05
-8.21835915308189e-06   1.4729578962104062e-06   -1.509242338236161e-05
-5.9030633052655716e-06   9.039834373965826e-07   -1.157498164462272e-05
-5.9030633052655716e-06   9.039834373965826e-07   -1.157498164462272e-05
-5.9030633052655716e-06   9.039834373965826e-07   -1.157498164462272e-05
-5.9030633052655716e-06   9.039834373965826e-07   -1.157498164462272e-05
-5.817700695562758e-06   1.9549077401461e-06   -1.5183976483849556e-05
-5.817700695562758e-06   1.9549077401461e-06   -1.5183976483849556e-05
-5.817700695562758e-06   1.9549077401461e-06   -1.5183976483849556e-05
-5.817700695562758e-06   1.9549077401461e-06   -1.5183976483849556e-05
-8.04599548169669e-06   1.3476007001183492e-06   -1.110576761627623e-05
-8.04599548169669e-06   1.3476007001183492e-06   -1.110576761627623e-05
-8.04599548169669e-06   1.3476007001183492e-06   -1.110576761627623e-05
-8.04599548169669e-06   1.3476007001183492e-06   -1.110576761627623e-05
-6.938430932648398e-06   1.4165302567330684e-06   -1.299306626532545e-05
-6.938430932648398e-06   1.4165302567330684e-06   -1.299306626532545e-05
-6.938430932648398e-06   1.4165302567330684e-06   -1.299306626532545e-05
-6.938430932648398e-06   1.4165302567330684e-06   -1.299306626532545e-05
-8.045995481696663e-06   1.954907740146154e-06   -1.481959225983282e-05
-8.045995481696663e-06   1.954907740146154e-06   -1.481959225983282e-05
-8.045995481696663e-06   1.954907740146154e-06   -1.481959225983282e-05
-8.045995481696663e-06   1.954907740146154e-06   -1.481959225983282e-05
-5.817700695562745e-06   1.3476007001184034e-06   -1.1470151840292886e-05
-5.817700695562745e-06   1.3476007001184034e-06   -1.1470151840292886e-05
-5.817700695562745e-06   1.3476007001184034e-06   -1.1470151840292886e-05
-5.817700695562745e-06   1.3476007001184034e-06   -1.1470151840292886e-05
-5.742428651134546e-06   2.4795372206651983e-06   -1.5331367672591367e-05
-5.742428651134546e-06   2.4795372206651983e-06   -1.5331367672591367e-05
-5.742428651134546e-06   2.4795372206651983e-06   -1.5331367672591367e-05
-5.742428651134546e-06   2.4795372206651983e-06   -1.5331367672591367e-05
-7.930493081636557e-06   1.8416443125996232e-06   -1.1301857876915223e-05
-7.930493081636557e-06   1.8416443125996232e-06   -1.1301857876915223e-05
-7.930493081636557e-06   1.8416443125996232e-06   -1.1301857876915223e-05
-7.930493081636557e-06   1.8416443125996232e-06   -1.1301857876915223e-05
-6.900685501957632e-06   1.808724735167936e-06   -1.2998452096587909e-05
-6.900685501957632e-06   1.808724735167936e-06   -1.2998452096587909e-05
-6.900685501957632e-06   1.808724735167936e-06   -1.2998452096587909e-05
-6.900685501957632e-06   1.808724735167936e-06   -1.2998452096587909e-05
-5.980151804556583e-06   1.6587724094535398e-07   -1.7526578748923102e-05
-5.980151804556583e-06   1.6587724094535398e-07   -1.7526578748923102e-05
-5.980151804556583e-06   1.6587724094535398e-07   -1.7526578748923102e-05
-5.980151804556583e-06   1.6587724094535398e-07   -1.7526578748923102e-05
-3.6774438025734786e-06   2.50184589380652e-07   -1.3638147669890185e-05
-3.6774438025734786e-06   2.50184589380652e-07   -1.3638147669890185e-05
-3.6774438025734786e-06   2.50184589380652e-07   -1.3638147669890185e-05
-3.6774438025734786e-06   2.50184589380652e-07   -1.3638147669890185e-05
-3.602710111143504e-06   6.983397651332771e-07   -1.7303092442180518e-05
-3.602710111143504e-06   6.983397651332771e-07   -1.7303092442180518e-05
-3.602710111143504e-06   6.983397651332771e-07   -1.7303092442180518e-05
-3.602710111143504e-06   6.983397651332771e-07   -1.7303092442180518e-05
-5.903063305265565e-06   7.361384828686603e-07   -1.3491849682618098e-05
-5.903063305265565e-06   7.361384828686603e-07   -1.3491849682618098e-05
-5.903063305265565e-06   7.361384828686603e-07   -1.3491849682618098e-05
-5.903063305265565e-06   7.361384828686603e-07   -1.3491849682618098e-05
-4.759990370598913e-06   5.310121274048328e-07   -1.527389542711789e-05
-4.759990370598913e-06   5.310121274048328e-07   -1.527389542711789e-05
-4.759990370598913e-06   5.310121274048328e-07   -1.527389542711789e-05
-4.759990370598913e-06   5.310121274048328e-07   -1.527389542711789e-05
-5.903063305265551e-06   6.983397651333313e-07   -1.7325771672821618e-05
-5.903063305265551e-06   6.983397651333313e-07   -1.7325771672821618e-05
-5.903063305265551e-06   6.983397651333313e-07   -1.7325771672821618e-05
-5.903063305265551e-06   6.983397651333313e-07   -1.7325771672821618e-05
-3.602710111143504e-06   7.361384828686603e-07   -1.3469170451976971e-05
-3.602710111143504e-06   7.361384828686603e-07   -1.3469170451976971e-05
-3.602710111143504e-06   7.361384828686603e-07   -1.3469170451976971e-05
-3.602710111143504e-06   7.361384828686603e-07   -1.3469170451976971e-05
-3.5179111998955344e-06   1.2325226967818442e-06   -1.7346928157136224e-05
-3.5179111998955344e-06   1.2325226967818442e-06   -1.7346928157136224e-05
-3.5179111998955344e-06   1.2325226967818442e-06   -1.7346928157136224e-05
-3.5179111998955344e-06   1.2325226967818442e-06   -1.7346928157136224e-05
-5.817700695562758e-06   1.2262913748413602e-06   -1.3510206871193147e-05
-5.817700695562758e-06   1.2262913748413602e-06   -1.3510206871193147e-05
-5.817700695562758e-06   1.2262913748413602e-06   -1.3510206871193147e-05
-5.817700695562758e-06   1.2262913748413602e-06   -1.3510206871193147e-05
-4.711063040391827e-06   9.494002379491001e-07   -1.5188468281009297e-05
-4.711063040391827e-06   9.494002379491001e-07   -1.5188468281009297e-05
-4.711063040391827e-06   9.494002379491001e-07   -1.5188468281009297e-05
-4.711063040391827e-06   9.494002379491001e-07   -1.5188468281009297e-05
-5.817700695562738e-06   1.2325226967818442e-06   -1.7343189363971836e-05
-5.817700695562738e-06   1.2325226967818442e-06   -1.7343189363971836e-05
-5.817700695562738e-06   1.2325226967818442e-06   -1.7343189363971836e-05
-5.817700695562738e-06   1.2325226967818442e-06   -1.7343189363971836e-05
-3.5179111998955344e-06   1.2262913748413602e-06   -1.351394566435744e-05
-3.5179111998955344e-06   1.2262913748413602e-06   -1.351394566435744e-05
-3.5179111998955344e-06   1.2262913748413602e-06   -1.351394566435744e-05
-3.5179111998955344e-06   1.2262913748413602e-06   -1.351394566435744e-05
-3.441932767032695e-06   1.7760446283608395e-06   -1.7638668258760227e-05
-3.441932767032695e-06   1.7760446283608395e-06   -1.7638668258760227e-05
-3.441932767032695e-06   1.7760446283608395e-06   -1.7638668258760227e-05
-3.441932767032695e-06   1.7760446283608395e-06   -1.7638668258760227e-05
-5.742428651134546e-06   1.7239089348715115e-06   -1.3773227035830123e-05
-5.742428651134546e-06   1.7239089348715115e-06   -1.3773227035830123e-05
-5.742428651134546e-06   1.7239089348715115e-06   -1.3773227035830123e-05
-5.742428651134546e-06   1.7239089348715115e-06   -1.3773227035830123e-05
-4.671332053825612e-06   1.3733715906027858e-06   -1.5348065624783923e-05
-4.671332053825612e-06   1.3733715906027858e-06   -1.5348065624783923e-05
-4.671332053825612e-06   1.3733715906027858e-06   -1.5348065624783923e-05
-4.671332053825612e-06   1.3733715906027858e-06   -1.5348065624783923e-05
-3.677443802573466e-06   -5.453094396373954e-07   -1.535482525716751e-05
-3.677443802573466e-06   -5.453094396373954e-07   -1.535482525716751e-05
-3.677443802573466e-06   -5.453094396373954e-07   -1.535482525716751e-05
-3.677443802573466e-06   -5.453094396373954e-07   -1.535482525716751e-05
-1.4530554405532386e-06   1.1561617296418185e-07   -1.1250955952906273e-05
-1.4530554405532386e-06   1.1561617296418185e-07   -1.1250955952906273e-05
-1.4530554405532386e-06   1.1561617296418185e-07   -1.1250955952906273e-05
-1.4530554405532386e-06   1.1561617296418185e-07   -1.1250955952906273e-05
-1.3396708990726878e-06   -4.261533896078584e-08   -1.4856035212809442e-05
-1.3396708990726878e-06   -4.261533896078584e-08   -1.4856035212809442e-05
-1.3396708990726878e-06   -4.261533896078584e-08   -1.4856035212809442e-05
-1.3396708990726878e-06   -4.261533896078584e-08   -1.4856035212809442e-05
-3.6027101111434977e-06   5.873248790585778e-07   -1.1462267323502913e-05
-3.6027101111434977e-06   5.873248790585778e-07   -1.1462267323502913e-05
-3.6027101111434977e-06   5.873248790585778e-07   -1.1462267323502913e-05
-3.6027101111434977e-06   5.873248790585778e-07   -1.1462267323502913e-05
-2.49273955881246e-06   7.775766985845941e-08   -1.3006477918534795e-05
-2.49273955881246e-06   7.775766985845941e-08   -1.3006477918534795e-05
-2.49273955881246e-06   7.775766985845941e-08   -1.3006477918534795e-05
-2.49273955881246e-06   7.775766985845941e-08   -1.3006477918534795e-05
-3.6027101111434914e-06   -4.261533896078584e-08   -1.5233999343621006e-05
-3.6027101111434914e-06   -4.261533896078584e-08   -1.5233999343621006e-05
-3.6027101111434914e-06   -4.261533896078584e-08   -1.5233999343621006e-05
-3.6027101111434914e-06   -4.261533896078584e-08   -1.5233999343621006e-05
-1.3396708990726878e-06   5.873248790585778e-07   -1.1084303192691349e-05
-1.3396708990726878e-06   5.873248790585778e-07   -1.1084303192691349e-05
-1.3396708990726878e-06   5.873248790585778e-07   -1.1084303192691349e-05
-1.3396708990726878e-06   5.873248790585778e-07   -1.1084303192691349e-05
-1.168530822267394e-06   4.399135596066259e-07   -1.5052674533923716e-05
-1.168530822267394e-06   4.399135596066259e-07   -1.5052674533923716e-05
-1.168530822267394e-06   4.399135596066259e-07   -1.5052674533923716e-05
-1.168530822267394e-06   4.399135596066259e-07   -1.5052674533923716e-05
-3.5179111998955284e-06   1.0308659773622018e-06   -1.1491612021863411e-05
-3.5179111998955284e-06   1.0308659773622018e-06   -1.1491612021863411e-05
-3.5179111998955284e-06   1.0308659773622018e-06   -1.1491612021863411e-05
-3.5179111998955284e-06   1.0308659773622018e-06   -1.1491612021863411e-05
-2.4250195323168058e-06   4.5919496732452865e-07   -1.297009552847202e-05
-2.4250195323168058e-06   4.5919496732452865e-07   -1.297009552847202e-05
-2.4250195323168058e-06   4.5919496732452865e-07   -1.297009552847202e-05
-2.4250195323168058e-06   4.5919496732452865e-07   -1.297009552847202e-05
-3.517911199895519e-06   4.399135596066259e-07   -1.5407245984576915e-05
-3.517911199895519e-06   4.399135596066259e-07   -1.5407245984576915e-05
-3.517911199895519e-06   4.399135596066259e-07   -1.5407245984576915e-05
-3.517911199895519e-06   4.399135596066259e-07   -1.5407245984576915e-05
-1.1685308222673872e-06   1.0308659773621475e-06   -1.1137040571210113e-05
-1.1685308222673872e-06   1.0308659773621475e-06   -1.1137040571210113e-05
-1.1685308222673872e-06   1.0308659773621475e-06   -1.1137040571210113e-05
-1.1685308222673872e-06   1.0308659773621475e-06   -1.1137040571210113e-05
-1.0495157361160818e-06   9.91750311381105e-07   -1.547337482662981e-05
-1.0495157361160818e-06   9.91750311381105e-07   -1.547337482662981e-05
-1.0495157361160818e-06   9.91750311381105e-07   -1.547337482662981e-05
-1.0495157361160818e-06   9.91750311381105e-07   -1.547337482662981e-05
-3.441932767032701e-06   1.5311526015279135e-06   -1.1809654482523463e-05
-3.441932767032701e-06   1.5311526015279135e-06   -1.1809654482523463e-05
-3.441932767032701e-06   1.5311526015279135e-06   -1.1809654482523463e-05
-3.441932767032701e-06   1.5311526015279135e-06   -1.1809654482523463e-05
-2.354637824888765e-06   8.577366695689827e-07   -1.3217763160254703e-05
-2.354637824888765e-06   8.577366695689827e-07   -1.3217763160254703e-05
-2.354637824888765e-06   8.577366695689827e-07   -1.3217763160254703e-05
-2.354637824888765e-06   8.577366695689827e-07   -1.3217763160254703e-05
-1.4530554405532386e-06   -9.953626342391517e-07   -8.317530815813676e-06
-1.4530554405532386e-06   -9.953626342391517e-07   -8.317530815813676e-06
-1.4530554405532386e-06   -9.953626342391517e-07   -8.317530815813676e-06
-1.4530554405532386e-06   -9.953626342391517e-07   -8.317530815813676e-06
1.5646751842959925e-07   1.7001734062402005e-07   -4.935764565924372e-06
1.5646751842959925e-07   1.7001734062402005e-07   -4.935764565924372e-06
1.5646751842959925e-07   1.7001734062402005e-07   -4.935764565924372e-06
1.5646751842959925e-07   1.7001734062402005e-07   -4.935764565924372e-06
7.728777557614925e-07   -6.533669873153014e-07   -7.920511630002001e-06
7.728777557614925e-07   -6.533669873153014e-07   -7.920511630002001e-06
7.728777557614925e-07   -6.533669873153014e-07   -7.920511630002001e-06
7.728777557614925e-07   -6.533669873153014e-07   -7.920511630002001e-06
-1.3396708990726878e-06   5.440751179198598e-07   -5.1180624684193e-06
-1.3396708990726878e-06   5.440751179198598e-07   -5.1180624684193e-06
-1.3396708990726878e-06   5.440751179198598e-07   -5.1180624684193e-06
-1.3396708990726878e-06   5.440751179198598e-07   -5.1180624684193e-06
-4.513752766232326e-07   -1.8438650530288453e-07   -6.161478198568279e-06
-4.513752766232326e-07   -1.8438650530288453e-07   -6.161478198568279e-06
-4.513752766232326e-07   -1.8438650530288453e-07   -6.161478198568279e-06
-4.513752766232326e-07   -1.8438650530288453e-07   -6.161478198568279e-06
-1.339670899072681e-06   -6.533669873153014e-07   -8.638976893143006e-06
-1.339670899072681e-06   -6.533669873153014e-07   -8.638976893143006e-06
-1.339670899072681e-06   -6.533669873153014e-07   -8.638976893143006e-06
-1.339670899072681e-06   -6.533669873153014e-07   -8.638976893143006e-06
7.728777557614925e-07   5.440751179198056e-07   -4.3995972052783224e-06
7.728777557614925e-07   5.440751179198056e-07   -4.3995972052783224e-06
7.728777557614925e-07   5.440751179198056e-07   -4.3995972052783224e-06
7.728777557614925e-07   5.440751179198056e-07   -4.3995972052783224e-06
1.2600127891122966e-06   -4.186098845719035e-07   -8.342793772979172e-06
1.2600127891122966e-06   -4.186098845719035e-07   -8.342793772979172e-06
1.2600127891122966e-06   -4.186098845719035e-07   -8.342793772979172e-06
1.2600127891122966e-06   -4.186098845719035e-07   -8.342793772979172e-06
-1.168530822267394e-06   7.53812019555042e-07   -4.9986742298224534e-06
-1.168530822267394e-06   7.53812019555042e-07   -4.9986742298224534e-06
-1.168530822267394e-06   7.53812019555042e-07   -4.9986742298224534e-06
-1.168530822267394e-06   7.53812019555042e-07   -4.9986742298224534e-06
-1.424173309509754e-07   -4.201735888257133e-09   -6.254055128750467e-06
-1.424173309509754e-07   -4.201735888257133e-09   -6.254055128750467e-06
-1.424173309509754e-07   -4.201735888257133e-09   -6.254055128750467e-06
-1.424173309509754e-07   -4.201735888257133e-09   -6.254055128750467e-06
-1.1685308222673872e-06   -4.1860988457184927e-07   -9.046246915455307e-06
-1.1685308222673872e-06   -4.1860988457184927e-07   -9.046246915455307e-06
-1.1685308222673872e-06   -4.1860988457184927e-07   -9.046246915455307e-06
-1.1685308222673872e-06   -4.1860988457184927e-07   -9.046246915455307e-06
1.2600127891122966e-06   7.53812019555042e-07   -4.2952210873462644e-06
1.2600127891122966e-06   7.53812019555042e-07   -4.2952210873462644e-06
1.2600127891122966e-06   7.53812019555042e-07   -4.2952210873462644e-06
1.2600127891122966e-06   7.53812019555042e-07   -4.2952210873462644e-06
1.877240846249556e-06   4.033741625371649e-08   -9.335235970983304e-06
1.877240846249556e-06   4.033741625371649e-08   -9.335235970983304e-06
1.877240846249556e-06   4.033741625371649e-08   -9.335235970983304e-06
1.877240846249556e-06   4.033741625371649e-08   -9.335235970983304e-06
-1.0495157361160818e-06   1.1228010522465015e-06   -5.106786515302785e-06
-1.0495157361160818e-06   1.1228010522465015e-06   -5.106786515302785e-06
-1.0495157361160818e-06   1.1228010522465015e-06   -5.106786515302785e-06
-1.0495157361160818e-06   1.1228010522465015e-06   -5.106786515302785e-06
1.2810057178287883e-07   1.985241090346826e-07   -6.514914195874085e-06
1.2810057178287883e-07   1.985241090346826e-07   -6.514914195874085e-06
1.2810057178287883e-07   1.985241090346826e-07   -6.514914195874085e-06
1.2810057178287883e-07   1.985241090346826e-07   -6.514914195874085e-06
-3.836019702666753e-06   7.3301609324766e-07   -6.990767814447885e-06
-3.836019702666753e-06   7.3301609324766e-07   -6.990767814447885e-06
-3.836019702666753e-06   7.3301609324766e-07   -6.990767814447885e-06
-3.836019702666753e-06   7.3301609324766e-07   -6.990767814447885e-06
-3.962668383629463e-06   -3.523488196643552e-07   -7.853067897132924e-06
-3.962668383629463e-06   -3.523488196643552e-07   -7.853067897132924e-06
-3.962668383629463e-06   -3.523488196643552e-07   -7.853067897132924e-06
-3.962668383629463e-06   -3.523488196643552e-07   -7.853067897132924e-06
-3.768555725675962e-06   1.147380805998125e-06   -6.570181364099425e-06
-3.768555725675962e-06   1.147380805998125e-06   -6.570181364099425e-06
-3.768555725675962e-06   1.147380805998125e-06   -6.570181364099425e-06
-3.768555725675962e-06   1.147380805998125e-06   -6.570181364099425e-06
-3.152662191296669e-06   -1.8620380017497946e-08   -6.8970698764555995e-06
-3.152662191296669e-06   -1.8620380017497946e-08   -6.8970698764555995e-06
-3.152662191296669e-06   -1.8620380017497946e-08   -6.8970698764555995e-06
-3.152662191296669e-06   -1.8620380017497946e-08   -6.8970698764555995e-06
-3.519456675098851e-06   5.050453830447981e-07   -6.599945194622964e-06
-3.519456675098851e-06   5.050453830447981e-07   -6.599945194622964e-06
-3.519456675098851e-06   5.050453830447981e-07   -6.599945194622964e-06
-3.519456675098851e-06   5.050453830447981e-07   -6.599945194622964e-06
-3.152662191296669e-06   1.147380805998125e-06   -5.87058065249017e-06
-3.152662191296669e-06   1.147380805998125e-06   -5.87058065249017e-06
-3.152662191296669e-06   1.147380805998125e-06   -5.87058065249017e-06
-3.152662191296669e-06   1.147380805998125e-06   -5.87058065249017e-06
-3.768555725675962e-06   -1.8620380017497946e-08   -7.596670588065017e-06
-3.768555725675962e-06   -1.8620380017497946e-08   -7.596670588065017e-06
-3.768555725675962e-06   -1.8620380017497946e-08   -7.596670588065017e-06
-3.768555725675962e-06   -1.8620380017497946e-08   -7.596670588065017e-06
-3.5227866393382744e-06   1.3580872244478483e-06   -6.096488786813139e-06
-3.5227866393382744e-06   1.3580872244478483e-06   -6.096488786813139e-06
-3.5227866393382744e-06   1.3580872244478483e-06   -6.096488786813139e-06
-3.5227866393382744e-06   1.3580872244478483e-06   -6.096488786813139e-06
-2.5901031103313225e-06   1.7171977742134938e-07   -6.93914086694213e-06
-2.5901031103313225e-06   1.7171977742134938e-07   -6.93914086694213e-06
-2.5901031103313225e-06   1.7171977742134938e-07   -6.93914086694213e-06
-2.5901031103313225e-06   1.7171977742134938e-07   -6.93914086694213e-06
-3.198320947651328e-06   6.772453819919953e-07   -6.228759834151485e-06
-3.198320947651328e-06   6.772453819919953e-07   -6.228759834151485e-06
-3.198320947651328e-06   6.772453819919953e-07   -6.228759834151485e-06
-3.198320947651328e-06   6.772453819919953e-07   -6.228759834151485e-06
-2.5901031103313225e-06   1.3580872244478483e-06   -5.384668318597337e-06
-2.5901031103313225e-06   1.3580872244478483e-06   -5.384668318597337e-06
-2.5901031103313225e-06   1.3580872244478483e-06   -5.384668318597337e-06
-2.5901031103313225e-06   1.3580872244478483e-06   -5.384668318597337e-06
-3.5227866393382744e-06   1.717197774214578e-07   -7.650961335157986e-06
-3.5227866393382744e-06   1.717197774214578e-07   -7.650961335157986e-06
-3.5227866393382744e-06   1.717197774214578e-07   -7.650961335157986e-06
-3.5227866393382744e-06   1.717197774214578e-07   -7.650961335157986e-06
-3.3332018389150376e-06   1.692519003951168e-06   -5.6590692730728274e-06
-3.3332018389150376e-06   1.692519003951168e-06   -5.6590692730728274e-06
-3.3332018389150376e-06   1.692519003951168e-06   -5.6590692730728274e-06
-3.3332018389150376e-06   1.692519003951168e-06   -5.6590692730728274e-06
-1.8955199032482956e-06   5.508016730326314e-07   -7.370175433966215e-06
-1.8955199032482956e-06   5.508016730326314e-07   -7.370175433966215e-06
-1.8955199032482956e-06   5.508016730326314e-07   -7.370175433966215e-06
-1.8955199032482956e-06   5.508016730326314e-07   -7.370175433966215e-06
-2.7987868136306564e-06   8.442310382684396e-07   -6.040788202470485e-06
-2.7987868136306564e-06   8.442310382684396e-07   -6.040788202470485e-06
-2.7987868136306564e-06   8.442310382684396e-07   -6.040788202470485e-06
-2.7987868136306564e-06   8.442310382684396e-07   -6.040788202470485e-06
-3.962668383629449e-06   4.281130493992316e-07   -1.279773824159529e-05
-3.962668383629449e-06   4.281130493992316e-07   -1.279773824159529e-05
-3.962668383629449e-06   4.281130493992316e-07   -1.279773824159529e-05
-3.962668383629449e-06   4.281130493992316e-07   -1.279773824159529e-05
-4.62396020298847e-06   -7.125131295702362e-08   -1.4199509891274091e-05
-4.62396020298847e-06   -7.125131295702362e-08   -1.4199509891274091e-05
-4.62396020298847e-06   -7.125131295702362e-08   -1.4199509891274091e-05
-4.62396020298847e-06   -7.125131295702362e-08   -1.4199509891274091e-05
-4.4688003762367076e-06   9.039834373965826e-07   -1.2805291951990968e-05
-4.4688003762367076e-06   9.039834373965826e-07   -1.2805291951990968e-05
-4.4688003762367076e-06   9.039834373965826e-07   -1.2805291951990968e-05
-4.4688003762367076e-06   9.039834373965826e-07   -1.2805291951990968e-05
-3.768555725675962e-06   3.5084124188169193e-07   -1.3640481052283197e-05
-3.768555725675962e-06   3.5084124188169193e-07   -1.3640481052283197e-05
-3.768555725675962e-06   3.5084124188169193e-07   -1.3640481052283197e-05
-3.768555725675962e-06   3.5084124188169193e-07   -1.3640481052283197e-05
-4.1571454782152535e-06   4.970065355184563e-07   -1.3080530640900039e-05
-4.1571454782152535e-06   4.970065355184563e-07   -1.3080530640900039e-05
-4.1571454782152535e-06   4.970065355184563e-07   -1.3080530640900039e-05
-4.1571454782152535e-06   4.970065355184563e-07   -1.3080530640900039e-05
-3.7685557256759484e-06   9.039834373965826e-07   -1.2473406634681968e-05
-3.7685557256759484e-06   9.039834373965826e-07   -1.2473406634681968e-05
-3.7685557256759484e-06   9.039834373965826e-07   -1.2473406634681968e-05
-3.7685557256759484e-06   9.039834373965826e-07   -1.2473406634681968e-05
-4.468800376236701e-06   3.5084124188169193e-07   -1.397236636959217e-05
-4.468800376236701e-06   3.5084124188169193e-07   -1.397236636959217e-05
-4.468800376236701e-06   3.5084124188169193e-07   -1.397236636959217e-05
-4.468800376236701e-06   3.5084124188169193e-07   -1.397236636959217e-05
-4.30727894914829e-06   1.3476007001183492e-06   -1.2697676141946133e-05
-4.30727894914829e-06   1.3476007001183492e-06   -1.2697676141946133e-05
-4.30727894914829e-06   1.3476007001183492e-06   -1.2697676141946133e-05
-4.30727894914829e-06   1.3476007001183492e-06   -1.2697676141946133e-05
-3.522786639338288e-06   7.582472638311636e-07   -1.3651551263190419e-05
-3.522786639338288e-06   7.582472638311636e-07   -1.3651551263190419e-05
-3.522786639338288e-06   7.582472638311636e-07   -1.3651551263190419e-05
-3.522786639338288e-06   7.582472638311636e-07   -1.3651551263190419e-05
-4.001818876579393e-06   8.386273103907745e-07   -1.2901392229057695e-05
-4.001818876579393e-06   8.386273103907745e-07   -1.2901392229057695e-05
-4.001818876579393e-06   8.386273103907745e-07   -1.2901392229057695e-05
-4.001818876579393e-06   8.386273103907745e-07   -1.2901392229057695e-05
-3.5227866393382744e-06   1.3476007001183492e-06   -1.2344064080173692e-05
-3.5227866393382744e-06   1.3476007001183492e-06   -1.2344064080173692e-05
-3.5227866393382744e-06   1.3476007001183492e-06   -1.2344064080173692e-05
-3.5227866393382744e-06   1.3476007001183492e-06   -1.2344064080173692e-05
-4.3072789491482765e-06   7.582472638311636e-07   -1.400516332496267e-05
-4.3072789491482765e-06   7.582472638311636e-07   -1.400516332496267e-05
-4.3072789491482765e-06   7.582472638311636e-07   -1.400516332496267e-05
-4.3072789491482765e-06   7.582472638311636e-07   -1.400516332496267e-05
-4.15574178885721e-06   1.8416443125996232e-06   -1.290843666973884e-05
-4.15574178885721e-06   1.8416443125996232e-06   -1.290843666973884e-05
-4.15574178885721e-06   1.8416443125996232e-06   -1.290843666973884e-05
-4.15574178885721e-06   1.8416443125996232e-06   -1.290843666973884e-05
-3.333201838915051e-06   1.2245145534822612e-06   -1.3909058730838625e-05
-3.333201838915051e-06   1.2245145534822612e-06   -1.3909058730838625e-05
-3.333201838915051e-06   1.2245145534822612e-06   -1.3909058730838625e-05
-3.333201838915051e-06   1.2245145534822612e-06   -1.3909058730838625e-05
-3.865852827455724e-06   1.1981692743824861e-06   -1.3005499915811033e-05
-3.865852827455724e-06   1.1981692743824861e-06   -1.3005499915811033e-05
-3.865852827455724e-06   1.1981692743824861e-06   -1.3005499915811033e-05
-3.865852827455724e-06   1.1981692743824861e-06   -1.3005499915811033e-05
-4.6239602029884565e-06   2.50184589380652e-07   -1.4919805835680422e-05
-4.6239602029884565e-06   2.50184589380652e-07   -1.4919805835680422e-05
-4.6239602029884565e-06   2.50184589380652e-07   -1.4919805835680422e-05
-4.6239602029884565e-06   2.50184589380652e-07   -1.4919805835680422e-05
-5.312378662411504e-06   3.570846815988474e-07   -1.6003029879387866e-05
-5.312378662411504e-06   3.570846815988474e-07   -1.6003029879387866e-05
-5.312378662411504e-06   3.570846815988474e-07   -1.6003029879387866e-05
-5.312378662411504e-06   3.570846815988474e-07   -1.6003029879387866e-05
-5.160290284849152e-06   7.361384828686603e-07   -1.4687038017920399e-05
-5.160290284849152e-06   7.361384828686603e-07   -1.4687038017920399e-05
-5.160290284849152e-06   7.361384828686603e-07   -1.4687038017920399e-05
-5.160290284849152e-06   7.361384828686603e-07   -1.4687038017920399e-05
-4.4688003762367076e-06   7.946751029787617e-07   -1.587464317100714e-05
-4.4688003762367076e-06   7.946751029787617e-07   -1.587464317100714e-05
-4.4688003762367076e-06   7.946751029787617e-07   -1.587464317100714e-05
-4.4688003762367076e-06   7.946751029787617e-07   -1.587464317100714e-05
-4.861862060598195e-06   6.030703194783837e-07   -1.5104577493637921e-05
-4.861862060598195e-06   6.030703194783837e-07   -1.5104577493637921e-05
-4.861862060598195e-06   6.030703194783837e-07   -1.5104577493637921e-05
-4.861862060598195e-06   6.030703194783837e-07   -1.5104577493637921e-05
-4.468800376236687e-06   7.361384828686061e-07   -1.4722159989986427e-05
-4.468800376236687e-06   7.361384828686061e-07   -1.4722159989986427e-05
-4.468800376236687e-06   7.361384828686061e-07   -1.4722159989986427e-05
-4.468800376236687e-06   7.361384828686061e-07   -1.4722159989986427e-05
-5.16029028484916e-06   7.946751029787617e-07   -1.5839521198941124e-05
-5.16029028484916e-06   7.946751029787617e-07   -1.5839521198941124e-05
-5.16029028484916e-06   7.946751029787617e-07   -1.5839521198941124e-05
-5.16029028484916e-06   7.946751029787617e-07   -1.5839521198941124e-05
-4.999728106869934e-06   1.2262913748413602e-06   -1.4728500758118713e-05
-4.999728106869934e-06   1.2262913748413602e-06   -1.4728500758118713e-05
-4.999728106869934e-06   1.2262913748413602e-06   -1.4728500758118713e-05
-4.999728106869934e-06   1.2262913748413602e-06   -1.4728500758118713e-05
-4.30727894914829e-06   1.241675399387375e-06   -1.5891813102382314e-05
-4.30727894914829e-06   1.241675399387375e-06   -1.5891813102382314e-05
-4.30727894914829e-06   1.241675399387375e-06   -1.5891813102382314e-05
-4.30727894914829e-06   1.241675399387375e-06   -1.5891813102382314e-05
-4.735121878592026e-06   9.783132805187174e-07   -1.5020724281988499e-05
-4.735121878592026e-06   9.783132805187174e-07   -1.5020724281988499e-05
-4.735121878592026e-06   9.783132805187174e-07   -1.5020724281988499e-05
-4.735121878592026e-06   9.783132805187174e-07   -1.5020724281988499e-05
-4.3072789491482765e-06   1.2262913748413602e-06   -1.4737731172846246e-05
-4.3072789491482765e-06   1.2262913748413602e-06   -1.4737731172846246e-05
-4.3072789491482765e-06   1.2262913748413602e-06   -1.4737731172846246e-05
-4.3072789491482765e-06   1.2262913748413602e-06   -1.4737731172846246e-05
-4.999728106869934e-06   1.241675399387375e-06   -1.588258268765474e-05
-4.999728106869934e-06   1.241675399387375e-06   -1.588258268765474e-05
-4.999728106869934e-06   1.241675399387375e-06   -1.588258268765474e-05
-4.999728106869934e-06   1.241675399387375e-06   -1.588258268765474e-05
-4.848452679503158e-06   1.7239089348715115e-06   -1.501443721989591e-05
-4.848452679503158e-06   1.7239089348715115e-06   -1.501443721989591e-05
-4.848452679503158e-06   1.7239089348715115e-06   -1.501443721989591e-05
-4.848452679503158e-06   1.7239089348715115e-06   -1.501443721989591e-05
-4.155741788857217e-06   1.6949637080689679e-06   -1.6151588234890974e-05
-4.155741788857217e-06   1.6949637080689679e-06   -1.6151588234890974e-05
-4.155741788857217e-06   1.6949637080689679e-06   -1.6151588234890974e-05
-4.155741788857217e-06   1.6949637080689679e-06   -1.6151588234890974e-05
-4.619027942636306e-06   1.358851027622311e-06   -1.5177777036991094e-05
-4.619027942636306e-06   1.358851027622311e-06   -1.5177777036991094e-05
-4.619027942636306e-06   1.358851027622311e-06   -1.5177777036991094e-05
-4.619027942636306e-06   1.358851027622311e-06   -1.5177777036991094e-05
-5.312378662411485e-06   1.1561617296418185e-07   -1.286502943092648e-05
-5.312378662411485e-06   1.1561617296418185e-07   -1.286502943092648e-05
-5.312378662411485e-06   1.1561617296418185e-07   -1.286502943092648e-05
-5.312378662411485e-06   1.1561617296418185e-07   -1.286502943092648e-05
-6.044905377966105e-06   7.908362842268431e-07   -1.3680775223426703e-05
-6.044905377966105e-06   7.908362842268431e-07   -1.3680775223426703e-05
-6.044905377966105e-06   7.908362842268431e-07   -1.3680775223426703e-05
-6.044905377966105e-06   7.908362842268431e-07   -1.3680775223426703e-05
-5.859706736272775e-06   5.873248790585778e-07   -1.2294167642846587e-05
-5.859706736272775e-06   5.873248790585778e-07   -1.2294167642846587e-05
-5.859706736272775e-06   5.873248790585778e-07   -1.2294167642846587e-05
-5.859706736272775e-06   5.873248790585778e-07   -1.2294167642846587e-05
-5.160290284849152e-06   1.2306036233916814e-06   -1.3845828975152375e-05
-5.160290284849152e-06   1.2306036233916814e-06   -1.3845828975152375e-05
-5.160290284849152e-06   1.2306036233916814e-06   -1.3845828975152375e-05
-5.160290284849152e-06   1.2306036233916814e-06   -1.3845828975152375e-05
-5.550899482306228e-06   7.295686354224801e-07   -1.2894192653275916e-05
-5.550899482306228e-06   7.295686354224801e-07   -1.2894192653275916e-05
-5.550899482306228e-06   7.295686354224801e-07   -1.2894192653275916e-05
-5.550899482306228e-06   7.295686354224801e-07   -1.2894192653275916e-05
-5.160290284849143e-06   5.873248790586321e-07   -1.268013488944634e-05
-5.160290284849143e-06   5.873248790586321e-07   -1.268013488944634e-05
-5.160290284849143e-06   5.873248790586321e-07   -1.268013488944634e-05
-5.160290284849143e-06   5.873248790586321e-07   -1.268013488944634e-05
-5.859706736272775e-06   1.230603623391573e-06   -1.3459861728552618e-05
-5.859706736272775e-06   1.230603623391573e-06   -1.3459861728552618e-05
-5.859706736272775e-06   1.230603623391573e-06   -1.3459861728552618e-05
-5.859706736272775e-06   1.230603623391573e-06   -1.3459861728552618e-05
-5.617674349669615e-06   1.0308659773621475e-06   -1.234341755902902e-05
-5.617674349669615e-06   1.0308659773621475e-06   -1.234341755902902e-05
-5.617674349669615e-06   1.0308659773621475e-06   -1.234341755902902e-05
-5.617674349669615e-06   1.0308659773621475e-06   -1.234341755902902e-05
-4.999728106869934e-06   1.6354485716883055e-06   -1.3736077520290773e-05
-4.999728106869934e-06   1.6354485716883055e-06   -1.3736077520290773e-05
-4.999728106869934e-06   1.6354485716883055e-06   -1.3736077520290773e-05
-4.999728106869934e-06   1.6354485716883055e-06   -1.3736077520290773e-05
-5.385210800092074e-06   1.0792167669821523e-06   -1.275986728209696e-05
-5.385210800092074e-06   1.0792167669821523e-06   -1.275986728209696e-05
-5.385210800092074e-06   1.0792167669821523e-06   -1.275986728209696e-05
-5.385210800092074e-06   1.0792167669821523e-06   -1.275986728209696e-05
-4.999728106869911e-06   1.0308659773621475e-06   -1.270616711562464e-05
-4.999728106869911e-06   1.0308659773621475e-06   -1.270616711562464e-05
-4.999728106869911e-06   1.0308659773621475e-06   -1.270616711562464e-05
-4.999728106869911e-06   1.0308659773621475e-06   -1.270616711562464e-05
-5.617674349669615e-06   1.6354485716883055e-06   -1.337332796369511e-05
-5.617674349669615e-06   1.6354485716883055e-06   -1.337332796369511e-05
-5.617674349669615e-06   1.6354485716883055e-06   -1.337332796369511e-05
-5.617674349669615e-06   1.6354485716883055e-06   -1.337332796369511e-05
-5.428219327142964e-06   1.5311526015279135e-06   -1.2685581052555915e-05
-5.428219327142964e-06   1.5311526015279135e-06   -1.2685581052555915e-05
-5.428219327142964e-06   1.5311526015279135e-06   -1.2685581052555915e-05
-5.428219327142964e-06   1.5311526015279135e-06   -1.2685581052555915e-05
-4.848452679503158e-06   2.08782293142733e-06   -1.3985860996561972e-05
-4.848452679503158e-06   2.08782293142733e-06   -1.3985860996561972e-05
-4.848452679503158e-06   2.08782293142733e-06   -1.3985860996561972e-05
-4.848452679503158e-06   2.08782293142733e-06   -1.3985860996561972e-05
-5.263379747245162e-06   1.4354033148876065e-06   -1.2902864113734634e-05
-5.263379747245162e-06   1.4354033148876065e-06   -1.2902864113734634e-05
-5.263379747245162e-06   1.4354033148876065e-06   -1.2902864113734634e-05
-5.263379747245162e-06   1.4354033148876065e-06   -1.2902864113734634e-05
-6.044905377966085e-06   1.7001734062402005e-07   -6.8439339621050575e-06
-6.044905377966085e-06   1.7001734062402005e-07   -6.8439339621050575e-06
-6.044905377966085e-06   1.7001734062402005e-07   -6.8439339621050575e-06
-6.044905377966085e-06   1.7001734062402005e-07   -6.8439339621050575e-06
-7.371342621955907e-06   1.3341726538710968e-06   -8.356169514139812e-06
-7.371342621955907e-06   1.3341726538710968e-06   -8.356169514139812e-06
-7.371342621955907e-06   1.3341726538710968e-06   -8.356169514139812e-06
-7.371342621955907e-06   1.3341726538710968e-06   -8.356169514139812e-06
-6.696223893651928e-06   5.440751179198056e-07   -5.613950140188521e-06
-6.696223893651928e-06   5.440751179198056e-07   -5.613950140188521e-06
-6.696223893651928e-06   5.440751179198056e-07   -5.613950140188521e-06
-6.696223893651928e-06   5.440751179198056e-07   -5.613950140188521e-06
-5.859706736272761e-06   1.7340364152300782e-06   -7.722122180873117e-06
-5.859706736272761e-06   1.7340364152300782e-06   -7.722122180873117e-06
-5.859706736272761e-06   1.7340364152300782e-06   -7.722122180873117e-06
-5.859706736272761e-06   1.7340364152300782e-06   -7.722122180873117e-06
-6.230338222110681e-06   9.925149317067646e-07   -6.659490147696131e-06
-6.230338222110681e-06   9.925149317067646e-07   -6.659490147696131e-06
-6.230338222110681e-06   9.925149317067646e-07   -6.659490147696131e-06
-6.230338222110681e-06   9.925149317067646e-07   -6.659490147696131e-06
-5.859706736272748e-06   5.440751179198056e-07   -6.327926918574484e-06
-5.859706736272748e-06   5.440751179198056e-07   -6.327926918574484e-06
-5.859706736272748e-06   5.440751179198056e-07   -6.327926918574484e-06
-5.859706736272748e-06   5.440751179198056e-07   -6.327926918574484e-06
-6.696223893651901e-06   1.7340364152300782e-06   -7.008145402487059e-06
-6.696223893651901e-06   1.7340364152300782e-06   -7.008145402487059e-06
-6.696223893651901e-06   1.7340364152300782e-06   -7.008145402487059e-06
-6.696223893651901e-06   1.7340364152300782e-06   -7.008145402487059e-06
-6.1471111440297645e-06   7.53812019555042e-07   -5.507129143897128e-06
-6.1471111440297645e-06   7.53812019555042e-07   -5.507129143897128e-06
-6.1471111440297645e-06   7.53812019555042e-07   -5.507129143897128e-06
-6.1471111440297645e-06   7.53812019555042e-07   -5.507129143897128e-06
-5.617674349669601e-06   1.917015475795601e-06   -7.0874458749082585e-06
-5.617674349669601e-06   1.917015475795601e-06   -7.0874458749082585e-06
-5.617674349669601e-06   1.917015475795601e-06   -7.0874458749082585e-06
-5.617674349669601e-06   1.917015475795601e-06   -7.0874458749082585e-06
-5.947999737849288e-06   1.179027263462887e-06   -6.094110633875894e-06
-5.947999737849288e-06   1.179027263462887e-06   -6.094110633875894e-06
-5.947999737849288e-06   1.179027263462887e-06   -6.094110633875894e-06
-5.947999737849288e-06   1.179027263462887e-06   -6.094110633875894e-06
-5.617674349669594e-06   7.53812019555042e-07   -6.20505121764136e-06
-5.617674349669594e-06   7.53812019555042e-07   -6.20505121764136e-06
-5.617674349669594e-06   7.53812019555042e-07   -6.20505121764136e-06
-5.617674349669594e-06   7.53812019555042e-07   -6.20505121764136e-06
-6.1471111440297645e-06   1.917015475795601e-06   -6.389523801163938e-06
-6.1471111440297645e-06   1.917015475795601e-06   -6.389523801163938e-06
-6.1471111440297645e-06   1.917015475795601e-06   -6.389523801163938e-06
-6.1471111440297645e-06   1.917015475795601e-06   -6.389523801163938e-06
-5.47259107950227e-06   1.1228010522465015e-06   -5.661660831542549e-06
-5.47259107950227e-06   1.1228010522465015e-06   -5.661660831542549e-06
-5.47259107950227e-06   1.1228010522465015e-06   -5.661660831542549e-06
-5.47259107950227e-06   1.1228010522465015e-06   -5.661660831542549e-06
-5.428219327142964e-06   2.1972904320481006e-06   -6.3803073800221955e-06
-5.428219327142964e-06   2.1972904320481006e-06   -6.3803073800221955e-06
-5.428219327142964e-06   2.1972904320481006e-06   -6.3803073800221955e-06
-5.428219327142964e-06   2.1972904320481006e-06   -6.3803073800221955e-06
-5.522280669301164e-06   1.3276539540810683e-06   -5.7017565896450115e-06
-5.522280669301164e-06   1.3276539540810683e-06   -5.7017565896450115e-06
-5.522280669301164e-06   1.3276539540810683e-06   -5.7017565896450115e-06
-5.522280669301164e-06   1.3276539540810683e-06   -5.7017565896450115e-06
3.5774912421467834e-06   -3.523488196643552e-07   -3.469669181805268e-06
3.5774912421467834e-06   -3.523488196643552e-07   -3.469669181805268e-06
3.5774912421467834e-06   -3.523488196643552e-07   -3.469669181805268e-06
3.5774912421467834e-06   -3.523488196643552e-07   -3.469669181805268e-06
3.8090832626058117e-07   -1.4501232764495492e-06   -9.455972049020008e-06
3.8090832626058117e-07   -1.4501232764495492e-06   -9.455972049020008e-06
3.8090832626058117e-07   -1.4501232764495492e-06   -9.455972049020008e-06
3.8090832626058117e-07   -1.4501232764495492e-06   -9.455972049020008e-06
6.459904524627264e-07   -1.8620380017497946e-08   -3.849713833166835e-06
6.459904524627264e-07   -1.8620380017497946e-08   -3.849713833166835e-06
6.459904524627264e-07   -1.8620380017497946e-08   -3.849713833166835e-06
6.459904524627264e-07   -1.8620380017497946e-08   -3.849713833166835e-06
4.332318317221525e-06   -1.1935397182104724e-06   -9.288642004848951e-06
4.332318317221525e-06   -1.1935397182104724e-06   -9.288642004848951e-06
4.332318317221525e-06   -1.1935397182104724e-06   -9.288642004848951e-06
4.332318317221525e-06   -1.1935397182104724e-06   -9.288642004848951e-06
2.14994945966897e-06   -6.08323510320561e-07   -6.002490300328672e-06
2.14994945966897e-06   -6.08323510320561e-07   -6.002490300328672e-06
2.14994945966897e-06   -6.08323510320561e-07   -6.002490300328672e-06
2.14994945966897e-06   -6.08323510320561e-07   -6.002490300328672e-06
4.332318317221552e-06   -1.8620380017497946e-08   -3.1447622302509855e-06
4.332318317221552e-06   -1.8620380017497946e-08   -3.1447622302509855e-06
4.332318317221552e-06   -1.8620380017497946e-08   -3.1447622302509855e-06
4.332318317221552e-06   -1.8620380017497946e-08   -3.1447622302509855e-06
6.459904524627264e-07   -1.1935397182104724e-06   -9.993593607764828e-06
6.459904524627264e-07   -1.1935397182104724e-06   -9.993593607764828e-06
6.459904524627264e-07   -1.1935397182104724e-06   -9.993593607764828e-06
6.459904524627264e-07   -1.1935397182104724e-06   -9.993593607764828e-06
9.592821219739372e-07   1.7171977742134938e-07   -3.8846995152159395e-06
9.592821219739372e-07   1.7171977742134938e-07   -3.8846995152159395e-06
9.592821219739372e-07   1.7171977742134938e-07   -3.8846995152159395e-06
9.592821219739372e-07   1.7171977742134938e-07   -3.8846995152159395e-06
4.9676625375361e-06   -1.0206775708162e-06   -9.849895132210332e-06
4.9676625375361e-06   -1.0206775708162e-06   -9.849895132210332e-06
4.9676625375361e-06   -1.0206775708162e-06   -9.849895132210332e-06
4.9676625375361e-06   -1.0206775708162e-06   -9.849895132210332e-06
2.6268086899500453e-06   -4.87310456414561e-07   -6.268492321541527e-06
2.6268086899500453e-06   -4.87310456414561e-07   -6.268492321541527e-06
2.6268086899500453e-06   -4.87310456414561e-07   -6.268492321541527e-06
2.6268086899500453e-06   -4.87310456414561e-07   -6.268492321541527e-06
4.967662537536127e-06   1.7171977742134938e-07   -3.169261106273453e-06
4.967662537536127e-06   1.7171977742134938e-07   -3.169261106273453e-06
4.967662537536127e-06   1.7171977742134938e-07   -3.169261106273453e-06
4.967662537536127e-06   1.7171977742134938e-07   -3.169261106273453e-06
9.592821219739372e-07   -1.0206775708162e-06   -1.056533354115298e-05
9.592821219739372e-07   -1.0206775708162e-06   -1.056533354115298e-05
9.592821219739372e-07   -1.0206775708162e-06   -1.056533354115298e-05
9.592821219739372e-07   -1.0206775708162e-06   -1.056533354115298e-05
1.2151163923109312e-06   5.508016730326314e-07   -4.271184024145884e-06
1.2151163923109312e-06   5.508016730326314e-07   -4.271184024145884e-06
1.2151163923109312e-06   5.508016730326314e-07   -4.271184024145884e-06
1.2151163923109312e-06   5.508016730326314e-07   -4.271184024145884e-06
5.73110240701584e-06   -5.86867417592409e-07   -1.1115225927612384e-05
5.73110240701584e-06   -5.86867417592409e-07   -1.1115225927612384e-05
5.73110240701584e-06   -5.86867417592409e-07   -1.1115225927612384e-05
5.73110240701584e-06   -5.86867417592409e-07   -1.1115225927612384e-05
3.0017559225861373e-06   -3.0802631095208557e-07   -6.7336197842140545e-06
3.0017559225861373e-06   -3.0802631095208557e-07   -6.7336197842140545e-06
3.0017559225861373e-06   -3.0802631095208557e-07   -6.7336197842140545e-06
3.0017559225861373e-06   -3.0802631095208557e-07   -6.7336197842140545e-06
3.8090832626058117e-07   -7.125131295702362e-08   -1.0175157232603798e-05
3.8090832626058117e-07   -7.125131295702362e-08   -1.0175157232603798e-05
3.8090832626058117e-07   -7.125131295702362e-08   -1.0175157232603798e-05
3.8090832626058117e-07   -7.125131295702362e-08   -1.0175157232603798e-05
-3.316118700432025e-06   -5.661840277433692e-07   -1.6633828572629888e-05
-3.316118700432025e-06   -5.661840277433692e-07   -1.6633828572629888e-05
-3.316118700432025e-06   -5.661840277433692e-07   -1.6633828572629888e-05
-3.316118700432025e-06   -5.661840277433692e-07   -1.6633828572629888e-05
-3.0851488743869072e-06   3.5084124188169193e-07   -1.0231490008847711e-05
-3.0851488743869072e-06   3.5084124188169193e-07   -1.0231490008847711e-05
-3.0851488743869072e-06   3.5084124188169193e-07   -1.0231490008847711e-05
-3.0851488743869072e-06   3.5084124188169193e-07   -1.0231490008847711e-05
6.459904524627264e-07   -2.124349438893669e-07   -1.611208984213442e-05
6.459904524627264e-07   -2.124349438893669e-07   -1.611208984213442e-05
6.459904524627264e-07   -2.124349438893669e-07   -1.611208984213442e-05
6.459904524627264e-07   -2.124349438893669e-07   -1.611208984213442e-05
-1.3130077879461972e-06   -1.5794810510178468e-08   -1.296507685481366e-05
-1.3130077879461972e-06   -1.5794810510178468e-08   -1.296507685481366e-05
-1.3130077879461972e-06   -1.5794810510178468e-08   -1.296507685481366e-05
-1.3130077879461972e-06   -1.5794810510178468e-08   -1.296507685481366e-05
6.459904524627264e-07   3.5084124188169193e-07   -9.893524297384989e-06
6.459904524627264e-07   3.5084124188169193e-07   -9.893524297384989e-06
6.459904524627264e-07   3.5084124188169193e-07   -9.893524297384989e-06
6.459904524627264e-07   3.5084124188169193e-07   -9.893524297384989e-06
-3.0851488743869072e-06   -2.124349438893669e-07   -1.6450055553597143e-05
-3.0851488743869072e-06   -2.124349438893669e-07   -1.6450055553597143e-05
-3.0851488743869072e-06   -2.124349438893669e-07   -1.6450055553597143e-05
-3.0851488743869072e-06   -2.124349438893669e-07   -1.6450055553597143e-05
-2.852796400730579e-06   7.582472638311636e-07   -1.0247848073127578e-05
-2.852796400730579e-06   7.582472638311636e-07   -1.0247848073127578e-05
-2.852796400730579e-06   7.582472638311636e-07   -1.0247848073127578e-05
-2.852796400730579e-06   7.582472638311636e-07   -1.0247848073127578e-05
9.592821219739372e-07   1.5398288069916246e-07   -1.6238753647755872e-05
9.592821219739372e-07   1.5398288069916246e-07   -1.6238753647755872e-05
9.592821219739372e-07   1.5398288069916246e-07   -1.6238753647755872e-05
9.592821219739372e-07   1.5398288069916246e-07   -1.6238753647755872e-05
-1.1094283429258219e-06   2.760115752704819e-07   -1.2864120089665768e-05
-1.1094283429258219e-06   2.760115752704819e-07   -1.2864120089665768e-05
-1.1094283429258219e-06   2.760115752704819e-07   -1.2864120089665768e-05
-1.1094283429258219e-06   2.760115752704819e-07   -1.2864120089665768e-05
9.592821219739372e-07   7.582472638311636e-07   -9.885289443248345e-06
9.592821219739372e-07   7.582472638311636e-07   -9.885289443248345e-06
9.592821219739372e-07   7.582472638311636e-07   -9.885289443248345e-06
9.592821219739372e-07   7.582472638311636e-07   -9.885289443248345e-06
-2.852796400730579e-06   1.5398288069916246e-07   -1.6601312277635105e-05
-2.852796400730579e-06   1.5398288069916246e-07   -1.6601312277635105e-05
-2.852796400730579e-06   1.5398288069916246e-07   -1.6601312277635105e-05
-2.852796400730579e-06   1.5398288069916246e-07   -1.6601312277635105e-05
-2.631335747781176e-06   1.2245145534822612e-06   -1.050641250177533e-05
-2.631335747781176e-06   1.2245145534822612e-06   -1.050641250177533e-05
-2.631335747781176e-06   1.2245145534822612e-06   -1.050641250177533e-05
-2.631335747781176e-06   1.2245145534822612e-06   -1.050641250177533e-05
1.2151163923109312e-06   5.888885879684396e-07   -1.6535790489287367e-05
1.2151163923109312e-06   5.888885879684396e-07   -1.6535790489287367e-05
1.2151163923109312e-06   5.888885879684396e-07   -1.6535790489287367e-05
1.2151163923109312e-06   5.888885879684396e-07   -1.6535790489287367e-05
-8.816392463276794e-07   6.004795638396088e-07   -1.3048152343745896e-05
-8.816392463276794e-07   6.004795638396088e-07   -1.3048152343745896e-05
-8.816392463276794e-07   6.004795638396088e-07   -1.3048152343745896e-05
-8.816392463276794e-07   6.004795638396088e-07   -1.3048152343745896e-05
-3.3161187004320317e-06   3.570846815989558e-07   -1.233977690492038e-05
-3.3161187004320317e-06   3.570846815989558e-07   -1.233977690492038e-05
-3.3161187004320317e-06   3.570846815989558e-07   -1.233977690492038e-05
-3.3161187004320317e-06   3.570846815989558e-07   -1.233977690492038e-05
-6.978178843980818e-06   4.4967738942484816e-07   -1.838765485280612e-05
-6.978178843980818e-06   4.4967738942484816e-07   -1.838765485280612e-05
-6.978178843980818e-06   4.4967738942484816e-07   -1.838765485280612e-05
-6.978178843980818e-06   4.4967738942484816e-07   -1.838765485280612e-05
-6.745917028015958e-06   7.946751029787617e-07   -1.2115440986460715e-05
-6.745917028015958e-06   7.946751029787617e-07   -1.2115440986460715e-05
-6.745917028015958e-06   7.946751029787617e-07   -1.2115440986460715e-05
-6.745917028015958e-06   7.946751029787617e-07   -1.2115440986460715e-05
-3.0851488743869072e-06   8.252181426487808e-07   -1.8235047066311085e-05
-3.0851488743869072e-06   8.252181426487808e-07   -1.8235047066311085e-05
-3.0851488743869072e-06   8.252181426487808e-07   -1.8235047066311085e-05
-3.0851488743869072e-06   8.252181426487808e-07   -1.8235047066311085e-05
-5.002290405498092e-06   6.8302799454442e-07   -1.4954497092263225e-05
-5.002290405498092e-06   6.8302799454442e-07   -1.4954497092263225e-05
-5.002290405498092e-06   6.8302799454442e-07   -1.4954497092263225e-05
-5.002290405498092e-06   6.8302799454442e-07   -1.4954497092263225e-05
-3.085148874386914e-06   7.946751029787617e-07   -1.2133766810262694e-05
-3.085148874386914e-06   7.946751029787617e-07   -1.2133766810262694e-05
-3.085148874386914e-06   7.946751029787617e-07   -1.2133766810262694e-05
-3.085148874386914e-06   7.946751029787617e-07   -1.2133766810262694e-05
-6.745917028015946e-06   8.252181426487808e-07   -1.821672124250912e-05
-6.745917028015946e-06   8.252181426487808e-07   -1.821672124250912e-05
-6.745917028015946e-06   8.252181426487808e-07   -1.821672124250912e-05
-6.745917028015946e-06   8.252181426487808e-07   -1.821672124250912e-05
-6.5094268603011155e-06   1.241675399387375e-06   -1.2146162199726566e-05
-6.5094268603011155e-06   1.241675399387375e-06   -1.2146162199726566e-05
-6.5094268603011155e-06   1.241675399387375e-06   -1.2146162199726566e-05
-6.5094268603011155e-06   1.241675399387375e-06   -1.2146162199726566e-05
-2.852796400730586e-06   1.2222348174216338e-06   -1.8228881949831433e-05
-2.852796400730586e-06   1.2222348174216338e-06   -1.8228881949831433e-05
-2.852796400730586e-06   1.2222348174216338e-06   -1.8228881949831433e-05
-2.852796400730586e-06   1.2222348174216338e-06   -1.8228881949831433e-05
-4.798625128937315e-06   1.0115603754997813e-06   -1.485942940433395e-05
-4.798625128937315e-06   1.0115603754997813e-06   -1.485942940433395e-05
-4.798625128937315e-06   1.0115603754997813e-06   -1.485942940433395e-05
-4.798625128937315e-06   1.0115603754997813e-06   -1.485942940433395e-05
-2.852796400730586e-06   1.241675399387375e-06   -1.2134497850547208e-05
-2.852796400730586e-06   1.241675399387375e-06   -1.2134497850547208e-05
-2.852796400730586e-06   1.241675399387375e-06   -1.2134497850547208e-05
-2.852796400730586e-06   1.241675399387375e-06   -1.2134497850547208e-05
-6.509426860301104e-06   1.2222348174216338e-06   -1.824054629901079e-05
-6.509426860301104e-06   1.2222348174216338e-06   -1.824054629901079e-05
-6.509426860301104e-06   1.2222348174216338e-06   -1.824054629901079e-05
-6.509426860301104e-06   1.2222348174216338e-06   -1.824054629901079e-05
-6.284014018080572e-06   1.6949637080689679e-06   -1.24199352828818e-05
-6.284014018080572e-06   1.6949637080689679e-06   -1.24199352828818e-05
-6.284014018080572e-06   1.6949637080689679e-06   -1.24199352828818e-05
-6.284014018080572e-06   1.6949637080689679e-06   -1.24199352828818e-05
-2.631335747781176e-06   1.6261784871948737e-06   -1.846646126752283e-05
-2.631335747781176e-06   1.6261784871948737e-06   -1.846646126752283e-05
-2.631335747781176e-06   1.6261784871948737e-06   -1.846646126752283e-05
-2.631335747781176e-06   1.6261784871948737e-06   -1.846646126752283e-05
-4.609698204178309e-06   1.345157790039967e-06   -1.5000578088568326e-05
-4.609698204178309e-06   1.345157790039967e-06   -1.5000578088568326e-05
-4.609698204178309e-06   1.345157790039967e-06   -1.5000578088568326e-05
-4.609698204178309e-06   1.345157790039967e-06   -1.5000578088568326e-05
-6.9781788439808285e-06   7.908362842267347e-07   -1.036709869102118e-05
-6.9781788439808285e-06   7.908362842267347e-07   -1.036709869102118e-05
-6.9781788439808285e-06   7.908362842267347e-07   -1.036709869102118e-05
-6.9781788439808285e-06   7.908362842267347e-07   -1.036709869102118e-05
-1.0607758233204862e-05   1.4388787726073984e-06   -1.602757218003274e-05
-1.0607758233204862e-05   1.4388787726073984e-06   -1.602757218003274e-05
-1.0607758233204862e-05   1.4388787726073984e-06   -1.602757218003274e-05
-1.0607758233204862e-05   1.4388787726073984e-06   -1.602757218003274e-05
-1.034150315874227e-05   1.2306036233916814e-06   -9.756210995619122e-06
-1.034150315874227e-05   1.2306036233916814e-06   -9.756210995619122e-06
-1.034150315874227e-05   1.2306036233916814e-06   -9.756210995619122e-06
-1.034150315874227e-05   1.2306036233916814e-06   -9.756210995619122e-06
-6.745917028015946e-06   1.8398332351463606e-06   -1.6114392313882506e-05
-6.745917028015946e-06   1.8398332351463606e-06   -1.6114392313882506e-05
-6.745917028015946e-06   1.8398332351463606e-06   -1.6114392313882506e-05
-6.745917028015946e-06   1.8398332351463606e-06   -1.6114392313882506e-05
-8.608142652260138e-06   1.3761865080292712e-06   -1.273249490387185e-05
-8.608142652260138e-06   1.3761865080292712e-06   -1.273249490387185e-05
-8.608142652260138e-06   1.3761865080292712e-06   -1.273249490387185e-05
-8.608142652260138e-06   1.3761865080292712e-06   -1.273249490387185e-05
-6.745917028015958e-06   1.230603623391573e-06   -1.0121748762672016e-05
-6.745917028015958e-06   1.230603623391573e-06   -1.0121748762672016e-05
-6.745917028015958e-06   1.230603623391573e-06   -1.0121748762672016e-05
-6.745917028015958e-06   1.230603623391573e-06   -1.0121748762672016e-05
-1.034150315874229e-05   1.8398332351463606e-06   -1.5748854546829727e-05
-1.034150315874229e-05   1.8398332351463606e-06   -1.5748854546829727e-05
-1.034150315874229e-05   1.8398332351463606e-06   -1.5748854546829727e-05
-1.034150315874229e-05   1.8398332351463606e-06   -1.5748854546829727e-05
-1.0020268672771347e-05   1.6354485716883055e-06   -9.660738081786917e-06
-1.0020268672771347e-05   1.6354485716883055e-06   -9.660738081786917e-06
-1.0020268672771347e-05   1.6354485716883055e-06   -9.660738081786917e-06
-1.0020268672771347e-05   1.6354485716883055e-06   -9.660738081786917e-06
-6.509426860301104e-06   2.2003134893145305e-06   -1.5851060053146315e-05
-6.509426860301104e-06   2.2003134893145305e-06   -1.5851060053146315e-05
-6.509426860301104e-06   2.2003134893145305e-06   -1.5851060053146315e-05
-6.509426860301104e-06   2.2003134893145305e-06   -1.5851060053146315e-05
-8.338586228914384e-06   1.6935721608347552e-06   -1.2498416308369943e-05
-8.338586228914384e-06   1.6935721608347552e-06   -1.2498416308369943e-05
-8.338586228914384e-06   1.6935721608347552e-06   -1.2498416308369943e-05
-8.338586228914384e-06   1.6935721608347552e-06   -1.2498416308369943e-05
-6.509426860301109e-06   1.6354485716883055e-06   -9.999657032362555e-06
-6.509426860301109e-06   1.6354485716883055e-06   -9.999657032362555e-06
-6.509426860301109e-06   1.6354485716883055e-06   -9.999657032362555e-06
-6.509426860301109e-06   1.6354485716883055e-06   -9.999657032362555e-06
-1.0020268672771347e-05   2.2003134893145305e-06   -1.5512141102570732e-05
-1.0020268672771347e-05   2.2003134893145305e-06   -1.5512141102570732e-05
-1.0020268672771347e-05   2.2003134893145305e-06   -1.5512141102570732e-05
-1.0020268672771347e-05   2.2003134893145305e-06   -1.5512141102570732e-05
-9.753269091868684e-06   2.08782293142733e-06   -9.928244541498085e-06
-9.753269091868684e-06   2.08782293142733e-06   -9.928244541498085e-06
-9.753269091868684e-06   2.08782293142733e-06   -9.928244541498085e-06
-9.753269091868684e-06   2.08782293142733e-06   -9.928244541498085e-06
-6.284014018080572e-06   2.602150209716071e-06   -1.6018932698118193e-05
-6.284014018080572e-06   2.602150209716071e-06   -1.6018932698118193e-05
-6.284014018080572e-06   2.602150209716071e-06   -1.6018932698118193e-05
-6.284014018080572e-06   2.602150209716071e-06   -1.6018932698118193e-05
-8.161664208743675e-06   2.0053579179968003e-06   -1.2531440338648088e-05
-8.161664208743675e-06   2.0053579179968003e-06   -1.2531440338648088e-05
-8.161664208743675e-06   2.0053579179968003e-06   -1.2531440338648088e-05
-8.161664208743675e-06   2.0053579179968003e-06   -1.2531440338648088e-05
-1.0607758233204862e-05   1.3341726538710968e-06   -5.352160676654137e-06
-1.0607758233204862e-05   1.3341726538710968e-06   -5.352160676654137e-06
-1.0607758233204862e-05   1.3341726538710968e-06   -5.352160676654137e-06
-1.0607758233204862e-05   1.3341726538710968e-06   -5.352160676654137e-06
-1.4756486925835128e-05   2.475901590638348e-06   -1.1581671135644383e-05
-1.4756486925835128e-05   2.475901590638348e-06   -1.1581671135644383e-05
-1.4756486925835128e-05   2.475901590638348e-06   -1.1581671135644383e-05
-1.4756486925835128e-05   2.475901590638348e-06   -1.1581671135644383e-05
-1.4009506054939748e-05   1.7340364152301866e-06   -3.322859961548579e-06
-1.4009506054939748e-05   1.7340364152301866e-06   -3.322859961548579e-06
-1.4009506054939748e-05   1.7340364152301866e-06   -3.322859961548579e-06
-1.4009506054939748e-05   1.7340364152301866e-06   -3.322859961548579e-06
-1.034150315874227e-05   2.893388892548604e-06   -1.0131809608268815e-05
-1.034150315874227e-05   2.893388892548604e-06   -1.0131809608268815e-05
-1.034150315874227e-05   2.893388892548604e-06   -1.0131809608268815e-05
-1.034150315874227e-05   2.893388892548604e-06   -1.0131809608268815e-05
-1.1923445687068646e-05   2.155226083239473e-06   -7.052341042139448e-06
-1.1923445687068646e-05   2.155226083239473e-06   -7.052341042139448e-06
-1.1923445687068646e-05   2.155226083239473e-06   -7.052341042139448e-06
-1.1923445687068646e-05   2.155226083239473e-06   -7.052341042139448e-06
-1.034150315874228e-05   1.7340364152301866e-06   -4.018471447939662e-06
-1.034150315874228e-05   1.7340364152301866e-06   -4.018471447939662e-06
-1.034150315874228e-05   1.7340364152301866e-06   -4.018471447939662e-06
-1.034150315874228e-05   1.7340364152301866e-06   -4.018471447939662e-06
-1.40095060549397e-05   2.8933888925484954e-06   -9.436198121877772e-06
-1.40095060549397e-05   2.8933888925484954e-06   -9.436198121877772e-06
-1.40095060549397e-05   2.8933888925484954e-06   -9.436198121877772e-06
-1.40095060549397e-05   2.8933888925484954e-06   -9.436198121877772e-06
-1.3392220997742048e-05   1.9170154757954926e-06   -2.6990387430652837e-06
-1.3392220997742048e-05   1.9170154757954926e-06   -2.6990387430652837e-06
-1.3392220997742048e-05   1.9170154757954926e-06   -2.6990387430652837e-06
-1.3392220997742048e-05   1.9170154757954926e-06   -2.6990387430652837e-06
-1.002026867277133e-05   3.0433775590202805e-06   -8.994776534617921e-06
-1.002026867277133e-05   3.0433775590202805e-06   -8.994776534617921e-06
-1.002026867277133e-05   3.0433775590202805e-06   -8.994776534617921e-06
-1.002026867277133e-05   3.0433775590202805e-06   -8.994776534617921e-06
-1.1657912694430682e-05   2.3446382445425473e-06   -5.846126243165767e-06
-1.1657912694430682e-05   2.3446382445425473e-06   -5.846126243165767e-06
-1.1657912694430682e-05   2.3446382445425473e-06   -5.846126243165767e-06
-1.1657912694430682e-05   2.3446382445425473e-06   -5.846126243165767e-06
-1.0020268672771347e-05   1.9170154757954926e-06   -3.374855993000113e-06
-1.0020268672771347e-05   1.9170154757954926e-06   -3.374855993000113e-06
-1.0020268672771347e-05   1.9170154757954926e-06   -3.374855993000113e-06
-1.0020268672771347e-05   1.9170154757954926e-06   -3.374855993000113e-06
-1.3392220997742008e-05   3.0433775590202805e-06   -8.318959284683099e-06
-1.3392220997742008e-05   3.0433775590202805e-06   -8.318959284683099e-06
-1.3392220997742008e-05   3.0433775590202805e-06   -8.318959284683099e-06
-1.3392220997742008e-05   3.0433775590202805e-06   -8.318959284683099e-06
-1.2659045406885664e-05   2.1972904320481006e-06   -2.0370254850099164e-06
-1.2659045406885664e-05   2.1972904320481006e-06   -2.0370254850099164e-06
-1.2659045406885664e-05   2.1972904320481006e-06   -2.0370254850099164e-06
-1.2659045406885664e-05   2.1972904320481006e-06   -2.0370254850099164e-06
-9.753269091868684e-06   3.2300698285281674e-06   -7.49965364792631e-06
-9.753269091868684e-06   3.2300698285281674e-06   -7.49965364792631e-06
-9.753269091868684e-06   3.2300698285281674e-06   -7.49965364792631e-06
-9.753269091868684e-06   3.2300698285281674e-06   -7.49965364792631e-06
-1.1074272473543297e-05   2.4348323597877e-06   -4.820838863891177e-06
-1.1074272473543297e-05   2.4348323597877e-06   -4.820838863891177e-06
-1.1074272473543297e-05   2.4348323597877e-06   -4.820838863891177e-06
-1.1074272473543297e-05   2.4348323597877e-06   -4.820838863891177e-06
1.1092732990793978e-05   -1.4501232764495492e-06   3.6028774652390426e-08
1.1092732990793978e-05   -1.4501232764495492e-06   3.6028774652390426e-08
1.1092732990793978e-05   -1.4501232764495492e-06   3.6028774652390426e-08
1.1092732990793978e-05   -1.4501232764495492e-06   3.6028774652390426e-08
4.7066398497074165e-06   -2.5999332209604084e-06   -1.1297345760531816e-05
4.7066398497074165e-06   -2.5999332209604084e-06   -1.1297345760531816e-05
4.7066398497074165e-06   -2.5999332209604084e-06   -1.1297345760531816e-05
4.7066398497074165e-06   -2.5999332209604084e-06   -1.1297345760531816e-05
5.029190515221853e-06   -1.1935397182104724e-06   -1.128929769507567e-06
5.029190515221853e-06   -1.1935397182104724e-06   -1.128929769507567e-06
5.029190515221853e-06   -1.1935397182104724e-06   -1.128929769507567e-06
5.029190515221853e-06   -1.1935397182104724e-06   -1.128929769507567e-06
1.191307065427966e-05   -2.419775215696464e-06   -1.186632203611251e-05
1.191307065427966e-05   -2.419775215696464e-06   -1.186632203611251e-05
1.191307065427966e-05   -2.419775215696464e-06   -1.186632203611251e-05
1.191307065427966e-05   -2.419775215696464e-06   -1.186632203611251e-05
7.854297890935819e-06   -1.7185640005964965e-06   -5.522427492932701e-06
7.854297890935819e-06   -1.7185640005964965e-06   -5.522427492932701e-06
7.854297890935819e-06   -1.7185640005964965e-06   -5.522427492932701e-06
7.854297890935819e-06   -1.7185640005964965e-06   -5.522427492932701e-06
1.1913070654279688e-05   -1.1935397182104724e-06   -3.93188471016037e-07
1.1913070654279688e-05   -1.1935397182104724e-06   -3.93188471016037e-07
1.1913070654279688e-05   -1.1935397182104724e-06   -3.93188471016037e-07
1.1913070654279688e-05   -1.1935397182104724e-06   -3.93188471016037e-07
5.029190515221839e-06   -2.4197752156963556e-06   -1.2602063334603958e-05
5.029190515221839e-06   -2.4197752156963556e-06   -1.2602063334603958e-05
5.029190515221839e-06   -2.4197752156963556e-06   -1.2602063334603958e-05
5.029190515221839e-06   -2.4197752156963556e-06   -1.2602063334603958e-05
5.387098464641274e-06   -1.0206775708162e-06   -1.64289916332566e-06
5.387098464641274e-06   -1.0206775708162e-06   -1.64289916332566e-06
5.387098464641274e-06   -1.0206775708162e-06   -1.64289916332566e-06
5.387098464641274e-06   -1.0206775708162e-06   -1.64289916332566e-06
1.2599810677729907e-05   -2.262671385792718e-06   -1.2918889896154054e-05
1.2599810677729907e-05   -2.262671385792718e-06   -1.2918889896154054e-05
1.2599810677729907e-05   -2.262671385792718e-06   -1.2918889896154054e-05
1.2599810677729907e-05   -2.262671385792718e-06   -1.2918889896154054e-05
8.470066754411093e-06   -1.6484847629674336e-06   -6.404495330984618e-06
8.470066754411093e-06   -1.6484847629674336e-06   -6.404495330984618e-06
8.470066754411093e-06   -1.6484847629674336e-06   -6.404495330984618e-06
8.470066754411093e-06   -1.6484847629674336e-06   -6.404495330984618e-06
1.2599810677729921e-05   -1.0206775708162e-06   -8.977028743396517e-07
1.2599810677729921e-05   -1.0206775708162e-06   -8.977028743396517e-07
1.2599810677729921e-05   -1.0206775708162e-06   -8.977028743396517e-07
1.2599810677729921e-05   -1.0206775708162e-06   -8.977028743396517e-07
5.387098464641261e-06   -2.262671385792718e-06   -1.3664086185140117e-05
5.387098464641261e-06   -2.262671385792718e-06   -1.3664086185140117e-05
5.387098464641261e-06   -2.262671385792718e-06   -1.3664086185140117e-05
5.387098464641261e-06   -2.262671385792718e-06   -1.3664086185140117e-05
5.681068304003677e-06   -5.86867417592409e-07   -2.8216722603952114e-06
5.681068304003677e-06   -5.86867417592409e-07   -2.8216722603952114e-06
5.681068304003677e-06   -5.86867417592409e-07   -2.8216722603952114e-06
5.681068304003677e-06   -5.86867417592409e-07   -2.8216722603952114e-06
1.3397532356302318e-05   -1.7684002770458574e-06   -1.4973525965220915e-05
1.3397532356302318e-05   -1.7684002770458574e-06   -1.4973525965220915e-05
1.3397532356302318e-05   -1.7684002770458574e-06   -1.4973525965220915e-05
1.3397532356302318e-05   -1.7684002770458574e-06   -1.4973525965220915e-05
8.79700314895804e-06   -1.453090477282243e-06   -7.495163166172246e-06
8.79700314895804e-06   -1.453090477282243e-06   -7.495163166172246e-06
8.79700314895804e-06   -1.453090477282243e-06   -7.495163166172246e-06
8.79700314895804e-06   -1.453090477282243e-06   -7.495163166172246e-06
4.7066398497074165e-06   -5.661840277433692e-07   -7.534754086792317e-06
4.7066398497074165e-06   -5.661840277433692e-07   -7.534754086792317e-06
4.7066398497074165e-06   -5.661840277433692e-07   -7.534754086792317e-06
4.7066398497074165e-06   -5.661840277433692e-07   -7.534754086792317e-06
-2.0310309990012325e-06   -1.2057507988507158e-06   -1.91479455639711e-05
-2.0310309990012325e-06   -1.2057507988507158e-06   -1.91479455639711e-05
-2.0310309990012325e-06   -1.2057507988507158e-06   -1.91479455639711e-05
-2.0310309990012325e-06   -1.2057507988507158e-06   -1.91479455639711e-05
-1.732262185987293e-06   -2.124349438893669e-07   -7.691082573518327e-06
-1.732262185987293e-06   -2.124349438893669e-07   -7.691082573518327e-06
-1.732262185987293e-06   -2.124349438893669e-07   -7.691082573518327e-06
-1.732262185987293e-06   -2.124349438893669e-07   -7.691082573518327e-06
5.029190515221839e-06   -9.518625599578244e-07   -1.851651383922586e-05
5.029190515221839e-06   -9.518625599578244e-07   -1.851651383922586e-05
5.029190515221839e-06   -9.518625599578244e-07   -1.851651383922586e-05
5.029190515221839e-06   -9.518625599578244e-07   -1.851651383922586e-05
1.5092451678985105e-06   -5.808508248615445e-07   -1.2872545301411374e-05
1.5092451678985105e-06   -5.808508248615445e-07   -1.2872545301411374e-05
1.5092451678985105e-06   -5.808508248615445e-07   -1.2872545301411374e-05
1.5092451678985105e-06   -5.808508248615445e-07   -1.2872545301411374e-05
5.029190515221853e-06   -2.124349438893669e-07   -7.2474260038772956e-06
5.029190515221853e-06   -2.124349438893669e-07   -7.2474260038772956e-06
5.029190515221853e-06   -2.124349438893669e-07   -7.2474260038772956e-06
5.029190515221853e-06   -2.124349438893669e-07   -7.2474260038772956e-06
-1.7322621859872862e-06   -9.518625599578244e-07   -1.8960170408866862e-05
-1.7322621859872862e-06   -9.518625599578244e-07   -1.8960170408866862e-05
-1.7322621859872862e-06   -9.518625599578244e-07   -1.8960170408866862e-05
-1.7322621859872862e-06   -9.518625599578244e-07   -1.8960170408866862e-05
-1.4470481871914145e-06   1.5398288069916246e-07   -7.793824850917466e-06
-1.4470481871914145e-06   1.5398288069916246e-07   -7.793824850917466e-06
-1.4470481871914145e-06   1.5398288069916246e-07   -7.793824850917466e-06
-1.4470481871914145e-06   1.5398288069916246e-07   -7.793824850917466e-06
5.387098464641261e-06   -6.418597542824254e-07   -1.8706563689649733e-05
5.387098464641261e-06   -6.418597542824254e-07   -1.8706563689649733e-05
5.387098464641261e-06   -6.418597542824254e-07   -1.8706563689649733e-05
5.387098464641261e-06   -6.418597542824254e-07   -1.8706563689649733e-05
1.7445761972958755e-06   -3.5540571879694345e-07   -1.2807565665365e-05
1.7445761972958755e-06   -3.5540571879694345e-07   -1.2807565665365e-05
1.7445761972958755e-06   -3.5540571879694345e-07   -1.2807565665365e-05
1.7445761972958755e-06   -3.5540571879694345e-07   -1.2807565665365e-05
5.387098464641274e-06   1.5398288069916246e-07   -7.316319269928633e-06
5.387098464641274e-06   1.5398288069916246e-07   -7.316319269928633e-06
5.387098464641274e-06   1.5398288069916246e-07   -7.316319269928633e-06
5.387098464641274e-06   1.5398288069916246e-07   -7.316319269928633e-06
-1.4470481871914145e-06   -6.418597542824254e-07   -1.9184069270638648e-05
-1.4470481871914145e-06   -6.418597542824254e-07   -1.9184069270638648e-05
-1.4470481871914145e-06   -6.418597542824254e-07   -1.9184069270638648e-05
-1.4470481871914145e-06   -6.418597542824254e-07   -1.9184069270638648e-05
-1.1796316770495312e-06   5.888885879684396e-07   -8.063580165917146e-06
-1.1796316770495312e-06   5.888885879684396e-07   -8.063580165917146e-06
-1.1796316770495312e-06   5.888885879684396e-07   -8.063580165917146e-06
-1.1796316770495312e-06   5.888885879684396e-07   -8.063580165917146e-06
5.681068304003677e-06   -2.510194090680432e-07   -1.899413533611722e-05
5.681068304003677e-06   -2.510194090680432e-07   -1.899413533611722e-05
5.681068304003677e-06   -2.510194090680432e-07   -1.899413533611722e-05
5.681068304003677e-06   -2.510194090680432e-07   -1.899413533611722e-05
2.040934151678006e-06   -7.683933977422827e-08   -1.3031753123817803e-05
2.040934151678006e-06   -7.683933977422827e-08   -1.3031753123817803e-05
2.040934151678006e-06   -7.683933977422827e-08   -1.3031753123817803e-05
2.040934151678006e-06   -7.683933977422827e-08   -1.3031753123817803e-05
-2.0310309990012325e-06   4.4967738942484816e-07   -9.727876054328483e-06
-2.0310309990012325e-06   4.4967738942484816e-07   -9.727876054328483e-06
-2.0310309990012325e-06   4.4967738942484816e-07   -9.727876054328483e-06
-2.0310309990012325e-06   4.4967738942484816e-07   -9.727876054328483e-06
-8.649934806142438e-06   2.42804454505521e-07   -2.088350616051538e-05
-8.649934806142438e-06   2.42804454505521e-07   -2.088350616051538e-05
-8.649934806142438e-06   2.42804454505521e-07   -2.088350616051538e-05
-8.649934806142438e-06   2.42804454505521e-07   -2.088350616051538e-05
-8.328529692888691e-06   8.252181426487808e-07   -9.653895791097316e-06
-8.328529692888691e-06   8.252181426487808e-07   -9.653895791097316e-06
-8.328529692888691e-06   8.252181426487808e-07   -9.653895791097316e-06
-8.328529692888691e-06   8.252181426487808e-07   -9.653895791097316e-06
-1.7322621859872862e-06   5.288486345406433e-07   -2.0469853264401324e-05
-1.7322621859872862e-06   5.288486345406433e-07   -2.0469853264401324e-05
-1.7322621859872862e-06   5.288486345406433e-07   -2.0469853264401324e-05
-1.7322621859872862e-06   5.288486345406433e-07   -2.0469853264401324e-05
-5.150406892259183e-06   6.175050584911884e-07   -1.4826139274985218e-05
-5.150406892259183e-06   6.175050584911884e-07   -1.4826139274985218e-05
-5.150406892259183e-06   6.175050584911884e-07   -1.4826139274985218e-05
-5.150406892259183e-06   6.175050584911884e-07   -1.4826139274985218e-05
-1.732262185987293e-06   8.252181426487808e-07   -9.476074086232336e-06
-1.732262185987293e-06   8.252181426487808e-07   -9.476074086232336e-06
-1.732262185987293e-06   8.252181426487808e-07   -9.476074086232336e-06
-1.732262185987293e-06   8.252181426487808e-07   -9.476074086232336e-06
-8.328529692888691e-06   5.288486345406433e-07   -2.0647674969266237e-05
-8.328529692888691e-06   5.288486345406433e-07   -2.0647674969266237e-05
-8.328529692888691e-06   5.288486345406433e-07   -2.0647674969266237e-05
-8.328529692888691e-06   5.288486345406433e-07   -2.0647674969266237e-05
-8.0182186441734e-06   1.2222348174216338e-06   -9.639459038648544e-06
-8.0182186441734e-06   1.2222348174216338e-06   -9.639459038648544e-06
-8.0182186441734e-06   1.2222348174216338e-06   -9.639459038648544e-06
-8.0182186441734e-06   1.2222348174216338e-06   -9.639459038648544e-06
-1.4470481871914145e-06   8.587939581969958e-07   -2.0373345284750407e-05
-1.4470481871914145e-06   8.587939581969958e-07   -2.0373345284750407e-05
-1.4470481871914145e-06   8.587939581969958e-07   -2.0373345284750407e-05
-1.4470481871914145e-06   8.587939581969958e-07   -2.0373345284750407e-05
-4.8745088296443865e-06   8.855401712551132e-07   -1.4676958608497031e-05
-4.8745088296443865e-06   8.855401712551132e-07   -1.4676958608497031e-05
-4.8745088296443865e-06   8.855401712551132e-07   -1.4676958608497031e-05
-4.8745088296443865e-06   8.855401712551132e-07   -1.4676958608497031e-05
-1.4470481871914213e-06   1.2222348174216338e-06   -9.421394523113902e-06
-1.4470481871914213e-06   1.2222348174216338e-06   -9.421394523113902e-06
-1.4470481871914213e-06   1.2222348174216338e-06   -9.421394523113902e-06
-1.4470481871914213e-06   1.2222348174216338e-06   -9.421394523113902e-06
-8.0182186441734e-06   8.587939581969958e-07   -2.059140980028532e-05
-8.0182186441734e-06   8.587939581969958e-07   -2.059140980028532e-05
-8.0182186441734e-06   8.587939581969958e-07   -2.059140980028532e-05
-8.0182186441734e-06   8.587939581969958e-07   -2.059140980028532e-05
-7.731527693681106e-06   1.6261784871948737e-06   -9.868861196096973e-06
-7.731527693681106e-06   1.6261784871948737e-06   -9.868861196096973e-06
-7.731527693681106e-06   1.6261784871948737e-06   -9.868861196096973e-06
-7.731527693681106e-06   1.6261784871948737e-06   -9.868861196096973e-06
-1.179631677049538e-06   1.1995354351073979e-06   -2.053270205923044e-05
-1.179631677049538e-06   1.1995354351073979e-06   -2.053270205923044e-05
-1.179631677049538e-06   1.1995354351073979e-06   -2.053270205923044e-05
-1.179631677049538e-06   1.1995354351073979e-06   -2.053270205923044e-05
-4.628604840573422e-06   1.1605313696473347e-06   -1.4761011014081536e-05
-4.628604840573422e-06   1.1605313696473347e-06   -1.4761011014081536e-05
-4.628604840573422e-06   1.1605313696473347e-06   -1.4761011014081536e-05
-4.628604840573422e-06   1.1605313696473347e-06   -1.4761011014081536e-05
-8.649934806142455e-06   1.4388787726073984e-06   -7.88074263553503e-06
-8.649934806142455e-06   1.4388787726073984e-06   -7.88074263553503e-06
-8.649934806142455e-06   1.4388787726073984e-06   -7.88074263553503e-06
-8.649934806142455e-06   1.4388787726073984e-06   -7.88074263553503e-06
-1.515970689540256e-05   1.7436589620246088e-06   -1.854749467065166e-05
-1.515970689540256e-05   1.7436589620246088e-06   -1.854749467065166e-05
-1.515970689540256e-05   1.7436589620246088e-06   -1.854749467065166e-05
-1.515970689540256e-05   1.7436589620246088e-06   -1.854749467065166e-05
-1.4771461431372588e-05   1.8398332351463606e-06   -7.392301902813458e-06
-1.4771461431372588e-05   1.8398332351463606e-06   -7.392301902813458e-06
-1.4771461431372588e-05   1.8398332351463606e-06   -7.392301902813458e-06
-1.4771461431372588e-05   1.8398332351463606e-06   -7.392301902813458e-06
-8.328529692888705e-06   2.105274834575204e-06   -1.8289786426610493e-05
-8.328529692888705e-06   2.105274834575204e-06   -1.8289786426610493e-05
-8.328529692888705e-06   2.105274834575204e-06   -1.8289786426610493e-05
-8.328529692888705e-06   2.105274834575204e-06   -1.8289786426610493e-05
-1.1642003140407266e-05   1.8555705635053387e-06   -1.2617508118104319e-05
-1.1642003140407266e-05   1.8555705635053387e-06   -1.2617508118104319e-05
-1.1642003140407266e-05   1.8555705635053387e-06   -1.2617508118104319e-05
-1.1642003140407266e-05   1.8555705635053387e-06   -1.2617508118104319e-05
-8.328529692888705e-06   1.8398332351463606e-06   -7.55156686247071e-06
-8.328529692888705e-06   1.8398332351463606e-06   -7.55156686247071e-06
-8.328529692888705e-06   1.8398332351463606e-06   -7.55156686247071e-06
-8.328529692888705e-06   1.8398332351463606e-06   -7.55156686247071e-06
-1.4771461431372588e-05   2.105274834575204e-06   -1.8130521466953268e-05
-1.4771461431372588e-05   2.105274834575204e-06   -1.8130521466953268e-05
-1.4771461431372588e-05   2.105274834575204e-06   -1.8130521466953268e-05
-1.4771461431372588e-05   2.105274834575204e-06   -1.8130521466953268e-05
-1.4339970978682953e-05   2.2003134893145305e-06   -7.120290358871386e-06
-1.4339970978682953e-05   2.2003134893145305e-06   -7.120290358871386e-06
-1.4339970978682953e-05   2.2003134893145305e-06   -7.120290358871386e-06
-1.4339970978682953e-05   2.2003134893145305e-06   -7.120290358871386e-06
-8.018218644173413e-06   2.4164508791691634e-06   -1.7786226683633394e-05
-8.018218644173413e-06   2.4164508791691634e-06   -1.7786226683633394e-05
-8.018218644173413e-06   2.4164508791691634e-06   -1.7786226683633394e-05
-8.018218644173413e-06   2.4164508791691634e-06   -1.7786226683633394e-05
-1.124737155517851e-05   2.138140502431791e-06   -1.2237318939249172e-05
-1.124737155517851e-05   2.138140502431791e-06   -1.2237318939249172e-05
-1.124737155517851e-05   2.138140502431791e-06   -1.2237318939249172e-05
-1.124737155517851e-05   2.138140502431791e-06   -1.2237318939249172e-05
-8.018218644173406e-06   2.2003134893145305e-06   -7.2499727927841226e-06
-8.018218644173406e-06   2.2003134893145305e-06   -7.2499727927841226e-06
-8.018218644173406e-06   2.2003134893145305e-06   -7.2499727927841226e-06
-8.018218644173406e-06   2.2003134893145305e-06   -7.2499727927841226e-06
-1.4339970978682953e-05   2.4164508791691634e-06   -1.7656544249720712e-05
-1.4339970978682953e-05   2.4164508791691634e-06   -1.7656544249720712e-05
-1.4339970978682953e-05   2.4164508791691634e-06   -1.7656544249720712e-05
-1.4339970978682953e-05   2.4164508791691634e-06   -1.7656544249720712e-05
-1.397585625878815e-05   2.602150209716071e-06   -7.285704498333364e-06
-1.397585625878815e-05   2.602150209716071e-06   -7.285704498333364e-06
-1.397585625878815e-05   2.602150209716071e-06   -7.285704498333364e-06
-1.397585625878815e-05   2.602150209716071e-06   -7.285704498333364e-06
-7.73152769368112e-06   2.7594118694399938e-06   -1.778727576934611e-05
-7.73152769368112e-06   2.7594118694399938e-06   -1.778727576934611e-05
-7.73152769368112e-06   2.7594118694399938e-06   -1.778727576934611e-05
-7.73152769368112e-06   2.7594118694399938e-06   -1.778727576934611e-05
-1.1006560314798509e-05   2.3979078263287705e-06   -1.2111985641617023e-05
-1.1006560314798509e-05   2.3979078263287705e-06   -1.2111985641617023e-05
-1.1006560314798509e-05   2.3979078263287705e-06   -1.2111985641617023e-05
-1.1006560314798509e-05   2.3979078263287705e-06   -1.2111985641617023e-05
-1.515970689540256e-05   2.475901590638348e-06   -3.93701083955671e-06
-1.515970689540256e-05   2.475901590638348e-06   -3.93701083955671e-06
-1.515970689540256e-05   2.475901590638348e-06   -3.93701083955671e-06
-1.515970689540256e-05   2.475901590638348e-06   -3.93701083955671e-06
-2.2035010893619667e-05   3.408095315223913e-06   -1.483653460183389e-05
-2.2035010893619667e-05   3.408095315223913e-06   -1.483653460183389e-05
-2.2035010893619667e-05   3.408095315223913e-06   -1.483653460183389e-05
-2.2035010893619667e-05   3.408095315223913e-06   -1.483653460183389e-05
-2.1130128332786763e-05   2.893388892548604e-06   -1.1780048385882512e-06
-2.1130128332786763e-05   2.893388892548604e-06   -1.1780048385882512e-06
-2.1130128332786763e-05   2.893388892548604e-06   -1.1780048385882512e-06
-2.1130128332786763e-05   2.893388892548604e-06   -1.1780048385882512e-06
-1.4771461431372564e-05   3.888809101989144e-06   -1.2373035133276295e-05
-1.4771461431372564e-05   3.888809101989144e-06   -1.2373035133276295e-05
-1.4771461431372564e-05   3.888809101989144e-06   -1.2373035133276295e-05
-1.4771461431372564e-05   3.888809101989144e-06   -1.2373035133276295e-05
-1.7519368258874566e-05   3.246179811233654e-06   -7.407612846319535e-06
-1.7519368258874566e-05   3.246179811233654e-06   -7.407612846319535e-06
-1.7519368258874566e-05   3.246179811233654e-06   -7.407612846319535e-06
-1.7519368258874566e-05   3.246179811233654e-06   -7.407612846319535e-06
-1.4771461431372576e-05   2.893388892548604e-06   -1.775256964252586e-06
-1.4771461431372576e-05   2.893388892548604e-06   -1.775256964252586e-06
-1.4771461431372576e-05   2.893388892548604e-06   -1.775256964252586e-06
-1.4771461431372576e-05   2.893388892548604e-06   -1.775256964252586e-06
-2.113012833278673e-05   3.888809101989144e-06   -1.1775783007611875e-05
-2.113012833278673e-05   3.888809101989144e-06   -1.1775783007611875e-05
-2.113012833278673e-05   3.888809101989144e-06   -1.1775783007611875e-05
-2.113012833278673e-05   3.888809101989144e-06   -1.1775783007611875e-05
-2.0385771984827005e-05   3.0433775590202805e-06   -1.9357564665296086e-08
-2.0385771984827005e-05   3.0433775590202805e-06   -1.9357564665296086e-08
-2.0385771984827005e-05   3.0433775590202805e-06   -1.9357564665296086e-08
-2.0385771984827005e-05   3.0433775590202805e-06   -1.9357564665296086e-08
-1.4339970978682953e-05   4.015991269442623e-06   -1.067926080115873e-05
-1.4339970978682953e-05   4.015991269442623e-06   -1.067926080115873e-05
-1.4339970978682953e-05   4.015991269442623e-06   -1.067926080115873e-05
-1.4339970978682953e-05   4.015991269442623e-06   -1.067926080115873e-05
-1.7221642038674938e-05   3.440036421482537e-06   -5.530902792395863e-06
-1.7221642038674938e-05   3.440036421482537e-06   -5.530902792395863e-06
-1.7221642038674938e-05   3.440036421482537e-06   -5.530902792395863e-06
-1.7221642038674938e-05   3.440036421482537e-06   -5.530902792395863e-06
-1.4339970978682953e-05   3.0433775590202805e-06   -6.029257909186906e-07
-1.4339970978682953e-05   3.0433775590202805e-06   -6.029257909186906e-07
-1.4339970978682953e-05   3.0433775590202805e-06   -6.029257909186906e-07
-1.4339970978682953e-05   3.0433775590202805e-06   -6.029257909186906e-07
-2.038577198482693e-05   4.015991269442514e-06   -1.0095692574905416e-05
-2.038577198482693e-05   4.015991269442514e-06   -1.0095692574905416e-05
-2.038577198482693e-05   4.015991269442514e-06   -1.0095692574905416e-05
-2.038577198482693e-05   4.015991269442514e-06   -1.0095692574905416e-05
-1.9579413807359e-05   3.2300698285281674e-06   1.4598864093014695e-06
-1.9579413807359e-05   3.2300698285281674e-06   1.4598864093014695e-06
-1.9579413807359e-05   3.2300698285281674e-06   1.4598864093014695e-06
-1.9579413807359e-05   3.2300698285281674e-06   1.4598864093014695e-06
-1.397585625878815e-05   4.1215835358884975e-06   -8.414284396066126e-06
-1.397585625878815e-05   4.1215835358884975e-06   -8.414284396066126e-06
-1.397585625878815e-05   4.1215835358884975e-06   -8.414284396066126e-06
-1.397585625878815e-05   4.1215835358884975e-06   -8.414284396066126e-06
-1.646121982175889e-05   3.471087829340488e-06   -3.881714367186301e-06
-1.646121982175889e-05   3.471087829340488e-06   -3.881714367186301e-06
-1.646121982175889e-05   3.471087829340488e-06   -3.881714367186301e-06
-1.646121982175889e-05   3.471087829340488e-06   -3.881714367186301e-06
1.8694689850843937e-05   -2.599933220960517e-06   3.8244889059118855e-06
1.8694689850843937e-05   -2.599933220960517e-06   3.8244889059118855e-06
1.8694689850843937e-05   -2.599933220960517e-06   3.8244889059118855e-06
1.8694689850843937e-05   -2.599933220960517e-06   3.8244889059118855e-06
8.982803147203586e-06   -3.831867923228985e-06   -1.3101149754849752e-05
8.982803147203586e-06   -3.831867923228985e-06   -1.3101149754849752e-05
8.982803147203586e-06   -3.831867923228985e-06   -1.3101149754849752e-05
8.982803147203586e-06   -3.831867923228985e-06   -1.3101149754849752e-05
9.33954001807446e-06   -2.4197752156963556e-06   1.9065136607636412e-06
9.33954001807446e-06   -2.4197752156963556e-06   1.9065136607636412e-06
9.33954001807446e-06   -2.4197752156963556e-06   1.9065136607636412e-06
9.33954001807446e-06   -2.4197752156963556e-06   1.9065136607636412e-06
1.9533345783027053e-05   -3.7444858081792445e-06   -1.4288336258667662e-05
1.9533345783027053e-05   -3.7444858081792445e-06   -1.4288336258667662e-05
1.9533345783027053e-05   -3.7444858081792445e-06   -1.4288336258667662e-05
1.9533345783027053e-05   -3.7444858081792445e-06   -1.4288336258667662e-05
1.3561557573401466e-05   -2.842729808569342e-06   -4.876409509057644e-06
1.3561557573401466e-05   -2.842729808569342e-06   -4.876409509057644e-06
1.3561557573401466e-05   -2.842729808569342e-06   -4.876409509057644e-06
1.3561557573401466e-05   -2.842729808569342e-06   -4.876409509057644e-06
1.953334578302708e-05   -2.4197752156963556e-06   2.701340016253353e-06
1.953334578302708e-05   -2.4197752156963556e-06   2.701340016253353e-06
1.953334578302708e-05   -2.4197752156963556e-06   2.701340016253353e-06
1.953334578302708e-05   -2.4197752156963556e-06   2.701340016253353e-06
9.339540018074447e-06   -3.7444858081792445e-06   -1.5083162614157374e-05
9.339540018074447e-06   -3.7444858081792445e-06   -1.5083162614157374e-05
9.339540018074447e-06   -3.7444858081792445e-06   -1.5083162614157374e-05
9.339540018074447e-06   -3.7444858081792445e-06   -1.5083162614157374e-05
9.694700467251387e-06   -2.2626713857928265e-06   9.632345830170577e-07
9.694700467251387e-06   -2.2626713857928265e-06   9.632345830170577e-07
9.694700467251387e-06   -2.2626713857928265e-06   9.632345830170577e-07
9.694700467251387e-06   -2.2626713857928265e-06   9.632345830170577e-07
2.0175474761164927e-05   -3.6137789711602206e-06   -1.5694058022285153e-05
2.0175474761164927e-05   -3.6137789711602206e-06   -1.5694058022285153e-05
2.0175474761164927e-05   -3.6137789711602206e-06   -1.5694058022285153e-05
2.0175474761164927e-05   -3.6137789711602206e-06   -1.5694058022285153e-05
1.4269589283074433e-05   -2.832883822705915e-06   -6.3194526478734935e-06
1.4269589283074433e-05   -2.832883822705915e-06   -6.3194526478734935e-06
1.4269589283074433e-05   -2.832883822705915e-06   -6.3194526478734935e-06
1.4269589283074433e-05   -2.832883822705915e-06   -6.3194526478734935e-06
2.0175474761164927e-05   -2.2626713857928265e-06   1.7738991342373858e-06
2.0175474761164927e-05   -2.2626713857928265e-06   1.7738991342373858e-06
2.0175474761164927e-05   -2.2626713857928265e-06   1.7738991342373858e-06
2.0175474761164927e-05   -2.2626713857928265e-06   1.7738991342373858e-06
9.694700467251387e-06   -3.6137789711602206e-06   -1.6504722573505617e-05
9.694700467251387e-06   -3.6137789711602206e-06   -1.6504722573505617e-05
9.694700467251387e-06   -3.6137789711602206e-06   -1.6504722573505617e-05
9.694700467251387e-06   -3.6137789711602206e-06   -1.6504722573505617e-05
9.934126386490375e-06   -1.7684002770458574e-06   -9.28392767720449e-07
9.934126386490375e-06   -1.7684002770458574e-06   -9.28392767720449e-07
9.934126386490375e-06   -1.7684002770458574e-06   -9.28392767720449e-07
9.934126386490375e-06   -1.7684002770458574e-06   -9.28392767720449e-07
2.0855076987738846e-05   -3.1065327601572865e-06   -1.8327097613267678e-05
2.0855076987738846e-05   -3.1065327601572865e-06   -1.8327097613267678e-05
2.0855076987738846e-05   -3.1065327601572865e-06   -1.8327097613267678e-05
2.0855076987738846e-05   -3.1065327601572865e-06   -1.8327097613267678e-05
1.4459488312313922e-05   -2.613800578846431e-06   -7.963422463012969e-06
1.4459488312313922e-05   -2.613800578846431e-06   -7.963422463012969e-06
1.4459488312313922e-05   -2.613800578846431e-06   -7.963422463012969e-06
1.4459488312313922e-05   -2.613800578846431e-06   -7.963422463012969e-06
8.982803147203586e-06   -1.2057507988507158e-06   -4.381531656224061e-06
8.982803147203586e-06   -1.2057507988507158e-06   -4.381531656224061e-06
8.982803147203586e-06   -1.2057507988507158e-06   -4.381531656224061e-06
8.982803147203586e-06   -1.2057507988507158e-06   -4.381531656224061e-06
-5.910448501900308e-07   -2.454750049430917e-06   -2.1087344535561684e-05
-5.910448501900308e-07   -2.454750049430917e-06   -2.1087344535561684e-05
-5.910448501900308e-07   -2.454750049430917e-06   -2.1087344535561684e-05
-5.910448501900308e-07   -2.454750049430917e-06   -2.1087344535561684e-05
-2.2589022982850564e-07   -9.518625599578244e-07   -4.8367800453458405e-06
-2.2589022982850564e-07   -9.518625599578244e-07   -4.8367800453458405e-06
-2.2589022982850564e-07   -9.518625599578244e-07   -4.8367800453458405e-06
-2.2589022982850564e-07   -9.518625599578244e-07   -4.8367800453458405e-06
9.33954001807446e-06   -2.333267895770325e-06   -1.99503205903632e-05
9.33954001807446e-06   -2.333267895770325e-06   -1.99503205903632e-05
9.33954001807446e-06   -2.333267895770325e-06   -1.99503205903632e-05
9.33954001807446e-06   -2.333267895770325e-06   -1.99503205903632e-05
4.38862186847575e-06   -1.486417586417355e-06   -1.2206900526643826e-05
4.38862186847575e-06   -1.486417586417355e-06   -1.2206900526643826e-05
4.38862186847575e-06   -1.486417586417355e-06   -1.2206900526643826e-05
4.38862186847575e-06   -1.486417586417355e-06   -1.2206900526643826e-05
9.339540018074447e-06   -9.518625599578244e-07   -4.007936843858232e-06
9.339540018074447e-06   -9.518625599578244e-07   -4.007936843858232e-06
9.339540018074447e-06   -9.518625599578244e-07   -4.007936843858232e-06
9.339540018074447e-06   -9.518625599578244e-07   -4.007936843858232e-06
-2.2589022982850564e-07   -2.333267895770325e-06   -2.077916379185081e-05
-2.2589022982850564e-07   -2.333267895770325e-06   -2.077916379185081e-05
-2.2589022982850564e-07   -2.333267895770325e-06   -2.077916379185081e-05
-2.2589022982850564e-07   -2.333267895770325e-06   -2.077916379185081e-05
9.5574734167076e-08   -6.418597542824254e-07   -4.960129053313534e-06
9.5574734167076e-08   -6.418597542824254e-07   -4.960129053313534e-06
9.5574734167076e-08   -6.418597542824254e-07   -4.960129053313534e-06
9.5574734167076e-08   -6.418597542824254e-07   -4.960129053313534e-06
9.694700467251387e-06   -2.1100033073170313e-06   -2.0077785809966567e-05
9.694700467251387e-06   -2.1100033073170313e-06   -2.0077785809966567e-05
9.694700467251387e-06   -2.1100033073170313e-06   -2.0077785809966567e-05
9.694700467251387e-06   -2.1100033073170313e-06   -2.0077785809966567e-05
4.634715434089653e-06   -1.3602381593574159e-06   -1.2094336510139073e-05
4.634715434089653e-06   -1.3602381593574159e-06   -1.2094336510139073e-05
4.634715434089653e-06   -1.3602381593574159e-06   -1.2094336510139073e-05
4.634715434089653e-06   -1.3602381593574159e-06   -1.2094336510139073e-05
9.694700467251387e-06   -6.418597542824254e-07   -4.079242921492749e-06
9.694700467251387e-06   -6.418597542824254e-07   -4.079242921492749e-06
9.694700467251387e-06   -6.418597542824254e-07   -4.079242921492749e-06
9.694700467251387e-06   -6.418597542824254e-07   -4.079242921492749e-06
9.5574734167076e-08   -2.1100033073170313e-06   -2.095867194178738e-05
9.5574734167076e-08   -2.1100033073170313e-06   -2.095867194178738e-05
9.5574734167076e-08   -2.1100033073170313e-06   -2.095867194178738e-05
9.5574734167076e-08   -2.1100033073170313e-06   -2.095867194178738e-05
3.2355409009106014e-07   -2.510194090680432e-07   -5.164744161802485e-06
3.2355409009106014e-07   -2.510194090680432e-07   -5.164744161802485e-06
3.2355409009106014e-07   -2.510194090680432e-07   -5.164744161802485e-06
3.2355409009106014e-07   -2.510194090680432e-07   -5.164744161802485e-06
9.934126386490402e-06   -1.7921223071642057e-06   -2.0257702916943746e-05
9.934126386490402e-06   -1.7921223071642057e-06   -2.0257702916943746e-05
9.934126386490402e-06   -1.7921223071642057e-06   -2.0257702916943746e-05
9.934126386490402e-06   -1.7921223071642057e-06   -2.0257702916943746e-05
4.933051371943095e-06   -1.139701985466762e-06   -1.2314030085717017e-05
4.933051371943095e-06   -1.139701985466762e-06   -1.2314030085717017e-05
4.933051371943095e-06   -1.139701985466762e-06   -1.2314030085717017e-05
4.933051371943095e-06   -1.139701985466762e-06   -1.2314030085717017e-05
-5.910448501900308e-07   2.42804454505521e-07   -6.742368042165006e-06
-5.910448501900308e-07   2.42804454505521e-07   -6.742368042165006e-06
-5.910448501900308e-07   2.42804454505521e-07   -6.742368042165006e-06
-5.910448501900308e-07   2.42804454505521e-07   -6.742368042165006e-06
-1.0023602929678933e-05   -1.2448390840152316e-06   -2.3355884297758956e-05
-1.0023602929678933e-05   -1.2448390840152316e-06   -2.3355884297758956e-05
-1.0023602929678933e-05   -1.2448390840152316e-06   -2.3355884297758956e-05
-1.0023602929678933e-05   -1.2448390840152316e-06   -2.3355884297758956e-05
-9.585101870587863e-06   5.288486345406433e-07   -7.324048887059399e-06
-9.585101870587863e-06   5.288486345406433e-07   -7.324048887059399e-06
-9.585101870587863e-06   5.288486345406433e-07   -7.324048887059399e-06
-9.585101870587863e-06   5.288486345406433e-07   -7.324048887059399e-06
-2.2589022982850564e-07   -1.1004613424247384e-06   -2.1945148968812567e-05
-2.2589022982850564e-07   -1.1004613424247384e-06   -2.1945148968812567e-05
-2.2589022982850564e-07   -1.1004613424247384e-06   -2.1945148968812567e-05
-2.2589022982850564e-07   -1.1004613424247384e-06   -2.1945148968812567e-05
-5.047381756583267e-06   -2.1193972568253876e-07   -1.4442442727599923e-05
-5.047381756583267e-06   -2.1193972568253876e-07   -1.4442442727599923e-05
-5.047381756583267e-06   -2.1193972568253876e-07   -1.4442442727599923e-05
-5.047381756583267e-06   -2.1193972568253876e-07   -1.4442442727599923e-05
-2.2589022982850564e-07   5.288486345406433e-07   -6.346462900880235e-06
-2.2589022982850564e-07   5.288486345406433e-07   -6.346462900880235e-06
-2.2589022982850564e-07   5.288486345406433e-07   -6.346462900880235e-06
-2.2589022982850564e-07   5.288486345406433e-07   -6.346462900880235e-06
-9.585101870587863e-06   -1.1004613424247384e-06   -2.2922734954991704e-05
-9.585101870587863e-06   -1.1004613424247384e-06   -2.2922734954991704e-05
-9.585101870587863e-06   -1.1004613424247384e-06   -2.2922734954991704e-05
-9.585101870587863e-06   -1.1004613424247384e-06   -2.2922734954991704e-05
-9.182846095980141e-06   8.587939581969958e-07   -7.1926137726696735e-06
-9.182846095980141e-06   8.587939581969958e-07   -7.1926137726696735e-06
-9.182846095980141e-06   8.587939581969958e-07   -7.1926137726696735e-06
-9.182846095980141e-06   8.587939581969958e-07   -7.1926137726696735e-06
9.5574734167076e-08   -8.798872172103601e-07   -2.1613439784337322e-05
9.5574734167076e-08   -8.798872172103601e-07   -2.1613439784337322e-05
9.5574734167076e-08   -8.798872172103601e-07   -2.1613439784337322e-05
9.5574734167076e-08   -8.798872172103601e-07   -2.1613439784337322e-05
-4.691088052508657e-06   -4.819362566595327e-08   -1.4134684628137721e-05
-4.691088052508657e-06   -4.819362566595327e-08   -1.4134684628137721e-05
-4.691088052508657e-06   -4.819362566595327e-08   -1.4134684628137721e-05
-4.691088052508657e-06   -4.819362566595327e-08   -1.4134684628137721e-05
9.5574734167076e-08   8.587939581969958e-07   -6.149405067425347e-06
9.5574734167076e-08   8.587939581969958e-07   -6.149405067425347e-06
9.5574734167076e-08   8.587939581969958e-07   -6.149405067425347e-06
9.5574734167076e-08   8.587939581969958e-07   -6.149405067425347e-06
-9.182846095980141e-06   -8.798872172103601e-07   -2.2656648489581717e-05
-9.182846095980141e-06   -8.798872172103601e-07   -2.2656648489581717e-05
-9.182846095980141e-06   -8.798872172103601e-07   -2.2656648489581717e-05
-9.182846095980141e-06   -8.798872172103601e-07   -2.2656648489581717e-05
-8.91197768673068e-06   1.1995354351072894e-06   -7.321163844964092e-06
-8.91197768673068e-06   1.1995354351072894e-06   -7.321163844964092e-06
-8.91197768673068e-06   1.1995354351072894e-06   -7.321163844964092e-06
-8.91197768673068e-06   1.1995354351072894e-06   -7.321163844964092e-06
3.235540900910669e-07   -6.701274953433084e-07   -2.159191904806339e-05
3.235540900910669e-07   -6.701274953433084e-07   -2.159191904806339e-05
3.235540900910669e-07   -6.701274953433084e-07   -2.159191904806339e-05
3.235540900910669e-07   -6.701274953433084e-07   -2.159191904806339e-05
-4.437881156243755e-06   1.351426041527274e-07   -1.4139355697203131e-05
-4.437881156243755e-06   1.351426041527274e-07   -1.4139355697203131e-05
-4.437881156243755e-06   1.351426041527274e-07   -1.4139355697203131e-05
-4.437881156243755e-06   1.351426041527274e-07   -1.4139355697203131e-05
-1.0023602929678933e-05   1.7436589620247172e-06   -5.481810789063923e-06
-1.0023602929678933e-05   1.7436589620247172e-06   -5.481810789063923e-06
-1.0023602929678933e-05   1.7436589620247172e-06   -5.481810789063923e-06
-1.0023602929678933e-05   1.7436589620247172e-06   -5.481810789063923e-06
-1.9593520392761313e-05   4.106479319687705e-07   -2.2231479845568063e-05
-1.9593520392761313e-05   4.106479319687705e-07   -2.2231479845568063e-05
-1.9593520392761313e-05   4.106479319687705e-07   -2.2231479845568063e-05
-1.9593520392761313e-05   4.106479319687705e-07   -2.2231479845568063e-05
-1.896879590282438e-05   2.105274834575204e-06   -5.826277773896991e-06
-1.896879590282438e-05   2.105274834575204e-06   -5.826277773896991e-06
-1.896879590282438e-05   2.105274834575204e-06   -5.826277773896991e-06
-1.896879590282438e-05   2.105274834575204e-06   -5.826277773896991e-06
-9.585101870587863e-06   6.717457854196881e-07   -2.0605650398131182e-05
-9.585101870587863e-06   6.717457854196881e-07   -2.0605650398131182e-05
-9.585101870587863e-06   6.717457854196881e-07   -2.0605650398131182e-05
-9.585101870587863e-06   6.717457854196881e-07   -2.0605650398131182e-05
-1.4394084262513289e-05   1.3537578727768496e-06   -1.2999886997336524e-05
-1.4394084262513289e-05   1.3537578727768496e-06   -1.2999886997336524e-05
-1.4394084262513289e-05   1.3537578727768496e-06   -1.2999886997336524e-05
-1.4394084262513289e-05   1.3537578727768496e-06   -1.2999886997336524e-05
-9.585101870587863e-06   2.105274834575204e-06   -4.966160344403682e-06
-9.585101870587863e-06   2.105274834575204e-06   -4.966160344403682e-06
-9.585101870587863e-06   2.105274834575204e-06   -4.966160344403682e-06
-9.585101870587863e-06   2.105274834575204e-06   -4.966160344403682e-06
-1.8968795902824412e-05   6.717457854195797e-07   -2.1465767827624532e-05
-1.8968795902824412e-05   6.717457854195797e-07   -2.1465767827624532e-05
-1.8968795902824412e-05   6.717457854195797e-07   -2.1465767827624532e-05
-1.8968795902824412e-05   6.717457854195797e-07   -2.1465767827624532e-05
-1.836290282031958e-05   2.4164508791691634e-06   -5.290407116718618e-06
-1.836290282031958e-05   2.4164508791691634e-06   -5.290407116718618e-06
-1.836290282031958e-05   2.4164508791691634e-06   -5.290407116718618e-06
-1.836290282031958e-05   2.4164508791691634e-06   -5.290407116718618e-06
-9.182846095980155e-06   9.114901113343619e-07   -1.968752519658354e-05
-9.182846095980155e-06   9.114901113343619e-07   -1.968752519658354e-05
-9.182846095980155e-06   9.114901113343619e-07   -1.968752519658354e-05
-9.182846095980155e-06   9.114901113343619e-07   -1.968752519658354e-05
-1.3826533862859232e-05   1.5810225394028094e-06   -1.234976504195941e-05
-1.3826533862859232e-05   1.5810225394028094e-06   -1.234976504195941e-05
-1.3826533862859232e-05   1.5810225394028094e-06   -1.234976504195941e-05
-1.3826533862859232e-05   1.5810225394028094e-06   -1.234976504195941e-05
-9.182846095980134e-06   2.4164508791691634e-06   -4.387430656017694e-06
-9.182846095980134e-06   2.4164508791691634e-06   -4.387430656017694e-06
-9.182846095980134e-06   2.4164508791691634e-06   -4.387430656017694e-06
-9.182846095980134e-06   2.4164508791691634e-06   -4.387430656017694e-06
-1.8362902820319614e-05   9.114901113343619e-07   -2.059050165728447e-05
-1.8362902820319614e-05   9.114901113343619e-07   -2.059050165728447e-05
-1.8362902820319614e-05   9.114901113343619e-07   -2.059050165728447e-05
-1.8362902820319614e-05   9.114901113343619e-07   -2.059050165728447e-05
-1.790616244052958e-05   2.759411869440102e-06   -5.30761342288342e-06
-1.790616244052958e-05   2.759411869440102e-06   -5.30761342288342e-06
-1.790616244052958e-05   2.759411869440102e-06   -5.30761342288342e-06
-1.790616244052958e-05   2.759411869440102e-06   -5.30761342288342e-06
-8.911977686730697e-06   1.1129757043463638e-06   -1.9310059646825432e-05
-8.911977686730697e-06   1.1129757043463638e-06   -1.9310059646825432e-05
-8.911977686730697e-06   1.1129757043463638e-06   -1.9310059646825432e-05
-8.911977686730697e-06   1.1129757043463638e-06   -1.9310059646825432e-05
-1.3515315246871322e-05   1.7400317869618095e-06   -1.2014064029493608e-05
-1.3515315246871322e-05   1.7400317869618095e-06   -1.2014064029493608e-05
-1.3515315246871322e-05   1.7400317869618095e-06   -1.2014064029493608e-05
-1.3515315246871322e-05   1.7400317869618095e-06   -1.2014064029493608e-05
-1.9593520392761313e-05   3.4080953152240212e-06   -3.1299735730310483e-06
-1.9593520392761313e-05   3.4080953152240212e-06   -3.1299735730310483e-06
-1.9593520392761313e-05   3.4080953152240212e-06   -3.1299735730310483e-06
-1.9593520392761313e-05   3.4080953152240212e-06   -3.1299735730310483e-06
-2.9609077612428644e-05   3.2358846129156666e-06   -1.992589536052862e-05
-2.9609077612428644e-05   3.2358846129156666e-06   -1.992589536052862e-05
-2.9609077612428644e-05   3.2358846129156666e-06   -1.992589536052862e-05
-2.9609077612428644e-05   3.2358846129156666e-06   -1.992589536052862e-05
-2.836086671033375e-05   3.888809101989144e-06   4.067387219923186e-08
-2.836086671033375e-05   3.888809101989144e-06   4.067387219923186e-08
-2.836086671033375e-05   3.888809101989144e-06   4.067387219923186e-08
-2.836086671033375e-05   3.888809101989144e-06   4.067387219923186e-08
-1.8968795902824344e-05   4.071251289354473e-06   -1.572224278606892e-05
-1.8968795902824344e-05   4.071251289354473e-06   -1.572224278606892e-05
-1.8968795902824344e-05   4.071251289354473e-06   -1.572224278606892e-05
-1.8968795902824344e-05   4.071251289354473e-06   -1.572224278606892e-05
-2.3093325647925947e-05   3.835469791794218e-06   -8.706557645696822e-06
-2.3093325647925947e-05   3.835469791794218e-06   -8.706557645696822e-06
-2.3093325647925947e-05   3.835469791794218e-06   -8.706557645696822e-06
-2.3093325647925947e-05   3.835469791794218e-06   -8.706557645696822e-06
-1.8968795902824395e-05   3.888809101989144e-06   -6.879144021998754e-08
-1.8968795902824395e-05   3.888809101989144e-06   -6.879144021998754e-08
-1.8968795902824395e-05   3.888809101989144e-06   -6.879144021998754e-08
-1.8968795902824395e-05   3.888809101989144e-06   -6.879144021998754e-08
-2.83608667103337e-05   4.071251289354473e-06   -1.5612777473649722e-05
-2.83608667103337e-05   4.071251289354473e-06   -1.5612777473649722e-05
-2.83608667103337e-05   4.071251289354473e-06   -1.5612777473649722e-05
-2.83608667103337e-05   4.071251289354473e-06   -1.5612777473649722e-05
-2.7327994447088015e-05   4.015991269442623e-06   1.83336029141749e-06
-2.7327994447088015e-05   4.015991269442623e-06   1.83336029141749e-06
-2.7327994447088015e-05   4.015991269442623e-06   1.83336029141749e-06
-2.7327994447088015e-05   4.015991269442623e-06   1.83336029141749e-06
-1.836290282031958e-05   4.2601312020664264e-06   -1.3254943046104249e-05
-1.836290282031958e-05   4.2601312020664264e-06   -1.3254943046104249e-05
-1.836290282031958e-05   4.2601312020664264e-06   -1.3254943046104249e-05
-1.836290282031958e-05   4.2601312020664264e-06   -1.3254943046104249e-05
-2.2634987557896245e-05   4.11139435913606e-06   -6.045559711051358e-06
-2.2634987557896245e-05   4.11139435913606e-06   -6.045559711051358e-06
-2.2634987557896245e-05   4.11139435913606e-06   -6.045559711051358e-06
-2.2634987557896245e-05   4.11139435913606e-06   -6.045559711051358e-06
-1.8362902820319614e-05   4.015991269442623e-06   1.686876331843121e-06
-1.8362902820319614e-05   4.015991269442623e-06   1.686876331843121e-06
-1.8362902820319614e-05   4.015991269442623e-06   1.686876331843121e-06
-1.8362902820319614e-05   4.015991269442623e-06   1.686876331843121e-06
-2.7327994447088062e-05   4.2601312020664264e-06   -1.3108459086529924e-05
-2.7327994447088062e-05   4.2601312020664264e-06   -1.3108459086529924e-05
-2.7327994447088062e-05   4.2601312020664264e-06   -1.3108459086529924e-05
-2.7327994447088062e-05   4.2601312020664264e-06   -1.3108459086529924e-05
-2.6245225992598655e-05   4.1215835358884975e-06   4.244262642663459e-06
-2.6245225992598655e-05   4.1215835358884975e-06   4.244262642663459e-06
-2.6245225992598655e-05   4.1215835358884975e-06   4.244262642663459e-06
-2.6245225992598655e-05   4.1215835358884975e-06   4.244262642663459e-06
-1.790616244052961e-05   4.576986349390678e-06   -9.92741829888644e-06
-1.790616244052961e-05   4.576986349390678e-06   -9.92741829888644e-06
-1.790616244052961e-05   4.576986349390678e-06   -9.92741829888644e-06
-1.790616244052961e-05   4.576986349390678e-06   -9.92741829888644e-06
-2.158447010641048e-05   4.201069605991336e-06   -3.5713554763789203e-06
-2.158447010641048e-05   4.201069605991336e-06   -3.5713554763789203e-06
-2.158447010641048e-05   4.201069605991336e-06   -3.5713554763789203e-06
-2.158447010641048e-05   4.201069605991336e-06   -3.5713554763789203e-06
2.5599329064085764e-05   -3.831867923228985e-06   8.826503075481853e-06
2.5599329064085764e-05   -3.831867923228985e-06   8.826503075481853e-06
2.5599329064085764e-05   -3.831867923228985e-06   8.826503075481853e-06
2.5599329064085764e-05   -3.831867923228985e-06   8.826503075481853e-06
1.2839433832174175e-05   -4.832056690723266e-06   -1.3040102238200623e-05
1.2839433832174175e-05   -4.832056690723266e-06   -1.3040102238200623e-05
1.2839433832174175e-05   -4.832056690723266e-06   -1.3040102238200623e-05
1.2839433832174175e-05   -4.832056690723266e-06   -1.3040102238200623e-05
1.3143722821314534e-05   -3.7444858081792445e-06   6.3541817226853755e-06
1.3143722821314534e-05   -3.7444858081792445e-06   6.3541817226853755e-06
1.3143722821314534e-05   -3.7444858081792445e-06   6.3541817226853755e-06
1.3143722821314534e-05   -3.7444858081792445e-06   6.3541817226853755e-06
2.62250244725852e-05   -4.953032011014748e-06   -1.4722859974397641e-05
2.62250244725852e-05   -4.953032011014748e-06   -1.4722859974397641e-05
2.62250244725852e-05   -4.953032011014748e-06   -1.4722859974397641e-05
2.62250244725852e-05   -4.953032011014748e-06   -1.4722859974397641e-05
1.8675009050986296e-05   -3.9136755160515445e-06   -2.7631148353774815e-06
1.8675009050986296e-05   -3.9136755160515445e-06   -2.7631148353774815e-06
1.8675009050986296e-05   -3.9136755160515445e-06   -2.7631148353774815e-06
1.8675009050986296e-05   -3.9136755160515445e-06   -2.7631148353774815e-06
2.62250244725852e-05   -3.7444858081792445e-06   7.079309444386786e-06
2.62250244725852e-05   -3.7444858081792445e-06   7.079309444386786e-06
2.62250244725852e-05   -3.7444858081792445e-06   7.079309444386786e-06
2.62250244725852e-05   -3.7444858081792445e-06   7.079309444386786e-06
1.3143722821314534e-05   -4.953032011014748e-06   -1.5447987696099038e-05
1.3143722821314534e-05   -4.953032011014748e-06   -1.5447987696099038e-05
1.3143722821314534e-05   -4.953032011014748e-06   -1.5447987696099038e-05
1.3143722821314534e-05   -4.953032011014748e-06   -1.5447987696099038e-05
1.3400700988105927e-05   -3.6137789711602206e-06   5.025834486120911e-06
1.3400700988105927e-05   -3.6137789711602206e-06   5.025834486120911e-06
1.3400700988105927e-05   -3.6137789711602206e-06   5.025834486120911e-06
1.3400700988105927e-05   -3.6137789711602206e-06   5.025834486120911e-06
2.6614005683053786e-05   -4.9063229707363605e-06   -1.6220813605713282e-05
2.6614005683053786e-05   -4.9063229707363605e-06   -1.6220813605713282e-05
2.6614005683053786e-05   -4.9063229707363605e-06   -1.6220813605713282e-05
2.6614005683053786e-05   -4.9063229707363605e-06   -1.6220813605713282e-05
1.9324944623800323e-05   -4.035033447821225e-06   -4.595152220706532e-06
1.9324944623800323e-05   -4.035033447821225e-06   -4.595152220706532e-06
1.9324944623800323e-05   -4.035033447821225e-06   -4.595152220706532e-06
1.9324944623800323e-05   -4.035033447821225e-06   -4.595152220706532e-06
2.6614005683053786e-05   -3.6137789711602206e-06   5.801360885866595e-06
2.6614005683053786e-05   -3.6137789711602206e-06   5.801360885866595e-06
2.6614005683053786e-05   -3.6137789711602206e-06   5.801360885866595e-06
2.6614005683053786e-05   -3.6137789711602206e-06   5.801360885866595e-06
1.3400700988105927e-05   -4.9063229707363605e-06   -1.699634000545898e-05
1.3400700988105927e-05   -4.9063229707363605e-06   -1.699634000545898e-05
1.3400700988105927e-05   -4.9063229707363605e-06   -1.699634000545898e-05
1.3400700988105927e-05   -4.9063229707363605e-06   -1.699634000545898e-05
1.3667799935451127e-05   -3.1065327601572865e-06   2.4591457230249128e-06
1.3667799935451127e-05   -3.1065327601572865e-06   2.4591457230249128e-06
1.3667799935451127e-05   -3.1065327601572865e-06   2.4591457230249128e-06
1.3667799935451127e-05   -3.1065327601572865e-06   2.4591457230249128e-06
2.6997131187521498e-05   -4.628039931676032e-06   -1.88435020608479e-05
2.6997131187521498e-05   -4.628039931676032e-06   -1.88435020608479e-05
2.6997131187521498e-05   -4.628039931676032e-06   -1.88435020608479e-05
2.6997131187521498e-05   -4.628039931676032e-06   -1.88435020608479e-05
1.9325502394071222e-05   -3.880334014745492e-06   -6.506077621922299e-06
1.9325502394071222e-05   -3.880334014745492e-06   -6.506077621922299e-06
1.9325502394071222e-05   -3.880334014745492e-06   -6.506077621922299e-06
1.9325502394071222e-05   -3.880334014745492e-06   -6.506077621922299e-06
1.2839433832174175e-05   -2.454750049430917e-06   9.895945846216236e-07
1.2839433832174175e-05   -2.454750049430917e-06   9.895945846216236e-07
1.2839433832174175e-05   -2.454750049430917e-06   9.895945846216236e-07
1.2839433832174175e-05   -2.454750049430917e-06   9.895945846216236e-07
1.4476030630896137e-06   -4.779495327600011e-06   -1.93916371974207e-05
1.4476030630896137e-06   -4.779495327600011e-06   -1.93916371974207e-05
1.4476030630896137e-06   -4.779495327600011e-06   -1.93916371974207e-05
1.4476030630896137e-06   -4.779495327600011e-06   -1.93916371974207e-05
1.801351977052117e-06   -2.333267895770325e-06   3.6207271427585175e-08
1.801351977052117e-06   -2.333267895770325e-06   3.6207271427585175e-08
1.801351977052117e-06   -2.333267895770325e-06   3.6207271427585175e-08
1.801351977052117e-06   -2.333267895770325e-06   3.6207271427585175e-08
1.3143722821314555e-05   -4.751295354190645e-06   -1.7416927660624367e-05
1.3143722821314555e-05   -4.751295354190645e-06   -1.7416927660624367e-05
1.3143722821314555e-05   -4.751295354190645e-06   -1.7416927660624367e-05
1.3143722821314555e-05   -4.751295354190645e-06   -1.7416927660624367e-05
7.3347671891466815e-06   -3.2284269684111242e-06   -8.6490559718123e-06
7.3347671891466815e-06   -3.2284269684111242e-06   -8.6490559718123e-06
7.3347671891466815e-06   -3.2284269684111242e-06   -8.6490559718123e-06
7.3347671891466815e-06   -3.2284269684111242e-06   -8.6490559718123e-06
1.3143722821314514e-05   -2.333267895770325e-06   1.4870237464797119e-06
1.3143722821314514e-05   -2.333267895770325e-06   1.4870237464797119e-06
1.3143722821314514e-05   -2.333267895770325e-06   1.4870237464797119e-06
1.3143722821314514e-05   -2.333267895770325e-06   1.4870237464797119e-06
1.801351977052117e-06   -4.751295354190645e-06   -1.8867744135676466e-05
1.801351977052117e-06   -4.751295354190645e-06   -1.8867744135676466e-05
1.801351977052117e-06   -4.751295354190645e-06   -1.8867744135676466e-05
1.801351977052117e-06   -4.751295354190645e-06   -1.8867744135676466e-05
2.1205556775388406e-06   -2.1100033073170313e-06   -9.076197290025685e-08
2.1205556775388406e-06   -2.1100033073170313e-06   -9.076197290025685e-08
2.1205556775388406e-06   -2.1100033073170313e-06   -9.076197290025685e-08
2.1205556775388406e-06   -2.1100033073170313e-06   -9.076197290025685e-08
1.3400700988105927e-05   -4.682558678250574e-06   -1.7347470934618594e-05
1.3400700988105927e-05   -4.682558678250574e-06   -1.7347470934618594e-05
1.3400700988105927e-05   -4.682558678250574e-06   -1.7347470934618594e-05
1.3400700988105927e-05   -4.682558678250574e-06   -1.7347470934618594e-05
7.532449564804917e-06   -3.2595412437442985e-06   -8.420862356487194e-06
7.532449564804917e-06   -3.2595412437442985e-06   -8.420862356487194e-06
7.532449564804917e-06   -3.2595412437442985e-06   -8.420862356487194e-06
7.532449564804917e-06   -3.2595412437442985e-06   -8.420862356487194e-06
1.3400700988105927e-05   -2.1100033073170313e-06   1.4527712496599336e-06
1.3400700988105927e-05   -2.1100033073170313e-06   1.4527712496599336e-06
1.3400700988105927e-05   -2.1100033073170313e-06   1.4527712496599336e-06
1.3400700988105927e-05   -2.1100033073170313e-06   1.4527712496599336e-06
2.1205556775388406e-06   -4.682558678250574e-06   -1.8891004157178663e-05
2.1205556775388406e-06   -4.682558678250574e-06   -1.8891004157178663e-05
2.1205556775388406e-06   -4.682558678250574e-06   -1.8891004157178663e-05
2.1205556775388406e-06   -4.682558678250574e-06   -1.8891004157178663e-05
2.5977183040198367e-06   -1.7921223071643141e-06   -3.2237570340293287e-07
2.5977183040198367e-06   -1.7921223071643141e-06   -3.2237570340293287e-07
2.5977183040198367e-06   -1.7921223071643141e-06   -3.2237570340293287e-07
2.5977183040198367e-06   -1.7921223071643141e-06   -3.2237570340293287e-07
1.3667799935451107e-05   -4.548448328195367e-06   -1.71187161431695e-05
1.3667799935451107e-05   -4.548448328195367e-06   -1.71187161431695e-05
1.3667799935451107e-05   -4.548448328195367e-06   -1.71187161431695e-05
1.3667799935451107e-05   -4.548448328195367e-06   -1.71187161431695e-05
7.917410457677238e-06   -3.2031319670550304e-06   -8.34192349689745e-06
7.917410457677238e-06   -3.2031319670550304e-06   -8.34192349689745e-06
7.917410457677238e-06   -3.2031319670550304e-06   -8.34192349689745e-06
7.917410457677238e-06   -3.2031319670550304e-06   -8.34192349689745e-06
1.4476030630896137e-06   -1.2448390840152316e-06   -1.781206221364599e-06
1.4476030630896137e-06   -1.2448390840152316e-06   -1.781206221364599e-06
1.4476030630896137e-06   -1.2448390840152316e-06   -1.781206221364599e-06
1.4476030630896137e-06   -1.2448390840152316e-06   -1.781206221364599e-06
-9.823276946686704e-06   -5.693569540070895e-06   -2.3235244511291995e-05
-9.823276946686704e-06   -5.693569540070895e-06   -2.3235244511291995e-05
-9.823276946686704e-06   -5.693569540070895e-06   -2.3235244511291995e-05
-9.823276946686704e-06   -5.693569540070895e-06   -2.3235244511291995e-05
-9.27142031557471e-06   -1.1004613424247384e-06   -3.957819565662802e-06
-9.27142031557471e-06   -1.1004613424247384e-06   -3.957819565662802e-06
-9.27142031557471e-06   -1.1004613424247384e-06   -3.957819565662802e-06
-9.27142031557471e-06   -1.1004613424247384e-06   -3.957819565662802e-06
1.801351977052117e-06   -5.813864109305723e-06   -1.9584398393245552e-05
1.801351977052117e-06   -5.813864109305723e-06   -1.9584398393245552e-05
1.801351977052117e-06   -5.813864109305723e-06   -1.9584398393245552e-05
1.801351977052117e-06   -5.813864109305723e-06   -1.9584398393245552e-05
-3.834543803072096e-06   -3.201396953386379e-06   -1.1758719053256843e-05
-3.834543803072096e-06   -3.201396953386379e-06   -1.1758719053256843e-05
-3.834543803072096e-06   -3.201396953386379e-06   -1.1758719053256843e-05
-3.834543803072096e-06   -3.201396953386379e-06   -1.1758719053256843e-05
1.801351977052117e-06   -1.1004613424247384e-06   -1.1297779055341461e-06
1.801351977052117e-06   -1.1004613424247384e-06   -1.1297779055341461e-06
1.801351977052117e-06   -1.1004613424247384e-06   -1.1297779055341461e-06
1.801351977052117e-06   -1.1004613424247384e-06   -1.1297779055341461e-06
-9.271420315574724e-06   -5.813864109305723e-06   -2.2412440053374357e-05
-9.271420315574724e-06   -5.813864109305723e-06   -2.2412440053374357e-05
-9.271420315574724e-06   -5.813864109305723e-06   -2.2412440053374357e-05
-9.271420315574724e-06   -5.813864109305723e-06   -2.2412440053374357e-05
-8.794926775565807e-06   -8.798872172103601e-07   -3.685528598300564e-06
-8.794926775565807e-06   -8.798872172103601e-07   -3.685528598300564e-06
-8.794926775565807e-06   -8.798872172103601e-07   -3.685528598300564e-06
-8.794926775565807e-06   -8.798872172103601e-07   -3.685528598300564e-06
2.1205556775388406e-06   -5.779885188627503e-06   -1.8938000570624616e-05
2.1205556775388406e-06   -5.779885188627503e-06   -1.8938000570624616e-05
2.1205556775388406e-06   -5.779885188627503e-06   -1.8938000570624616e-05
2.1205556775388406e-06   -5.779885188627503e-06   -1.8938000570624616e-05
-3.443111883555115e-06   -3.269065178516527e-06   -1.1171713308201302e-05
-3.443111883555115e-06   -3.269065178516527e-06   -1.1171713308201302e-05
-3.443111883555115e-06   -3.269065178516527e-06   -1.1171713308201302e-05
-3.443111883555115e-06   -3.269065178516527e-06   -1.1171713308201302e-05
2.1205556775388406e-06   -8.798872172103601e-07   -7.455298154502134e-07
2.1205556775388406e-06   -8.798872172103601e-07   -7.455298154502134e-07
2.1205556775388406e-06   -8.798872172103601e-07   -7.455298154502134e-07
2.1205556775388406e-06   -8.798872172103601e-07   -7.455298154502134e-07
-8.79492677556584e-06   -5.779885188627503e-06   -2.187799935347509e-05
-8.79492677556584e-06   -5.779885188627503e-06   -2.187799935347509e-05
-8.79492677556584e-06   -5.779885188627503e-06   -2.187799935347509e-05
-8.79492677556584e-06   -5.779885188627503e-06   -2.187799935347509e-05
-7.972208008749152e-06   -6.701274953433084e-07   -3.6714153976148646e-06
-7.972208008749152e-06   -6.701274953433084e-07   -3.6714153976148646e-06
-7.972208008749152e-06   -6.701274953433084e-07   -3.6714153976148646e-06
-7.972208008749152e-06   -6.701274953433084e-07   -3.6714153976148646e-06
2.5977183040198435e-06   -5.569269665260364e-06   -1.8348473950279692e-05
2.5977183040198435e-06   -5.569269665260364e-06   -1.8348473950279692e-05
2.5977183040198435e-06   -5.569269665260364e-06   -1.8348473950279692e-05
2.5977183040198435e-06   -5.569269665260364e-06   -1.8348473950279692e-05
-2.9340613189043738e-06   -3.1903699155828944e-06   -1.0556181095212446e-05
-2.9340613189043738e-06   -3.1903699155828944e-06   -1.0556181095212446e-05
-2.9340613189043738e-06   -3.1903699155828944e-06   -1.0556181095212446e-05
-2.9340613189043738e-06   -3.1903699155828944e-06   -1.0556181095212446e-05
-9.823276946686691e-06   4.106479319687705e-07   -2.526233424773633e-06
-9.823276946686691e-06   4.106479319687705e-07   -2.526233424773633e-06
-9.823276946686691e-06   4.106479319687705e-07   -2.526233424773633e-06
-9.823276946686691e-06   4.106479319687705e-07   -2.526233424773633e-06
-2.2368866871375382e-05   -7.028542187410489e-06   -2.7899064037548984e-05
-2.2368866871375382e-05   -7.028542187410489e-06   -2.7899064037548984e-05
-2.2368866871375382e-05   -7.028542187410489e-06   -2.7899064037548984e-05
-2.2368866871375382e-05   -7.028542187410489e-06   -2.7899064037548984e-05
-2.1704244967460258e-05   6.717457854196881e-07   -6.769888650289425e-06
-2.1704244967460258e-05   6.717457854196881e-07   -6.769888650289425e-06
-2.1704244967460258e-05   6.717457854196881e-07   -6.769888650289425e-06
-2.1704244967460258e-05   6.717457854196881e-07   -6.769888650289425e-06
-9.27142031557471e-06   -7.876843617058999e-06   -2.2362109428611572e-05
-9.27142031557471e-06   -7.876843617058999e-06   -2.2362109428611572e-05
-9.27142031557471e-06   -7.876843617058999e-06   -2.2362109428611572e-05
-9.27142031557471e-06   -7.876843617058999e-06   -2.2362109428611572e-05
-1.5568534087912192e-05   -3.5374793546836224e-06   -1.44705383654743e-05
-1.5568534087912192e-05   -3.5374793546836224e-06   -1.44705383654743e-05
-1.5568534087912192e-05   -3.5374793546836224e-06   -1.44705383654743e-05
-1.5568534087912192e-05   -3.5374793546836224e-06   -1.44705383654743e-05
-9.27142031557471e-06   6.717457854196881e-07   -1.6407350088023208e-06
-9.27142031557471e-06   6.717457854196881e-07   -1.6407350088023208e-06
-9.27142031557471e-06   6.717457854196881e-07   -1.6407350088023208e-06
-9.27142031557471e-06   6.717457854196881e-07   -1.6407350088023208e-06
-2.1704244967460295e-05   -7.876843617058782e-06   -2.749126307009873e-05
-2.1704244967460295e-05   -7.876843617058782e-06   -2.749126307009873e-05
-2.1704244967460295e-05   -7.876843617058782e-06   -2.749126307009873e-05
-2.1704244967460295e-05   -7.876843617058782e-06   -2.749126307009873e-05
-2.106776454508268e-05   9.114901113343619e-07   -6.011657320569171e-06
-2.106776454508268e-05   9.114901113343619e-07   -6.011657320569171e-06
-2.106776454508268e-05   9.114901113343619e-07   -6.011657320569171e-06
-2.106776454508268e-05   9.114901113343619e-07   -6.011657320569171e-06
-8.79492677556582e-06   -7.913929914110576e-06   -2.1171134921163805e-05
-8.79492677556582e-06   -7.913929914110576e-06   -2.1171134921163805e-05
-8.79492677556582e-06   -7.913929914110576e-06   -2.1171134921163805e-05
-8.79492677556582e-06   -7.913929914110576e-06   -2.1171134921163805e-05
-1.4920305293785667e-05   -3.543281579603875e-06   -1.3584559724834695e-05
-1.4920305293785667e-05   -3.543281579603875e-06   -1.3584559724834695e-05
-1.4920305293785667e-05   -3.543281579603875e-06   -1.3584559724834695e-05
-1.4920305293785667e-05   -3.543281579603875e-06   -1.3584559724834695e-05
-8.794926775565813e-06   9.114901113343619e-07   -7.164053053022304e-07
-8.794926775565813e-06   9.114901113343619e-07   -7.164053053022304e-07
-8.794926775565813e-06   9.114901113343619e-07   -7.164053053022304e-07
-8.794926775565813e-06   9.114901113343619e-07   -7.164053053022304e-07
-2.1067764545082713e-05   -7.913929914110359e-06   -2.646638693643076e-05
-2.1067764545082713e-05   -7.913929914110359e-06   -2.646638693643076e-05
-2.1067764545082713e-05   -7.913929914110359e-06   -2.646638693643076e-05
-2.1067764545082713e-05   -7.913929914110359e-06   -2.646638693643076e-05
-2.002021030504438e-05   1.1129757043463638e-06   -5.244403295870826e-06
-2.002021030504438e-05   1.1129757043463638e-06   -5.244403295870826e-06
-2.002021030504438e-05   1.1129757043463638e-06   -5.244403295870826e-06
-2.002021030504438e-05   1.1129757043463638e-06   -5.244403295870826e-06
-7.972208008749166e-06   -7.181432725260556e-06   -2.034776206526548e-05
-7.972208008749166e-06   -7.181432725260556e-06   -2.034776206526548e-05
-7.972208008749166e-06   -7.181432725260556e-06   -2.034776206526548e-05
-7.972208008749166e-06   -7.181432725260556e-06   -2.034776206526548e-05
-1.4285443533651284e-05   -3.1003348805606944e-06   -1.2274361563914887e-05
-1.4285443533651284e-05   -3.1003348805606944e-06   -1.2274361563914887e-05
-1.4285443533651284e-05   -3.1003348805606944e-06   -1.2274361563914887e-05
-1.4285443533651284e-05   -3.1003348805606944e-06   -1.2274361563914887e-05
-2.2368866871375382e-05   3.2358846129156666e-06   -4.5808365899766695e-06
-2.2368866871375382e-05   3.2358846129156666e-06   -4.5808365899766695e-06
-2.2368866871375382e-05   3.2358846129156666e-06   -4.5808365899766695e-06
-2.2368866871375382e-05   3.2358846129156666e-06   -4.5808365899766695e-06
-3.83558015514625e-05   0.0   -3.316725849120475e-05
-3.83558015514625e-05   0.0   -3.316725849120475e-05
-3.83558015514625e-05   0.0   -3.316725849120475e-05
-3.83558015514625e-05   0.0   -3.316725849120475e-05
-3.738845445955238e-05   4.071251289354473e-06   -3.4691143823466697e-06
-3.738845445955238e-05   4.071251289354473e-06   -3.4691143823466697e-06
-3.738845445955238e-05   4.071251289354473e-06   -3.4691143823466697e-06
-3.738845445955238e-05   4.071251289354473e-06   -3.4691143823466697e-06
-2.1704244967460258e-05   0.0   -2.7166712762220803e-05
-2.1704244967460258e-05   0.0   -2.7166712762220803e-05
-2.1704244967460258e-05   0.0   -2.7166712762220803e-05
-2.1704244967460258e-05   0.0   -2.7166712762220803e-05
-2.868304955576327e-05   1.2588611527696112e-06   -1.6290688473377532e-05
-2.868304955576327e-05   1.2588611527696112e-06   -1.6290688473377532e-05
-2.868304955576327e-05   1.2588611527696112e-06   -1.6290688473377532e-05
-2.868304955576327e-05   1.2588611527696112e-06   -1.6290688473377532e-05
-2.170424496746027e-05   4.071251289354582e-06   -1.0263636087339423e-06
-2.170424496746027e-05   4.071251289354582e-06   -1.0263636087339423e-06
-2.170424496746027e-05   4.071251289354582e-06   -1.0263636087339423e-06
-2.170424496746027e-05   4.071251289354582e-06   -1.0263636087339423e-06
-3.738845445955232e-05   0.0   -2.9609463535833517e-05
-3.738845445955232e-05   0.0   -2.9609463535833517e-05
-3.738845445955232e-05   0.0   -2.9609463535833517e-05
-3.738845445955232e-05   0.0   -2.9609463535833517e-05
-3.6566839384167535e-05   4.260131202066535e-06   -1.232177430628991e-06
-3.6566839384167535e-05   4.260131202066535e-06   -1.232177430628991e-06
-3.6566839384167535e-05   4.260131202066535e-06   -1.232177430628991e-06
-3.6566839384167535e-05   4.260131202066535e-06   -1.232177430628991e-06
-2.1067764545082713e-05   0.0   -2.4507890107863848e-05
-2.1067764545082713e-05   0.0   -2.4507890107863848e-05
-2.1067764545082713e-05   0.0   -2.4507890107863848e-05
-2.1067764545082713e-05   0.0   -2.4507890107863848e-05
-2.8408644968383463e-05   1.97502081793568e-06   -1.3458101893123701e-05
-2.8408644968383463e-05   1.97502081793568e-06   -1.3458101893123701e-05
-2.8408644968383463e-05   1.97502081793568e-06   -1.3458101893123701e-05
-2.8408644968383463e-05   1.97502081793568e-06   -1.3458101893123701e-05
-2.1067764545082713e-05   4.2601312020664264e-06   1.3239012906109517e-06
-2.1067764545082713e-05   4.2601312020664264e-06   1.3239012906109517e-06
-2.1067764545082713e-05   4.2601312020664264e-06   1.3239012906109517e-06
-2.1067764545082713e-05   4.2601312020664264e-06   1.3239012906109517e-06
-3.6566839384167474e-05   0.0   -2.706396882910377e-05
-3.6566839384167474e-05   0.0   -2.706396882910377e-05
-3.6566839384167474e-05   0.0   -2.706396882910377e-05
-3.6566839384167474e-05   0.0   -2.706396882910377e-05
-3.492419394920026e-05   4.576986349390786e-06   2.379907941489948e-06
-3.492419394920026e-05   4.576986349390786e-06   2.379907941489948e-06
-3.492419394920026e-05   4.576986349390786e-06   2.379907941489948e-06
-3.492419394920026e-05   4.576986349390786e-06   2.379907941489948e-06
-2.0020210305044414e-05   0.0   -1.971387298913549e-05
-2.0020210305044414e-05   0.0   -1.971387298913549e-05
-2.0020210305044414e-05   0.0   -1.971387298913549e-05
-2.0020210305044414e-05   0.0   -1.971387298913549e-05
-2.696337090974315e-05   2.4302078253547873e-06   -9.600063343183586e-06
-2.696337090974315e-05   2.4302078253547873e-06   -9.600063343183586e-06
-2.696337090974315e-05   2.4302078253547873e-06   -9.600063343183586e-06
-2.696337090974315e-05   2.4302078253547873e-06   -9.600063343183586e-06
2.8319158122199278e-05   -4.832056690723266e-06   1.6847880967075504e-05
2.8319158122199278e-05   -4.832056690723266e-06   1.6847880967075504e-05
2.8319158122199278e-05   -4.832056690723266e-06   1.6847880967075504e-05
2.8319158122199278e-05   -4.832056690723266e-06   1.6847880967075504e-05
1.4656525639745377e-05   -3.7516229823388644e-06   -5.2749129453170994e-06
1.4656525639745377e-05   -3.7516229823388644e-06   -5.2749129453170994e-06
1.4656525639745377e-05   -3.7516229823388644e-06   -5.2749129453170994e-06
1.4656525639745377e-05   -3.7516229823388644e-06   -5.2749129453170994e-06
1.4295233057894196e-05   -4.953032011014748e-06   1.4846975034237377e-05
1.4295233057894196e-05   -4.953032011014748e-06   1.4846975034237377e-05
1.4295233057894196e-05   -4.953032011014748e-06   1.4846975034237377e-05
1.4295233057894196e-05   -4.953032011014748e-06   1.4846975034237377e-05
2.8026569710849513e-05   -4.119509939192129e-06   -8.53869929711512e-06
2.8026569710849513e-05   -4.119509939192129e-06   -8.53869929711512e-06
2.8026569710849513e-05   -4.119509939192129e-06   -8.53869929711512e-06
2.8026569710849513e-05   -4.119509939192129e-06   -8.53869929711512e-06
2.0449975488653345e-05   -4.178799013252344e-06   4.124531184314704e-06
2.0449975488653345e-05   -4.178799013252344e-06   4.124531184314704e-06
2.0449975488653345e-05   -4.178799013252344e-06   4.124531184314704e-06
2.0449975488653345e-05   -4.178799013252344e-06   4.124531184314704e-06
2.8026569710849513e-05   -4.953032011014748e-06   1.4346861791143697e-05
2.8026569710849513e-05   -4.953032011014748e-06   1.4346861791143697e-05
2.8026569710849513e-05   -4.953032011014748e-06   1.4346861791143697e-05
2.8026569710849513e-05   -4.953032011014748e-06   1.4346861791143697e-05
1.4295233057894196e-05   -4.119509939192129e-06   -8.038586054021427e-06
1.4295233057894196e-05   -4.119509939192129e-06   -8.038586054021427e-06
1.4295233057894196e-05   -4.119509939192129e-06   -8.038586054021427e-06
1.4295233057894196e-05   -4.119509939192129e-06   -8.038586054021427e-06
1.396770217726798e-05   -4.9063229707363605e-06   1.3313482409412045e-05
1.396770217726798e-05   -4.9063229707363605e-06   1.3313482409412045e-05
1.396770217726798e-05   -4.9063229707363605e-06   1.3313482409412045e-05
1.396770217726798e-05   -4.9063229707363605e-06   1.3313482409412045e-05
2.7685504243696728e-05   -4.151224787378796e-06   -1.0002579944650385e-05
2.7685504243696728e-05   -4.151224787378796e-06   -1.0002579944650385e-05
2.7685504243696728e-05   -4.151224787378796e-06   -1.0002579944650385e-05
2.7685504243696728e-05   -4.151224787378796e-06   -1.0002579944650385e-05
2.044321631567491e-05   -4.252161341252369e-06   2.128461867710165e-06
2.044321631567491e-05   -4.252161341252369e-06   2.128461867710165e-06
2.044321631567491e-05   -4.252161341252369e-06   2.128461867710165e-06
2.044321631567491e-05   -4.252161341252369e-06   2.128461867710165e-06
2.7685504243696775e-05   -4.906322970736577e-06   1.2860423499397506e-05
2.7685504243696775e-05   -4.906322970736577e-06   1.2860423499397506e-05
2.7685504243696775e-05   -4.906322970736577e-06   1.2860423499397506e-05
2.7685504243696775e-05   -4.906322970736577e-06   1.2860423499397506e-05
1.396770217726798e-05   -4.151224787378796e-06   -9.549521034635873e-06
1.396770217726798e-05   -4.151224787378796e-06   -9.549521034635873e-06
1.396770217726798e-05   -4.151224787378796e-06   -9.549521034635873e-06
1.396770217726798e-05   -4.151224787378796e-06   -9.549521034635873e-06
1.3567729258311427e-05   -4.628039931676032e-06   1.0818540406831267e-05
1.3567729258311427e-05   -4.628039931676032e-06   1.0818540406831267e-05
1.3567729258311427e-05   -4.628039931676032e-06   1.0818540406831267e-05
1.3567729258311427e-05   -4.628039931676032e-06   1.0818540406831267e-05
2.715086880699367e-05   -4.057338562129739e-06   -1.2162446329366766e-05
2.715086880699367e-05   -4.057338562129739e-06   -1.2162446329366766e-05
2.715086880699367e-05   -4.057338562129739e-06   -1.2162446329366766e-05
2.715086880699367e-05   -4.057338562129739e-06   -1.2162446329366766e-05
1.9753203057261603e-05   -4.04260154572675e-06   1.581543770113854e-07
1.9753203057261603e-05   -4.04260154572675e-06   1.581543770113854e-07
1.9753203057261603e-05   -4.04260154572675e-06   1.581543770113854e-07
1.9753203057261603e-05   -4.04260154572675e-06   1.581543770113854e-07
1.4656525639745377e-05   -4.779495327600011e-06   1.2539453399787437e-05
1.4656525639745377e-05   -4.779495327600011e-06   1.2539453399787437e-05
1.4656525639745377e-05   -4.779495327600011e-06   1.2539453399787437e-05
1.4656525639745377e-05   -4.779495327600011e-06   1.2539453399787437e-05
3.018887059561287e-06   -2.2874400747380577e-06   -5.361377748802241e-06
3.018887059561287e-06   -2.2874400747380577e-06   -5.361377748802241e-06
3.018887059561287e-06   -2.2874400747380577e-06   -5.361377748802241e-06
3.018887059561287e-06   -2.2874400747380577e-06   -5.361377748802241e-06
2.447257905063888e-06   -4.751295354190645e-06   1.4274471916229394e-05
2.447257905063888e-06   -4.751295354190645e-06   1.4274471916229394e-05
2.447257905063888e-06   -4.751295354190645e-06   1.4274471916229394e-05
2.447257905063888e-06   -4.751295354190645e-06   1.4274471916229394e-05
1.4295233057894196e-05   -2.423900609994879e-06   -6.868590185005145e-06
1.4295233057894196e-05   -2.423900609994879e-06   -6.868590185005145e-06
1.4295233057894196e-05   -2.423900609994879e-06   -6.868590185005145e-06
1.4295233057894196e-05   -2.423900609994879e-06   -6.868590185005145e-06
8.59099601934924e-06   -3.428169485372983e-06   3.2410328711300173e-06
8.59099601934924e-06   -3.428169485372983e-06   3.2410328711300173e-06
8.59099601934924e-06   -3.428169485372983e-06   3.2410328711300173e-06
8.59099601934924e-06   -3.428169485372983e-06   3.2410328711300173e-06
1.4295233057894182e-05   -4.751295354190645e-06   1.2878035069712021e-05
1.4295233057894182e-05   -4.751295354190645e-06   1.2878035069712021e-05
1.4295233057894182e-05   -4.751295354190645e-06   1.2878035069712021e-05
1.4295233057894182e-05   -4.751295354190645e-06   1.2878035069712021e-05
2.4472579050638946e-06   -2.423900609994879e-06   -5.4721533384877044e-06
2.4472579050638946e-06   -2.423900609994879e-06   -5.4721533384877044e-06
2.4472579050638946e-06   -2.423900609994879e-06   -5.4721533384877044e-06
2.4472579050638946e-06   -2.423900609994879e-06   -5.4721533384877044e-06
2.0384872824070005e-06   -4.682558678250574e-06   1.4282851510847194e-05
2.0384872824070005e-06   -4.682558678250574e-06   1.4282851510847194e-05
2.0384872824070005e-06   -4.682558678250574e-06   1.4282851510847194e-05
2.0384872824070005e-06   -4.682558678250574e-06   1.4282851510847194e-05
1.396770217726798e-05   -2.481725293925754e-06   -6.9196733445159336e-06
1.396770217726798e-05   -2.481725293925754e-06   -6.9196733445159336e-06
1.396770217726798e-05   -2.481725293925754e-06   -6.9196733445159336e-06
1.396770217726798e-05   -2.481725293925754e-06   -6.9196733445159336e-06
8.098283252376479e-06   -3.355755210346324e-06   3.3871094801559115e-06
8.098283252376479e-06   -3.355755210346324e-06   3.3871094801559115e-06
8.098283252376479e-06   -3.355755210346324e-06   3.3871094801559115e-06
8.098283252376479e-06   -3.355755210346324e-06   3.3871094801559115e-06
1.3967702177268008e-05   -4.682558678250574e-06   1.296235148025239e-05
1.3967702177268008e-05   -4.682558678250574e-06   1.296235148025239e-05
1.3967702177268008e-05   -4.682558678250574e-06   1.296235148025239e-05
1.3967702177268008e-05   -4.682558678250574e-06   1.296235148025239e-05
2.0384872824070005e-06   -2.481725293925754e-06   -5.599173313921169e-06
2.0384872824070005e-06   -2.481725293925754e-06   -5.599173313921169e-06
2.0384872824070005e-06   -2.481725293925754e-06   -5.599173313921169e-06
2.0384872824070005e-06   -2.481725293925754e-06   -5.599173313921169e-06
1.584237262042665e-06   -4.548448328195367e-06   1.4732889536565874e-05
1.584237262042665e-06   -4.548448328195367e-06   1.4732889536565874e-05
1.584237262042665e-06   -4.548448328195367e-06   1.4732889536565874e-05
1.584237262042665e-06   -4.548448328195367e-06   1.4732889536565874e-05
1.356772925831142e-05   -2.420683479620279e-06   -6.516256033027343e-06
1.356772925831142e-05   -2.420683479620279e-06   -6.516256033027343e-06
1.356772925831142e-05   -2.420683479620279e-06   -6.516256033027343e-06
1.356772925831142e-05   -2.420683479620279e-06   -6.516256033027343e-06
7.799202370837598e-06   -3.204590265134871e-06   3.568299517404494e-06
7.799202370837598e-06   -3.204590265134871e-06   3.568299517404494e-06
7.799202370837598e-06   -3.204590265134871e-06   3.568299517404494e-06
7.799202370837598e-06   -3.204590265134871e-06   3.568299517404494e-06
3.0188870595612938e-06   -5.693569540070895e-06   1.28603175112668e-05
3.0188870595612938e-06   -5.693569540070895e-06   1.28603175112668e-05
3.0188870595612938e-06   -5.693569540070895e-06   1.28603175112668e-05
3.0188870595612938e-06   -5.693569540070895e-06   1.28603175112668e-05
-8.167910976322716e-06   -9.120558172267569e-07   -2.9154376481666574e-06
-8.167910976322716e-06   -9.120558172267569e-07   -2.9154376481666574e-06
-8.167910976322716e-06   -9.120558172267569e-07   -2.9154376481666574e-06
-8.167910976322716e-06   -9.120558172267569e-07   -2.9154376481666574e-06
-9.056293857887442e-06   -5.813864109305723e-06   1.6469237075165022e-05
-9.056293857887442e-06   -5.813864109305723e-06   1.6469237075165022e-05
-9.056293857887442e-06   -5.813864109305723e-06   1.6469237075165022e-05
-9.056293857887442e-06   -5.813864109305723e-06   1.6469237075165022e-05
2.4472579050638946e-06   -9.614984151312764e-07   -5.614768612925182e-06
2.4472579050638946e-06   -9.614984151312764e-07   -5.614768612925182e-06
2.4472579050638946e-06   -9.614984151312764e-07   -5.614768612925182e-06
2.4472579050638946e-06   -9.614984151312764e-07   -5.614768612925182e-06
-2.8422847174178763e-06   -3.2363357485099345e-06   4.566038157904906e-06
-2.8422847174178763e-06   -3.2363357485099345e-06   4.566038157904906e-06
-2.8422847174178763e-06   -3.2363357485099345e-06   4.566038157904906e-06
-2.8422847174178763e-06   -3.2363357485099345e-06   4.566038157904906e-06
2.447257905063888e-06   -5.813864109305723e-06   1.3557817658660268e-05
2.447257905063888e-06   -5.813864109305723e-06   1.3557817658660268e-05
2.447257905063888e-06   -5.813864109305723e-06   1.3557817658660268e-05
2.447257905063888e-06   -5.813864109305723e-06   1.3557817658660268e-05
-9.056293857887421e-06   -9.614984151312764e-07   -2.7033491964204275e-06
-9.056293857887421e-06   -9.614984151312764e-07   -2.7033491964204275e-06
-9.056293857887421e-06   -9.614984151312764e-07   -2.7033491964204275e-06
-9.056293857887421e-06   -9.614984151312764e-07   -2.7033491964204275e-06
-9.601164482834266e-06   -5.779885188627503e-06   1.7090089993938504e-05
-9.601164482834266e-06   -5.779885188627503e-06   1.7090089993938504e-05
-9.601164482834266e-06   -5.779885188627503e-06   1.7090089993938504e-05
-9.601164482834266e-06   -5.779885188627503e-06   1.7090089993938504e-05
2.0384872824070005e-06   -1.0228270277323672e-06   -5.163564511334126e-06
2.0384872824070005e-06   -1.0228270277323672e-06   -5.163564511334126e-06
2.0384872824070005e-06   -1.0228270277323672e-06   -5.163564511334126e-06
2.0384872824070005e-06   -1.0228270277323672e-06   -5.163564511334126e-06
-3.4446328534223625e-06   -3.2208711347426425e-06   5.293795512587761e-06
-3.4446328534223625e-06   -3.2208711347426425e-06   5.293795512587761e-06
-3.4446328534223625e-06   -3.2208711347426425e-06   5.293795512587761e-06
-3.4446328534223625e-06   -3.2208711347426425e-06   5.293795512587761e-06
2.0384872824069937e-06   -5.779885188627286e-06   1.4235855097401336e-05
2.0384872824069937e-06   -5.779885188627286e-06   1.4235855097401336e-05
2.0384872824069937e-06   -5.779885188627286e-06   1.4235855097401336e-05
2.0384872824069937e-06   -5.779885188627286e-06   1.4235855097401336e-05
-9.601164482834252e-06   -1.0228270277323672e-06   -2.30932961479708e-06
-9.601164482834252e-06   -1.0228270277323672e-06   -2.30932961479708e-06
-9.601164482834252e-06   -1.0228270277323672e-06   -2.30932961479708e-06
-9.601164482834252e-06   -1.0228270277323672e-06   -2.30932961479708e-06
-1.0239767596573842e-05   -5.569269665260364e-06   1.7890868073510324e-05
-1.0239767596573842e-05   -5.569269665260364e-06   1.7890868073510324e-05
-1.0239767596573842e-05   -5.569269665260364e-06   1.7890868073510324e-05
-1.0239767596573842e-05   -5.569269665260364e-06   1.7890868073510324e-05
1.584237262042665e-06   -1.0127017795338953e-06   -4.549747422286375e-06
1.584237262042665e-06   -1.0127017795338953e-06   -4.549747422286375e-06
1.584237262042665e-06   -1.0127017795338953e-06   -4.549747422286375e-06
1.584237262042665e-06   -1.0127017795338953e-06   -4.549747422286375e-06
-3.936097240214793e-06   -3.085796938154684e-06   5.894667176648558e-06
-3.936097240214793e-06   -3.085796938154684e-06   5.894667176648558e-06
-3.936097240214793e-06   -3.085796938154684e-06   5.894667176648558e-06
-3.936097240214793e-06   -3.085796938154684e-06   5.894667176648558e-06
-8.167910976322736e-06   -7.028542187410489e-06   1.5528920290343827e-05
-8.167910976322736e-06   -7.028542187410489e-06   1.5528920290343827e-05
-8.167910976322736e-06   -7.028542187410489e-06   1.5528920290343827e-05
-8.167910976322736e-06   -7.028542187410489e-06   1.5528920290343827e-05
-2.0850739501069347e-05   1.1231546963501402e-06   -7.181091206441906e-07
-2.0850739501069347e-05   1.1231546963501402e-06   -7.181091206441906e-07
-2.0850739501069347e-05   1.1231546963501402e-06   -7.181091206441906e-07
-2.0850739501069347e-05   1.1231546963501402e-06   -7.181091206441906e-07
-2.19253194990283e-05   -7.876843617058782e-06   2.1887091747009352e-05
-2.19253194990283e-05   -7.876843617058782e-06   2.1887091747009352e-05
-2.19253194990283e-05   -7.876843617058782e-06   2.1887091747009352e-05
-2.19253194990283e-05   -7.876843617058782e-06   2.1887091747009352e-05
-9.056293857887421e-06   1.0690297947437387e-06   -4.928808368640327e-06
-9.056293857887421e-06   1.0690297947437387e-06   -4.928808368640327e-06
-9.056293857887421e-06   1.0690297947437387e-06   -4.928808368640327e-06
-9.056293857887421e-06   1.0690297947437387e-06   -4.928808368640327e-06
-1.479500573211268e-05   -2.853131981576853e-06   6.989008487527396e-06
-1.479500573211268e-05   -2.853131981576853e-06   6.989008487527396e-06
-1.479500573211268e-05   -2.853131981576853e-06   6.989008487527396e-06
-1.479500573211268e-05   -2.853131981576853e-06   6.989008487527396e-06
-9.056293857887442e-06   -7.876843617058782e-06   1.6519567699927753e-05
-9.056293857887442e-06   -7.876843617058782e-06   1.6519567699927753e-05
-9.056293857887442e-06   -7.876843617058782e-06   1.6519567699927753e-05
-9.056293857887442e-06   -7.876843617058782e-06   1.6519567699927753e-05
-2.1925319499028265e-05   1.0690297947437387e-06   4.38715678441272e-07
-2.1925319499028265e-05   1.0690297947437387e-06   4.38715678441272e-07
-2.1925319499028265e-05   1.0690297947437387e-06   4.38715678441272e-07
-2.1925319499028265e-05   1.0690297947437387e-06   4.38715678441272e-07
-2.257888989642236e-05   -7.913929914110359e-06   2.3121483156136055e-05
-2.257888989642236e-05   -7.913929914110359e-06   2.3121483156136055e-05
-2.257888989642236e-05   -7.913929914110359e-06   2.3121483156136055e-05
-2.257888989642236e-05   -7.913929914110359e-06   2.3121483156136055e-05
-9.601164482834252e-06   9.602846357003626e-07   -3.8325879297305076e-06
-9.601164482834252e-06   9.602846357003626e-07   -3.8325879297305076e-06
-9.601164482834252e-06   9.602846357003626e-07   -3.8325879297305076e-06
-9.601164482834252e-06   9.602846357003626e-07   -3.8325879297305076e-06
-1.5488311299427498e-05   -3.308458823542788e-06   8.540569506803935e-06
-1.5488311299427498e-05   -3.308458823542788e-06   8.540569506803935e-06
-1.5488311299427498e-05   -3.308458823542788e-06   8.540569506803935e-06
-1.5488311299427498e-05   -3.308458823542788e-06   8.540569506803935e-06
-9.601164482834245e-06   -7.913929914110576e-06   1.7796954426249558e-05
-9.601164482834245e-06   -7.913929914110576e-06   1.7796954426249558e-05
-9.601164482834245e-06   -7.913929914110576e-06   1.7796954426249558e-05
-9.601164482834245e-06   -7.913929914110576e-06   1.7796954426249558e-05
-2.257888989642232e-05   9.602846357003626e-07   1.4919408001558276e-06
-2.257888989642232e-05   9.602846357003626e-07   1.4919408001558276e-06
-2.257888989642232e-05   9.602846357003626e-07   1.4919408001558276e-06
-2.257888989642232e-05   9.602846357003626e-07   1.4919408001558276e-06
-2.3284695779232575e-05   -7.181432725260556e-06   2.3641522192088425e-05
-2.3284695779232575e-05   -7.181432725260556e-06   2.3641522192088425e-05
-2.3284695779232575e-05   -7.181432725260556e-06   2.3641522192088425e-05
-2.3284695779232575e-05   -7.181432725260556e-06   2.3641522192088425e-05
-1.0239767596573822e-05   8.359954940953887e-07   -2.91048171062317e-06
-1.0239767596573822e-05   8.359954940953887e-07   -2.91048171062317e-06
-1.0239767596573822e-05   8.359954940953887e-07   -2.91048171062317e-06
-1.0239767596573822e-05   8.359954940953887e-07   -2.91048171062317e-06
-1.6208387387768752e-05   -3.328715801665912e-06   9.536044718825605e-06
-1.6208387387768752e-05   -3.328715801665912e-06   9.536044718825605e-06
-1.6208387387768752e-05   -3.328715801665912e-06   9.536044718825605e-06
-1.6208387387768752e-05   -3.328715801665912e-06   9.536044718825605e-06
-2.085073950106928e-05   0.0   1.709327473469358e-05
-2.085073950106928e-05   0.0   1.709327473469358e-05
-2.085073950106928e-05   0.0   1.709327473469358e-05
-2.085073950106928e-05   0.0   1.709327473469358e-05
-3.655633511916149e-05   4.812390911791524e-06   -6.195283415051807e-06
-3.655633511916149e-05   4.812390911791524e-06   -6.195283415051807e-06
-3.655633511916149e-05   4.812390911791524e-06   -6.195283415051807e-06
-3.655633511916149e-05   4.812390911791524e-06   -6.195283415051807e-06
-3.802504130722411e-05   0.0   2.5007985408055243e-05
-3.802504130722411e-05   0.0   2.5007985408055243e-05
-3.802504130722411e-05   0.0   2.5007985408055243e-05
-3.802504130722411e-05   0.0   2.5007985408055243e-05
-2.1925319499028265e-05   4.6605722552801356e-06   -4.6212276254393124e-06
-2.1925319499028265e-05   4.6605722552801356e-06   -4.6212276254393124e-06
-2.1925319499028265e-05   4.6605722552801356e-06   -4.6212276254393124e-06
-2.1925319499028265e-05   4.6605722552801356e-06   -4.6212276254393124e-06
-2.8090916700448606e-05   2.853998606417536e-06   6.7387118995787315e-06
-2.8090916700448606e-05   2.853998606417536e-06   6.7387118995787315e-06
-2.8090916700448606e-05   2.853998606417536e-06   6.7387118995787315e-06
-2.8090916700448606e-05   2.853998606417536e-06   6.7387118995787315e-06
-2.1925319499028245e-05   0.0   2.2211642054887292e-05
-2.1925319499028245e-05   0.0   2.2211642054887292e-05
-2.1925319499028245e-05   0.0   2.2211642054887292e-05
-2.1925319499028245e-05   0.0   2.2211642054887292e-05
-3.802504130722418e-05   4.6605722552801356e-06   -1.8248842722712799e-06
-3.802504130722418e-05   4.6605722552801356e-06   -1.8248842722712799e-06
-3.802504130722418e-05   4.6605722552801356e-06   -1.8248842722712799e-06
-3.802504130722418e-05   4.6605722552801356e-06   -1.8248842722712799e-06
-3.8763099784394284e-05   0.0   2.780814165041735e-05
-3.8763099784394284e-05   0.0   2.780814165041735e-05
-3.8763099784394284e-05   0.0   2.780814165041735e-05
-3.8763099784394284e-05   0.0   2.780814165041735e-05
-2.257888989642232e-05   4.546936109523902e-06   -1.8937031619172055e-06
-2.257888989642232e-05   4.546936109523902e-06   -1.8937031619172055e-06
-2.257888989642232e-05   4.546936109523902e-06   -1.8937031619172055e-06
-2.257888989642232e-05   4.546936109523902e-06   -1.8937031619172055e-06
-2.9524745107777226e-05   2.3874592909025813e-06   1.0978408281514109e-05
-2.9524745107777226e-05   2.3874592909025813e-06   1.0978408281514109e-05
-2.9524745107777226e-05   2.3874592909025813e-06   1.0978408281514109e-05
-2.9524745107777226e-05   2.3874592909025813e-06   1.0978408281514109e-05
-2.257888989642232e-05   0.0   2.507997998470277e-05
-2.257888989642232e-05   0.0   2.507997998470277e-05
-2.257888989642232e-05   0.0   2.507997998470277e-05
-2.257888989642232e-05   0.0   2.507997998470277e-05
-3.876309978439435e-05   4.546936109523902e-06   8.34458503797225e-07
-3.876309978439435e-05   4.546936109523902e-06   8.34458503797225e-07
-3.876309978439435e-05   4.546936109523902e-06   8.34458503797225e-07
-3.876309978439435e-05   4.546936109523902e-06   8.34458503797225e-07
-3.9578735603947864e-05   0.0   3.1538836452073846e-05
-3.9578735603947864e-05   0.0   3.1538836452073846e-05
-3.9578735603947864e-05   0.0   3.1538836452073846e-05
-3.9578735603947864e-05   0.0   3.1538836452073846e-05
-2.3284695779232575e-05   3.811300210152576e-06   2.095323284790159e-06
-2.3284695779232575e-05   3.811300210152576e-06   2.095323284790159e-06
-2.3284695779232575e-05   3.811300210152576e-06   2.095323284790159e-06
-2.3284695779232575e-05   3.811300210152576e-06   2.095323284790159e-06
-2.9748658815322318e-05   1.6875083481903645e-06   1.414287012878371e-05
-2.9748658815322318e-05   1.6875083481903645e-06   1.414287012878371e-05
-2.9748658815322318e-05   1.6875083481903645e-06   1.414287012878371e-05
-2.9748658815322318e-05   1.6875083481903645e-06   1.414287012878371e-05
2.5030917399938042e-05   -3.7516229823388644e-06   1.766330101426062e-05
2.5030917399938042e-05   -3.7516229823388644e-06   1.766330101426062e-05
2.5030917399938042e-05   -3.7516229823388644e-06   1.766330101426062e-05
2.5030917399938042e-05   -3.7516229823388644e-06   1.766330101426062e-05
1.263402119635711e-05   -2.852589746018858e-06   -2.458772716582556e-06
1.263402119635711e-05   -2.852589746018858e-06   -2.458772716582556e-06
1.263402119635711e-05   -2.852589746018858e-06   -2.458772716582556e-06
1.263402119635711e-05   -2.852589746018858e-06   -2.458772716582556e-06
1.2307773687308687e-05   -4.119509939192346e-06   1.5393969627878795e-05
1.2307773687308687e-05   -4.119509939192346e-06   1.5393969627878795e-05
1.2307773687308687e-05   -4.119509939192346e-06   1.5393969627878795e-05
1.2307773687308687e-05   -4.119509939192346e-06   1.5393969627878795e-05
2.445158307270035e-05   -3.226896294903801e-06   -5.381280867680091e-06
2.445158307270035e-05   -3.226896294903801e-06   -5.381280867680091e-06
2.445158307270035e-05   -3.226896294903801e-06   -5.381280867680091e-06
2.445158307270035e-05   -3.226896294903801e-06   -5.381280867680091e-06
1.7777773356979275e-05   -3.3500865420720656e-06   5.815649473489269e-06
1.7777773356979275e-05   -3.3500865420720656e-06   5.815649473489269e-06
1.7777773356979275e-05   -3.3500865420720656e-06   5.815649473489269e-06
1.7777773356979275e-05   -3.3500865420720656e-06   5.815649473489269e-06
2.445158307270031e-05   -4.119509939192346e-06   1.4858401441305842e-05
2.445158307270031e-05   -4.119509939192346e-06   1.4858401441305842e-05
2.445158307270031e-05   -4.119509939192346e-06   1.4858401441305842e-05
2.445158307270031e-05   -4.119509939192346e-06   1.4858401441305842e-05
1.2307773687308707e-05   -3.226896294903801e-06   -4.845712681107121e-06
1.2307773687308707e-05   -3.226896294903801e-06   -4.845712681107121e-06
1.2307773687308707e-05   -3.226896294903801e-06   -4.845712681107121e-06
1.2307773687308707e-05   -3.226896294903801e-06   -4.845712681107121e-06
1.18875237602378e-05   -4.151224787378796e-06   1.3803095811425366e-05
1.18875237602378e-05   -4.151224787378796e-06   1.3803095811425366e-05
1.18875237602378e-05   -4.151224787378796e-06   1.3803095811425366e-05
1.18875237602378e-05   -4.151224787378796e-06   1.3803095811425366e-05
2.3864197532095136e-05   -3.2810465614610106e-06   -6.680134077220853e-06
2.3864197532095136e-05   -3.2810465614610106e-06   -6.680134077220853e-06
2.3864197532095136e-05   -3.2810465614610106e-06   -6.680134077220853e-06
2.3864197532095136e-05   -3.2810465614610106e-06   -6.680134077220853e-06
1.7622401081348494e-05   -3.4949211239624148e-06   3.851184744857563e-06
1.7622401081348494e-05   -3.4949211239624148e-06   3.851184744857563e-06
1.7622401081348494e-05   -3.4949211239624148e-06   3.851184744857563e-06
1.7622401081348494e-05   -3.4949211239624148e-06   3.851184744857563e-06
2.3864197532095136e-05   -4.151224787378796e-06   1.3280988875874694e-05
2.3864197532095136e-05   -4.151224787378796e-06   1.3280988875874694e-05
2.3864197532095136e-05   -4.151224787378796e-06   1.3280988875874694e-05
2.3864197532095136e-05   -4.151224787378796e-06   1.3280988875874694e-05
1.18875237602378e-05   -3.2810465614610106e-06   -6.158027141670236e-06
1.18875237602378e-05   -3.2810465614610106e-06   -6.158027141670236e-06
1.18875237602378e-05   -3.2810465614610106e-06   -6.158027141670236e-06
1.18875237602378e-05   -3.2810465614610106e-06   -6.158027141670236e-06
1.1446064339413983e-05   -4.057338562129956e-06   1.1437715665863044e-05
1.1446064339413983e-05   -4.057338562129956e-06   1.1437715665863044e-05
1.1446064339413983e-05   -4.057338562129956e-06   1.1437715665863044e-05
1.1446064339413983e-05   -4.057338562129956e-06   1.1437715665863044e-05
2.3128465696731543e-05   -3.2536873627237502e-06   -8.515143982643166e-06
2.3128465696731543e-05   -3.2536873627237502e-06   -8.515143982643166e-06
2.3128465696731543e-05   -3.2536873627237502e-06   -8.515143982643166e-06
2.3128465696731543e-05   -3.2536873627237502e-06   -8.515143982643166e-06
1.684904850088537e-05   -3.4012248084601404e-06   2.0390738112093608e-06
1.684904850088537e-05   -3.4012248084601404e-06   2.0390738112093608e-06
1.684904850088537e-05   -3.4012248084601404e-06   2.0390738112093608e-06
1.684904850088537e-05   -3.4012248084601404e-06   2.0390738112093608e-06
1.263402119635711e-05   -2.2874400747382746e-06   1.6621023000850115e-05
1.263402119635711e-05   -2.2874400747382746e-06   1.6621023000850115e-05
1.263402119635711e-05   -2.2874400747382746e-06   1.6621023000850115e-05
1.263402119635711e-05   -2.2874400747382746e-06   1.6621023000850115e-05
1.3231990766780422e-06   -9.984550010301184e-07   -1.4569561543900872e-06
1.3231990766780422e-06   -9.984550010301184e-07   -1.4569561543900872e-06
1.3231990766780422e-06   -9.984550010301184e-07   -1.4569561543900872e-06
1.3231990766780422e-06   -9.984550010301184e-07   -1.4569561543900872e-06
9.983824716983347e-07   -2.423900609994879e-06   1.729941882858035e-05
9.983824716983347e-07   -2.423900609994879e-06   1.729941882858035e-05
9.983824716983347e-07   -2.423900609994879e-06   1.729941882858035e-05
9.983824716983347e-07   -2.423900609994879e-06   1.729941882858035e-05
1.2307773687308707e-05   -1.1981450571866377e-06   -2.285019862455311e-06
1.2307773687308707e-05   -1.1981450571866377e-06   -2.285019862455311e-06
1.2307773687308707e-05   -1.1981450571866377e-06   -2.285019862455311e-06
1.2307773687308707e-05   -1.1981450571866377e-06   -2.285019862455311e-06
6.750137794649207e-06   -1.6068292654288115e-06   7.22291715025584e-06
6.750137794649207e-06   -1.6068292654288115e-06   7.22291715025584e-06
6.750137794649207e-06   -1.6068292654288115e-06   7.22291715025584e-06
6.750137794649207e-06   -1.6068292654288115e-06   7.22291715025584e-06
1.23077736873087e-05   -2.423900609994879e-06   1.656396549689536e-05
1.23077736873087e-05   -2.423900609994879e-06   1.656396549689536e-05
1.23077736873087e-05   -2.423900609994879e-06   1.656396549689536e-05
1.23077736873087e-05   -2.423900609994879e-06   1.656396549689536e-05
9.983824716983347e-07   -1.1981450571866377e-06   -1.5495665307703162e-06
9.983824716983347e-07   -1.1981450571866377e-06   -1.5495665307703162e-06
9.983824716983347e-07   -1.1981450571866377e-06   -1.5495665307703162e-06
9.983824716983347e-07   -1.1981450571866377e-06   -1.5495665307703162e-06
5.845261509762218e-07   -2.481725293925754e-06   1.7125724043222834e-05
5.845261509762218e-07   -2.481725293925754e-06   1.7125724043222834e-05
5.845261509762218e-07   -2.481725293925754e-06   1.7125724043222834e-05
5.845261509762218e-07   -2.481725293925754e-06   1.7125724043222834e-05
1.18875237602378e-05   -1.3270910577965799e-06   -2.4053858472240664e-06
1.18875237602378e-05   -1.3270910577965799e-06   -2.4053858472240664e-06
1.18875237602378e-05   -1.3270910577965799e-06   -2.4053858472240664e-06
1.18875237602378e-05   -1.3270910577965799e-06   -2.4053858472240664e-06
6.336953130353009e-06   -1.681356416716683e-06   7.058124417936266e-06
6.336953130353009e-06   -1.681356416716683e-06   7.058124417936266e-06
6.336953130353009e-06   -1.681356416716683e-06   7.058124417936266e-06
6.336953130353009e-06   -1.681356416716683e-06   7.058124417936266e-06
1.188752376023778e-05   -2.481725293925754e-06   1.6432943501545156e-05
1.188752376023778e-05   -2.481725293925754e-06   1.6432943501545156e-05
1.188752376023778e-05   -2.481725293925754e-06   1.6432943501545156e-05
1.188752376023778e-05   -2.481725293925754e-06   1.6432943501545156e-05
5.845261509762218e-07   -1.3270910577965799e-06   -1.7126053055465306e-06
5.845261509762218e-07   -1.3270910577965799e-06   -1.7126053055465306e-06
5.845261509762218e-07   -1.3270910577965799e-06   -1.7126053055465306e-06
5.845261509762218e-07   -1.3270910577965799e-06   -1.7126053055465306e-06
1.274333461083536e-07   -2.420683479620279e-06   1.7366242543269102e-05
1.274333461083536e-07   -2.420683479620279e-06   1.7366242543269102e-05
1.274333461083536e-07   -2.420683479620279e-06   1.7366242543269102e-05
1.274333461083536e-07   -2.420683479620279e-06   1.7366242543269102e-05
1.1446064339413976e-05   -1.3794211416302783e-06   -2.122899848367624e-06
1.1446064339413976e-05   -1.3794211416302783e-06   -2.122899848367624e-06
1.1446064339413976e-05   -1.3794211416302783e-06   -2.122899848367624e-06
1.1446064339413976e-05   -1.3794211416302783e-06   -2.122899848367624e-06
6.0035726536514575e-06   -1.662605464442836e-06   7.117830221591012e-06
6.0035726536514575e-06   -1.662605464442836e-06   7.117830221591012e-06
6.0035726536514575e-06   -1.662605464442836e-06   7.117830221591012e-06
6.0035726536514575e-06   -1.662605464442836e-06   7.117830221591012e-06
1.3231990766780422e-06   -9.120558172269738e-07   1.697144591200411e-05
1.3231990766780422e-06   -9.120558172269738e-07   1.697144591200411e-05
1.3231990766780422e-06   -9.120558172269738e-07   1.697144591200411e-05
1.3231990766780422e-06   -9.120558172269738e-07   1.697144591200411e-05
-9.640491917829315e-06   9.048829537379325e-07   -2.112091495959324e-07
-9.640491917829315e-06   9.048829537379325e-07   -2.112091495959324e-07
-9.640491917829315e-06   9.048829537379325e-07   -2.112091495959324e-07
-9.640491917829315e-06   9.048829537379325e-07   -2.112091495959324e-07
-1.000676508295465e-05   -9.614984151312764e-07   1.818651944375928e-05
-1.000676508295465e-05   -9.614984151312764e-07   1.818651944375928e-05
-1.000676508295465e-05   -9.614984151312764e-07   1.818651944375928e-05
-1.000676508295465e-05   -9.614984151312764e-07   1.818651944375928e-05
9.983824716983347e-07   7.546947342297258e-07   -1.185109036945498e-06
9.983824716983347e-07   7.546947342297258e-07   -1.185109036945498e-06
9.983824716983347e-07   7.546947342297258e-07   -1.185109036945498e-06
9.983824716983347e-07   7.546947342297258e-07   -1.185109036945498e-06
-4.323741184926767e-06   2.5667998585009004e-08   8.12251309881646e-06
-4.323741184926767e-06   2.5667998585009004e-08   8.12251309881646e-06
-4.323741184926767e-06   2.5667998585009004e-08   8.12251309881646e-06
-4.323741184926767e-06   2.5667998585009004e-08   8.12251309881646e-06
9.983824716983347e-07   -9.614984151310596e-07   1.7156803554142872e-05
9.983824716983347e-07   -9.614984151310596e-07   1.7156803554142872e-05
9.983824716983347e-07   -9.614984151310596e-07   1.7156803554142872e-05
9.983824716983347e-07   -9.614984151310596e-07   1.7156803554142872e-05
-1.000676508295465e-05   7.546947342297258e-07   -1.553931473289834e-07
-1.000676508295465e-05   7.546947342297258e-07   -1.553931473289834e-07
-1.000676508295465e-05   7.546947342297258e-07   -1.553931473289834e-07
-1.000676508295465e-05   7.546947342297258e-07   -1.553931473289834e-07
-1.0496037727611185e-05   -1.0228270277321504e-06   1.854397404040648e-05
-1.0496037727611185e-05   -1.0228270277321504e-06   1.854397404040648e-05
-1.0496037727611185e-05   -1.0228270277321504e-06   1.854397404040648e-05
-1.0496037727611185e-05   -1.0228270277321504e-06   1.854397404040648e-05
5.845261509762218e-07   6.149082965955068e-07   -9.062736185025378e-07
5.845261509762218e-07   6.149082965955068e-07   -9.062736185025378e-07
5.845261509762218e-07   6.149082965955068e-07   -9.062736185025378e-07
5.845261509762218e-07   6.149082965955068e-07   -9.062736185025378e-07
-4.684557193638577e-06   -1.4716300428371971e-08   8.253306714069741e-06
-4.684557193638577e-06   -1.4716300428371971e-08   8.253306714069741e-06
-4.684557193638577e-06   -1.4716300428371971e-08   8.253306714069741e-06
-4.684557193638577e-06   -1.4716300428371971e-08   8.253306714069741e-06
5.845261509762218e-07   -1.0228270277323672e-06   1.7561332845809755e-05
5.845261509762218e-07   -1.0228270277323672e-06   1.7561332845809755e-05
5.845261509762218e-07   -1.0228270277323672e-06   1.7561332845809755e-05
5.845261509762218e-07   -1.0228270277323672e-06   1.7561332845809755e-05
-1.0496037727611185e-05   6.149082965955068e-07   7.63675760941324e-08
-1.0496037727611185e-05   6.149082965955068e-07   7.63675760941324e-08
-1.0496037727611185e-05   6.149082965955068e-07   7.63675760941324e-08
-1.0496037727611185e-05   6.149082965955068e-07   7.63675760941324e-08
-1.1017277508023925e-05   -1.0127017795338953e-06   1.897264092541389e-05
-1.1017277508023925e-05   -1.0127017795338953e-06   1.897264092541389e-05
-1.1017277508023925e-05   -1.0127017795338953e-06   1.897264092541389e-05
-1.1017277508023925e-05   -1.0127017795338953e-06   1.897264092541389e-05
1.274333461083536e-07   5.148793547147656e-07   -5.18425845355734e-07
1.274333461083536e-07   5.148793547147656e-07   -5.18425845355734e-07
1.274333461083536e-07   5.148793547147656e-07   -5.18425845355734e-07
1.274333461083536e-07   5.148793547147656e-07   -5.18425845355734e-07
-5.144009308342851e-06   -4.2692032243153016e-08   8.601854744237934e-06
-5.144009308342851e-06   -4.2692032243153016e-08   8.601854744237934e-06
-5.144009308342851e-06   -4.2692032243153016e-08   8.601854744237934e-06
-5.144009308342851e-06   -4.2692032243153016e-08   8.601854744237934e-06
-9.640491917829281e-06   1.1231546963501402e-06   1.5367919571849077e-05
-9.640491917829281e-06   1.1231546963501402e-06   1.5367919571849077e-05
-9.640491917829281e-06   1.1231546963501402e-06   1.5367919571849077e-05
-9.640491917829281e-06   1.1231546963501402e-06   1.5367919571849077e-05
-2.040175816294125e-05   2.9249698259994168e-06   -1.4864350922145142e-06
-2.040175816294125e-05   2.9249698259994168e-06   -1.4864350922145142e-06
-2.040175816294125e-05   2.9249698259994168e-06   -1.4864350922145142e-06
-2.040175816294125e-05   2.9249698259994168e-06   -1.4864350922145142e-06
-2.0931440864156474e-05   1.0690297947437387e-06   1.6985169352747064e-05
-2.0931440864156474e-05   1.0690297947437387e-06   1.6985169352747064e-05
-2.0931440864156474e-05   1.0690297947437387e-06   1.6985169352747064e-05
-2.0931440864156474e-05   1.0690297947437387e-06   1.6985169352747064e-05
-1.000676508295463e-05   2.7758782634230332e-06   -2.246732697130295e-06
-1.000676508295463e-05   2.7758782634230332e-06   -2.246732697130295e-06
-1.000676508295463e-05   2.7758782634230332e-06   -2.246732697130295e-06
-1.000676508295463e-05   2.7758782634230332e-06   -2.246732697130295e-06
-1.5127455443627154e-05   2.0034922091681593e-06   6.7511828698769055e-06
-1.5127455443627154e-05   2.0034922091681593e-06   6.7511828698769055e-06
-1.5127455443627154e-05   2.0034922091681593e-06   6.7511828698769055e-06
-1.5127455443627154e-05   2.0034922091681593e-06   6.7511828698769055e-06
-1.000676508295465e-05   1.0690297947439555e-06   1.5961060271539487e-05
-1.000676508295465e-05   1.0690297947439555e-06   1.5961060271539487e-05
-1.000676508295465e-05   1.0690297947439555e-06   1.5961060271539487e-05
-1.000676508295465e-05   1.0690297947439555e-06   1.5961060271539487e-05
-2.0931440864156433e-05   2.775878263422925e-06   -1.222623615922732e-06
-2.0931440864156433e-05   2.775878263422925e-06   -1.222623615922732e-06
-2.0931440864156433e-05   2.775878263422925e-06   -1.222623615922732e-06
-2.0931440864156433e-05   2.775878263422925e-06   -1.222623615922732e-06
-2.1581863680270784e-05   9.602846357001458e-07   1.8026526834837454e-05
-2.1581863680270784e-05   9.602846357001458e-07   1.8026526834837454e-05
-2.1581863680270784e-05   9.602846357001458e-07   1.8026526834837454e-05
-2.1581863680270784e-05   9.602846357001458e-07   1.8026526834837454e-05
-1.0496037727611185e-05   2.636636484640905e-06   -1.4556608622930768e-06
-1.0496037727611185e-05   2.636636484640905e-06   -1.4556608622930768e-06
-1.0496037727611185e-05   2.636636484640905e-06   -1.4556608622930768e-06
-1.0496037727611185e-05   2.636636484640905e-06   -1.4556608622930768e-06
-1.551938369010896e-05   1.9721829860152706e-06   7.315254507711896e-06
-1.551938369010896e-05   1.9721829860152706e-06   7.315254507711896e-06
-1.551938369010896e-05   1.9721829860152706e-06   7.315254507711896e-06
-1.551938369010896e-05   1.9721829860152706e-06   7.315254507711896e-06
-1.0496037727611172e-05   9.602846357003626e-07   1.702071572547289e-05
-1.0496037727611172e-05   9.602846357003626e-07   1.702071572547289e-05
-1.0496037727611172e-05   9.602846357003626e-07   1.702071572547289e-05
-1.0496037727611172e-05   9.602846357003626e-07   1.702071572547289e-05
-2.1581863680270743e-05   2.636636484640905e-06   -4.498497529286348e-07
-2.1581863680270743e-05   2.636636484640905e-06   -4.498497529286348e-07
-2.1581863680270743e-05   2.636636484640905e-06   -4.498497529286348e-07
-2.1581863680270743e-05   2.636636484640905e-06   -4.498497529286348e-07
-2.2268609999994138e-05   8.359954940953887e-07   1.8845112760243173e-05
-2.2268609999994138e-05   8.359954940953887e-07   1.8845112760243173e-05
-2.2268609999994138e-05   8.359954940953887e-07   1.8845112760243173e-05
-2.2268609999994138e-05   8.359954940953887e-07   1.8845112760243173e-05
-1.1017277508023905e-05   2.4479069184317774e-06   -8.742549143089595e-07
-1.1017277508023905e-05   2.4479069184317774e-06   -8.742549143089595e-07
-1.1017277508023905e-05   2.4479069184317774e-06   -8.742549143089595e-07
-1.1017277508023905e-05   2.4479069184317774e-06   -8.742549143089595e-07
-1.6181382505073317e-05   1.8603004862920028e-06   8.085150606724454e-06
-1.6181382505073317e-05   1.8603004862920028e-06   8.085150606724454e-06
-1.6181382505073317e-05   1.8603004862920028e-06   8.085150606724454e-06
-1.6181382505073317e-05   1.8603004862920028e-06   8.085150606724454e-06
-2.040175816294125e-05   4.812390911791524e-06   8.084399808156199e-06
-2.040175816294125e-05   4.812390911791524e-06   8.084399808156199e-06
-2.040175816294125e-05   4.812390911791524e-06   8.084399808156199e-06
-2.040175816294125e-05   4.812390911791524e-06   8.084399808156199e-06
-3.073319613065637e-05   4.757012480602037e-06   -9.167890530082702e-06
-3.073319613065637e-05   4.757012480602037e-06   -9.167890530082702e-06
-3.073319613065637e-05   4.757012480602037e-06   -9.167890530082702e-06
-3.073319613065637e-05   4.757012480602037e-06   -9.167890530082702e-06
-3.1686203822535355e-05   4.6605722552801356e-06   1.2041950110752838e-05
-3.1686203822535355e-05   4.6605722552801356e-06   1.2041950110752838e-05
-3.1686203822535355e-05   4.6605722552801356e-06   1.2041950110752838e-05
-3.1686203822535355e-05   4.6605722552801356e-06   1.2041950110752838e-05
-2.0931440864156433e-05   4.855112358424221e-06   -5.9993788817652846e-06
-2.0931440864156433e-05   4.855112358424221e-06   -5.9993788817652846e-06
-2.0931440864156433e-05   4.855112358424221e-06   -5.9993788817652846e-06
-2.0931440864156433e-05   4.855112358424221e-06   -5.9993788817652846e-06
-2.489407038409204e-05   4.840244033904291e-06   6.139246461726736e-07
-2.489407038409204e-05   4.840244033904291e-06   6.139246461726736e-07
-2.489407038409204e-05   4.840244033904291e-06   6.139246461726736e-07
-2.489407038409204e-05   4.840244033904291e-06   6.139246461726736e-07
-2.0931440864156413e-05   4.660572255279919e-06   1.1925226048866344e-05
-2.0931440864156413e-05   4.660572255279919e-06   1.1925226048866344e-05
-2.0931440864156413e-05   4.660572255279919e-06   1.1925226048866344e-05
-2.0931440864156413e-05   4.660572255279919e-06   1.1925226048866344e-05
-3.1686203822535355e-05   4.855112358424221e-06   -5.882654819878682e-06
-3.1686203822535355e-05   4.855112358424221e-06   -5.882654819878682e-06
-3.1686203822535355e-05   4.855112358424221e-06   -5.882654819878682e-06
-3.1686203822535355e-05   4.855112358424221e-06   -5.882654819878682e-06
-3.262061731146622e-05   4.546936109524119e-06   1.4806150063414948e-05
-3.262061731146622e-05   4.546936109524119e-06   1.4806150063414948e-05
-3.262061731146622e-05   4.546936109524119e-06   1.4806150063414948e-05
-3.262061731146622e-05   4.546936109524119e-06   1.4806150063414948e-05
-2.1581863680270743e-05   4.822381427275319e-06   -3.757039845895014e-06
-2.1581863680270743e-05   4.822381427275319e-06   -3.757039845895014e-06
-2.1581863680270743e-05   4.822381427275319e-06   -3.757039845895014e-06
-2.1581863680270743e-05   4.822381427275319e-06   -3.757039845895014e-06
-2.599880859376532e-05   4.845578377731408e-06   3.5906168396558896e-06
-2.599880859376532e-05   4.845578377731408e-06   3.5906168396558896e-06
-2.599880859376532e-05   4.845578377731408e-06   3.5906168396558896e-06
-2.599880859376532e-05   4.845578377731408e-06   3.5906168396558896e-06
-2.1581863680270743e-05   4.546936109523902e-06   1.4640882872764271e-05
-2.1581863680270743e-05   4.546936109523902e-06   1.4640882872764271e-05
-2.1581863680270743e-05   4.546936109523902e-06   1.4640882872764271e-05
-2.1581863680270743e-05   4.546936109523902e-06   1.4640882872764271e-05
-3.262061731146629e-05   4.822381427275319e-06   -3.5917726552443102e-06
-3.262061731146629e-05   4.822381427275319e-06   -3.5917726552443102e-06
-3.262061731146629e-05   4.822381427275319e-06   -3.5917726552443102e-06
-3.262061731146629e-05   4.822381427275319e-06   -3.5917726552443102e-06
-3.372377119066063e-05   3.811300210152359e-06   1.9421382468507646e-05
-3.372377119066063e-05   3.811300210152359e-06   1.9421382468507646e-05
-3.372377119066063e-05   3.811300210152359e-06   1.9421382468507646e-05
-3.372377119066063e-05   3.811300210152359e-06   1.9421382468507646e-05
-2.226860999999411e-05   4.446169617593914e-06   -5.147449373479342e-08
-2.226860999999411e-05   4.446169617593914e-06   -5.147449373479342e-08
-2.226860999999411e-05   4.446169617593914e-06   -5.147449373479342e-08
-2.226860999999411e-05   4.446169617593914e-06   -5.147449373479342e-08
-2.6377578468974597e-05   4.620537360482818e-06   6.692185642166227e-06
-2.6377578468974597e-05   4.620537360482818e-06   6.692185642166227e-06
-2.6377578468974597e-05   4.620537360482818e-06   6.692185642166227e-06
-2.6377578468974597e-05   4.620537360482818e-06   6.692185642166227e-06
2.0435567600120032e-05   -2.852589746018858e-06   1.5658358773323e-05
2.0435567600120032e-05   -2.852589746018858e-06   1.5658358773323e-05
2.0435567600120032e-05   -2.852589746018858e-06   1.5658358773323e-05
2.0435567600120032e-05   -2.852589746018858e-06   1.5658358773323e-05
1.0096679264169424e-05   -2.109331476738774e-06   -1.12716682502663e-06
1.0096679264169424e-05   -2.109331476738774e-06   -1.12716682502663e-06
1.0096679264169424e-05   -2.109331476738774e-06   -1.12716682502663e-06
1.0096679264169424e-05   -2.109331476738774e-06   -1.12716682502663e-06
9.720480901529822e-06   -3.226896294903801e-06   1.3599870357635779e-05
9.720480901529822e-06   -3.226896294903801e-06   1.3599870357635779e-05
9.720480901529822e-06   -3.226896294903801e-06   1.3599870357635779e-05
9.720480901529822e-06   -3.226896294903801e-06   1.3599870357635779e-05
1.9744692019575625e-05   -2.4418602240906893e-06   -3.5781698149283954e-06
1.9744692019575625e-05   -2.4418602240906893e-06   -3.5781698149283954e-06
1.9744692019575625e-05   -2.4418602240906893e-06   -3.5781698149283954e-06
1.9744692019575625e-05   -2.4418602240906893e-06   -3.5781698149283954e-06
1.431299547327546e-05   -2.630070095896637e-06   5.58758368532211e-06
1.431299547327546e-05   -2.630070095896637e-06   5.58758368532211e-06
1.431299547327546e-05   -2.630070095896637e-06   5.58758368532211e-06
1.431299547327546e-05   -2.630070095896637e-06   5.58758368532211e-06
1.9744692019575594e-05   -3.2268962949039094e-06   1.312884871514802e-05
1.9744692019575594e-05   -3.2268962949039094e-06   1.312884871514802e-05
1.9744692019575594e-05   -3.2268962949039094e-06   1.312884871514802e-05
1.9744692019575594e-05   -3.2268962949039094e-06   1.312884871514802e-05
9.72048090152986e-06   -2.4418602240906893e-06   -3.1071481724403776e-06
9.72048090152986e-06   -2.4418602240906893e-06   -3.1071481724403776e-06
9.72048090152986e-06   -2.4418602240906893e-06   -3.1071481724403776e-06
9.72048090152986e-06   -2.4418602240906893e-06   -3.1071481724403776e-06
9.301848933694739e-06   -3.2810465614610106e-06   1.217705006241617e-05
9.301848933694739e-06   -3.2810465614610106e-06   1.217705006241617e-05
9.301848933694739e-06   -3.2810465614610106e-06   1.217705006241617e-05
9.301848933694739e-06   -3.2810465614610106e-06   1.217705006241617e-05
1.9117822118096026e-05   -2.507655243434389e-06   -4.6469400357351975e-06
1.9117822118096026e-05   -2.507655243434389e-06   -4.6469400357351975e-06
1.9117822118096026e-05   -2.507655243434389e-06   -4.6469400357351975e-06
1.9117822118096026e-05   -2.507655243434389e-06   -4.6469400357351975e-06
1.4059685948281768e-05   -2.7594021711438996e-06   3.93433507058088e-06
1.4059685948281768e-05   -2.7594021711438996e-06   3.93433507058088e-06
1.4059685948281768e-05   -2.7594021711438996e-06   3.93433507058088e-06
1.4059685948281768e-05   -2.7594021711438996e-06   3.93433507058088e-06
1.9117822118095958e-05   -3.281046561461119e-06   1.1713015271600175e-05
1.9117822118095958e-05   -3.281046561461119e-06   1.1713015271600175e-05
1.9117822118095958e-05   -3.281046561461119e-06   1.1713015271600175e-05
1.9117822118095958e-05   -3.281046561461119e-06   1.1713015271600175e-05
9.301848933694756e-06   -2.507655243434389e-06   -4.182905244919208e-06
9.301848933694756e-06   -2.507655243434389e-06   -4.182905244919208e-06
9.301848933694756e-06   -2.507655243434389e-06   -4.182905244919208e-06
9.301848933694756e-06   -2.507655243434389e-06   -4.182905244919208e-06
8.898644815453435e-06   -3.2536873627237502e-06   1.0184560717543898e-05
8.898644815453435e-06   -3.2536873627237502e-06   1.0184560717543898e-05
8.898644815453435e-06   -3.2536873627237502e-06   1.0184560717543898e-05
8.898644815453435e-06   -3.2536873627237502e-06   1.0184560717543898e-05
1.840665155777753e-05   -2.5291112211019108e-06   -6.096862871302656e-06
1.840665155777753e-05   -2.5291112211019108e-06   -6.096862871302656e-06
1.840665155777753e-05   -2.5291112211019108e-06   -6.096862871302656e-06
1.840665155777753e-05   -2.5291112211019108e-06   -6.096862871302656e-06
1.33492872391754e-05   -2.710672902696298e-06   2.441014668657784e-06
1.33492872391754e-05   -2.710672902696298e-06   2.441014668657784e-06
1.33492872391754e-05   -2.710672902696298e-06   2.441014668657784e-06
1.33492872391754e-05   -2.710672902696298e-06   2.441014668657784e-06
1.0096679264169424e-05   -9.984550010301184e-07   1.633273925285856e-05
1.0096679264169424e-05   -9.984550010301184e-07   1.633273925285856e-05
1.0096679264169424e-05   -9.984550010301184e-07   1.633273925285856e-05
1.0096679264169424e-05   -9.984550010301184e-07   1.633273925285856e-05
3.9103438342118294e-07   -4.054786882109031e-07   5.124502393030186e-07
3.9103438342118294e-07   -4.054786882109031e-07   5.124502393030186e-07
3.9103438342118294e-07   -4.054786882109031e-07   5.124502393030186e-07
3.9103438342118294e-07   -4.054786882109031e-07   5.124502393030186e-07
2.925701406689867e-08   -1.1981450571865292e-06   1.6495461521956554e-05
2.925701406689867e-08   -1.1981450571865292e-06   1.6495461521956554e-05
2.925701406689867e-08   -1.1981450571865292e-06   1.6495461521956554e-05
2.925701406689867e-08   -1.1981450571865292e-06   1.6495461521956554e-05
9.72048090152986e-06   -6.399811477384451e-07   8.523363849468322e-09
9.72048090152986e-06   -6.399811477384451e-07   8.523363849468322e-09
9.72048090152986e-06   -6.399811477384451e-07   8.523363849468322e-09
9.72048090152986e-06   -6.399811477384451e-07   8.523363849468322e-09
4.997619551773997e-06   -7.811742844595227e-07   7.964674828808509e-06
4.997619551773997e-06   -7.811742844595227e-07   7.964674828808509e-06
4.997619551773997e-06   -7.811742844595227e-07   7.964674828808509e-06
4.997619551773997e-06   -7.811742844595227e-07   7.964674828808509e-06
9.720480901529842e-06   -1.1981450571866377e-06   1.6160563176287595e-05
9.720480901529842e-06   -1.1981450571866377e-06   1.6160563176287595e-05
9.720480901529842e-06   -1.1981450571866377e-06   1.6160563176287595e-05
9.720480901529842e-06   -1.1981450571866377e-06   1.6160563176287595e-05
2.925701406689867e-08   -6.399811477384451e-07   3.434217095183052e-07
2.925701406689867e-08   -6.399811477384451e-07   3.434217095183052e-07
2.925701406689867e-08   -6.399811477384451e-07   3.434217095183052e-07
2.925701406689867e-08   -6.399811477384451e-07   3.434217095183052e-07
-3.4683481137108595e-07   -1.3270910577965799e-06   1.62384152714339e-05
-3.4683481137108595e-07   -1.3270910577965799e-06   1.62384152714339e-05
-3.4683481137108595e-07   -1.3270910577965799e-06   1.62384152714339e-05
-3.4683481137108595e-07   -1.3270910577965799e-06   1.62384152714339e-05
9.301848933694756e-06   -8.125512001772896e-07   -1.5144821824725923e-07
9.301848933694756e-06   -8.125512001772896e-07   -1.5144821824725923e-07
9.301848933694756e-06   -8.125512001772896e-07   -1.5144821824725923e-07
9.301848933694756e-06   -8.125512001772896e-07   -1.5144821824725923e-07
4.5808230594643165e-06   -9.032969070499591e-07   7.771375662927209e-06
4.5808230594643165e-06   -9.032969070499591e-07   7.771375662927209e-06
4.5808230594643165e-06   -9.032969070499591e-07   7.771375662927209e-06
4.5808230594643165e-06   -9.032969070499591e-07   7.771375662927209e-06
9.301848933694739e-06   -1.3270910577965799e-06   1.5929691356862414e-05
9.301848933694739e-06   -1.3270910577965799e-06   1.5929691356862414e-05
9.301848933694739e-06   -1.3270910577965799e-06   1.5929691356862414e-05
9.301848933694739e-06   -1.3270910577965799e-06   1.5929691356862414e-05
-3.4683481137108595e-07   -8.12551200177398e-07   1.572756963241469e-07
-3.4683481137108595e-07   -8.12551200177398e-07   1.572756963241469e-07
-3.4683481137108595e-07   -8.12551200177398e-07   1.572756963241469e-07
-3.4683481137108595e-07   -8.12551200177398e-07   1.572756963241469e-07
-7.383907136955742e-07   -1.3794211416301699e-06   1.6354232632736425e-05
-7.383907136955742e-07   -1.3794211416301699e-06   1.6354232632736425e-05
-7.383907136955742e-07   -1.3794211416301699e-06   1.6354232632736425e-05
-7.383907136955742e-07   -1.3794211416301699e-06   1.6354232632736425e-05
8.898644815453459e-06   -9.467236406953674e-07   3.2888250260578334e-08
8.898644815453459e-06   -9.467236406953674e-07   3.2888250260578334e-08
8.898644815453459e-06   -9.467236406953674e-07   3.2888250260578334e-08
8.898644815453459e-06   -9.467236406953674e-07   3.2888250260578334e-08
4.270006518455924e-06   -9.66908948863256e-07   7.75939659682418e-06
4.270006518455924e-06   -9.66908948863256e-07   7.75939659682418e-06
4.270006518455924e-06   -9.66908948863256e-07   7.75939659682418e-06
4.270006518455924e-06   -9.66908948863256e-07   7.75939659682418e-06
3.9103438342117617e-07   9.048829537379325e-07   1.6844108782765256e-05
3.9103438342117617e-07   9.048829537379325e-07   1.6844108782765256e-05
3.9103438342117617e-07   9.048829537379325e-07   1.6844108782765256e-05
3.9103438342117617e-07   9.048829537379325e-07   1.6844108782765256e-05
-9.035549911177396e-06   1.3003306104593425e-06   1.3704035524671546e-06
-9.035549911177396e-06   1.3003306104593425e-06   1.3704035524671546e-06
-9.035549911177396e-06   1.3003306104593425e-06   1.3704035524671546e-06
-9.035549911177396e-06   1.3003306104593425e-06   1.3704035524671546e-06
-9.413925310271926e-06   7.546947342296174e-07   1.7071347930762122e-05
-9.413925310271926e-06   7.546947342296174e-07   1.7071347930762122e-05
-9.413925310271926e-06   7.546947342296174e-07   1.7071347930762122e-05
-9.413925310271926e-06   7.546947342296174e-07   1.7071347930762122e-05
2.925701406689867e-08   1.1070762591976072e-06   1.1212818085499436e-06
2.925701406689867e-08   1.1070762591976072e-06   1.1212818085499436e-06
2.925701406689867e-08   1.1070762591976072e-06   1.1212818085499436e-06
2.925701406689867e-08   1.1070762591976072e-06   1.1212818085499436e-06
-4.514131925286655e-06   1.0266171947070175e-06   8.741872146166921e-06
-4.514131925286655e-06   1.0266171947070175e-06   8.741872146166921e-06
-4.514131925286655e-06   1.0266171947070175e-06   8.741872146166921e-06
-4.514131925286655e-06   1.0266171947070175e-06   8.741872146166921e-06
2.925701406689867e-08   7.546947342296174e-07   1.685991901578148e-05
2.925701406689867e-08   7.546947342296174e-07   1.685991901578148e-05
2.925701406689867e-08   7.546947342296174e-07   1.685991901578148e-05
2.925701406689867e-08   7.546947342296174e-07   1.685991901578148e-05
-9.413925310271926e-06   1.1070762591974988e-06   1.3327107235307483e-06
-9.413925310271926e-06   1.1070762591974988e-06   1.3327107235307483e-06
-9.413925310271926e-06   1.1070762591974988e-06   1.3327107235307483e-06
-9.413925310271926e-06   1.1070762591974988e-06   1.3327107235307483e-06
-9.81298080244117e-06   6.149082965955068e-07   1.722750889458552e-05
-9.81298080244117e-06   6.149082965955068e-07   1.722750889458552e-05
-9.81298080244117e-06   6.149082965955068e-07   1.722750889458552e-05
-9.81298080244117e-06   6.149082965955068e-07   1.722750889458552e-05
-3.4683481137108595e-07   9.195115234414929e-07   1.2678369733610606e-06
-3.4683481137108595e-07   9.195115234414929e-07   1.2678369733610606e-06
-3.4683481137108595e-07   9.195115234414929e-07   1.2678369733610606e-06
-3.4683481137108595e-07   9.195115234414929e-07   1.2678369733610606e-06
-4.8652996218364984e-06   9.173423245530544e-07   8.799913176803117e-06
-4.8652996218364984e-06   9.173423245530544e-07   8.799913176803117e-06
-4.8652996218364984e-06   9.173423245530544e-07   8.799913176803117e-06
-4.8652996218364984e-06   9.173423245530544e-07   8.799913176803117e-06
-3.4683481137108595e-07   6.149082965956152e-07   1.704474695847784e-05
-3.4683481137108595e-07   6.149082965956152e-07   1.704474695847784e-05
-3.4683481137108595e-07   6.149082965956152e-07   1.704474695847784e-05
-3.4683481137108595e-07   6.149082965956152e-07   1.704474695847784e-05
-9.81298080244117e-06   9.195115234414929e-07   1.4505989094686848e-06
-9.81298080244117e-06   9.195115234414929e-07   1.4505989094686848e-06
-9.81298080244117e-06   9.195115234414929e-07   1.4505989094686848e-06
-9.81298080244117e-06   9.195115234414929e-07   1.4505989094686848e-06
-1.0224487981749846e-05   5.148793547146572e-07   1.7476626468945398e-05
-1.0224487981749846e-05   5.148793547146572e-07   1.7476626468945398e-05
-1.0224487981749846e-05   5.148793547146572e-07   1.7476626468945398e-05
-1.0224487981749846e-05   5.148793547146572e-07   1.7476626468945398e-05
-7.38390713695581e-07   7.526747480328605e-07   1.523787119530706e-06
-7.38390713695581e-07   7.526747480328605e-07   1.523787119530706e-06
-7.38390713695581e-07   7.526747480328605e-07   1.523787119530706e-06
-7.38390713695581e-07   7.526747480328605e-07   1.523787119530706e-06
-5.245368514151901e-06   8.128687443546573e-07   8.999300389165188e-06
-5.245368514151901e-06   8.128687443546573e-07   8.999300389165188e-06
-5.245368514151901e-06   8.128687443546573e-07   8.999300389165188e-06
-5.245368514151901e-06   8.128687443546573e-07   8.999300389165188e-06
-9.035549911177437e-06   2.924969825999525e-06   1.4725062356389846e-05
-9.035549911177437e-06   2.924969825999525e-06   1.4725062356389846e-05
-9.035549911177437e-06   2.924969825999525e-06   1.4725062356389846e-05
-9.035549911177437e-06   2.924969825999525e-06   1.4725062356389846e-05
-1.818444523562937e-05   2.9624401637350127e-06   -5.006143150553801e-07
-1.818444523562937e-05   2.9624401637350127e-06   -5.006143150553801e-07
-1.818444523562937e-05   2.9624401637350127e-06   -5.006143150553801e-07
-1.818444523562937e-05   2.9624401637350127e-06   -5.006143150553801e-07
-1.8623468231305102e-05   2.775878263422925e-06   1.4982223341975963e-05
-1.8623468231305102e-05   2.775878263422925e-06   1.4982223341975963e-05
-1.8623468231305102e-05   2.775878263422925e-06   1.4982223341975963e-05
-1.8623468231305102e-05   2.775878263422925e-06   1.4982223341975963e-05
-9.413925310271953e-06   2.779569865114795e-06   -3.692298207610235e-07
-9.413925310271953e-06   2.779569865114795e-06   -3.692298207610235e-07
-9.413925310271953e-06   2.779569865114795e-06   -3.692298207610235e-07
-9.413925310271953e-06   2.779569865114795e-06   -3.692298207610235e-07
-1.3752702891920428e-05   2.851374367919589e-06   6.8189834469702235e-06
-1.3752702891920428e-05   2.851374367919589e-06   6.8189834469702235e-06
-1.3752702891920428e-05   2.851374367919589e-06   6.8189834469702235e-06
-1.3752702891920428e-05   2.851374367919589e-06   6.8189834469702235e-06
-9.413925310271953e-06   2.775878263422925e-06   1.4980008380960906e-05
-9.413925310271953e-06   2.775878263422925e-06   1.4980008380960906e-05
-9.413925310271953e-06   2.775878263422925e-06   1.4980008380960906e-05
-9.413925310271953e-06   2.775878263422925e-06   1.4980008380960906e-05
-1.8623468231305102e-05   2.779569865114795e-06   -3.6701485974595296e-07
-1.8623468231305102e-05   2.779569865114795e-06   -3.6701485974595296e-07
-1.8623468231305102e-05   2.779569865114795e-06   -3.6701485974595296e-07
-1.8623468231305102e-05   2.779569865114795e-06   -3.6701485974595296e-07
-1.9109115413855715e-05   2.636636484640905e-06   1.5679225500210298e-05
-1.9109115413855715e-05   2.636636484640905e-06   1.5679225500210298e-05
-1.9109115413855715e-05   2.636636484640905e-06   1.5679225500210298e-05
-1.9109115413855715e-05   2.636636484640905e-06   1.5679225500210298e-05
-9.812980802441183e-06   2.609544891327576e-06   2.019227705074057e-07
-9.812980802441183e-06   2.609544891327576e-06   2.019227705074057e-07
-9.812980802441183e-06   2.609544891327576e-06   2.019227705074057e-07
-9.812980802441183e-06   2.609544891327576e-06   2.019227705074057e-07
-1.4067164756288933e-05   2.7490616240318563e-06   7.20851932063126e-06
-1.4067164756288933e-05   2.7490616240318563e-06   7.20851932063126e-06
-1.4067164756288933e-05   2.7490616240318563e-06   7.20851932063126e-06
-1.4067164756288933e-05   2.7490616240318563e-06   7.20851932063126e-06
-9.81298080244117e-06   2.636636484640905e-06   1.5695480456198187e-05
-9.81298080244117e-06   2.636636484640905e-06   1.5695480456198187e-05
-9.81298080244117e-06   2.636636484640905e-06   1.5695480456198187e-05
-9.81298080244117e-06   2.636636484640905e-06   1.5695480456198187e-05
-1.9109115413855715e-05   2.609544891327576e-06   1.8566781451938123e-07
-1.9109115413855715e-05   2.609544891327576e-06   1.8566781451938123e-07
-1.9109115413855715e-05   2.609544891327576e-06   1.8566781451938123e-07
-1.9109115413855715e-05   2.609544891327576e-06   1.8566781451938123e-07
-1.9571403263245557e-05   2.4479069184317774e-06   1.617586391768099e-05
-1.9571403263245557e-05   2.4479069184317774e-06   1.617586391768099e-05
-1.9571403263245557e-05   2.4479069184317774e-06   1.617586391768099e-05
-1.9571403263245557e-05   2.4479069184317774e-06   1.617586391768099e-05
-1.0224487981749846e-05   2.400598915495056e-06   6.260565836167835e-07
-1.0224487981749846e-05   2.400598915495056e-06   6.260565836167835e-07
-1.0224487981749846e-05   2.400598915495056e-06   6.260565836167835e-07
-1.0224487981749846e-05   2.400598915495056e-06   6.260565836167835e-07
-1.4574003943769342e-05   2.6142910053446712e-06   7.747034599740233e-06
-1.4574003943769342e-05   2.6142910053446712e-06   7.747034599740233e-06
-1.4574003943769342e-05   2.6142910053446712e-06   7.747034599740233e-06
-1.4574003943769342e-05   2.6142910053446712e-06   7.747034599740233e-06
-1.8184445235629344e-05   4.757012480602037e-06   7.099316179876762e-06
-1.8184445235629344e-05   4.757012480602037e-06   7.099316179876762e-06
-1.8184445235629344e-05   4.757012480602037e-06   7.099316179876762e-06
-1.8184445235629344e-05   4.757012480602037e-06   7.099316179876762e-06
-2.691169600612486e-05   4.2815755704893495e-06   -7.731363917016663e-06
-2.691169600612486e-05   4.2815755704893495e-06   -7.731363917016663e-06
-2.691169600612486e-05   4.2815755704893495e-06   -7.731363917016663e-06
-2.691169600612486e-05   4.2815755704893495e-06   -7.731363917016663e-06
-2.7603458495397478e-05   4.855112358424221e-06   9.891753842956093e-06
-2.7603458495397478e-05   4.855112358424221e-06   9.891753842956093e-06
-2.7603458495397478e-05   4.855112358424221e-06   9.891753842956093e-06
-2.7603458495397478e-05   4.855112358424221e-06   9.891753842956093e-06
-1.8623468231305102e-05   4.332255303128693e-06   -4.761182364020712e-06
-1.8623468231305102e-05   4.332255303128693e-06   -4.761182364020712e-06
-1.8623468231305102e-05   4.332255303128693e-06   -4.761182364020712e-06
-1.8623468231305102e-05   4.332255303128693e-06   -4.761182364020712e-06
-2.195570375219905e-05   4.526849046205877e-06   6.757872582896214e-07
-2.195570375219905e-05   4.526849046205877e-06   6.757872582896214e-07
-2.195570375219905e-05   4.526849046205877e-06   6.757872582896214e-07
-2.195570375219905e-05   4.526849046205877e-06   6.757872582896214e-07
-1.862346823130506e-05   4.855112358424221e-06   1.0205468076133302e-05
-1.862346823130506e-05   4.855112358424221e-06   1.0205468076133302e-05
-1.862346823130506e-05   4.855112358424221e-06   1.0205468076133302e-05
-1.862346823130506e-05   4.855112358424221e-06   1.0205468076133302e-05
-2.7603458495397532e-05   4.332255303128693e-06   -5.074896597197947e-06
-2.7603458495397532e-05   4.332255303128693e-06   -5.074896597197947e-06
-2.7603458495397532e-05   4.332255303128693e-06   -5.074896597197947e-06
-2.7603458495397532e-05   4.332255303128693e-06   -5.074896597197947e-06
-2.8277546111131835e-05   4.8223814272754274e-06   1.2050236634254504e-05
-2.8277546111131835e-05   4.8223814272754274e-06   1.2050236634254504e-05
-2.8277546111131835e-05   4.8223814272754274e-06   1.2050236634254504e-05
-2.8277546111131835e-05   4.8223814272754274e-06   1.2050236634254504e-05
-1.9109115413855715e-05   4.286050138959654e-06   -2.908682421549777e-06
-1.9109115413855715e-05   4.286050138959654e-06   -2.908682421549777e-06
-1.9109115413855715e-05   4.286050138959654e-06   -2.908682421549777e-06
-1.9109115413855715e-05   4.286050138959654e-06   -2.908682421549777e-06
-2.2815282013580665e-05   4.611539697845944e-06   3.0729681759938444e-06
-2.2815282013580665e-05   4.611539697845944e-06   3.0729681759938444e-06
-2.2815282013580665e-05   4.611539697845944e-06   3.0729681759938444e-06
-2.2815282013580665e-05   4.611539697845944e-06   3.0729681759938444e-06
-1.9109115413855715e-05   4.822381427275319e-06   1.2372035407243946e-05
-1.9109115413855715e-05   4.822381427275319e-06   1.2372035407243946e-05
-1.9109115413855715e-05   4.822381427275319e-06   1.2372035407243946e-05
-1.9109115413855715e-05   4.822381427275319e-06   1.2372035407243946e-05
-2.8277546111131875e-05   4.286050138959654e-06   -3.2304811945391924e-06
-2.8277546111131875e-05   4.286050138959654e-06   -3.2304811945391924e-06
-2.8277546111131875e-05   4.286050138959654e-06   -3.2304811945391924e-06
-2.8277546111131875e-05   4.286050138959654e-06   -3.2304811945391924e-06
-2.906340764160793e-05   4.446169617593914e-06   1.573938390821085e-05
-2.906340764160793e-05   4.446169617593914e-06   1.573938390821085e-05
-2.906340764160793e-05   4.446169617593914e-06   1.573938390821085e-05
-2.906340764160793e-05   4.446169617593914e-06   1.573938390821085e-05
-1.9571403263245557e-05   3.959313658523302e-06   2.1149018638254823e-07
-1.9571403263245557e-05   3.959313658523302e-06   2.1149018638254823e-07
-1.9571403263245557e-05   3.959313658523302e-06   2.1149018638254823e-07
-1.9571403263245557e-05   3.959313658523302e-06   2.1149018638254823e-07
-2.30192263409762e-05   4.476412643364142e-06   5.6476025916961685e-06
-2.30192263409762e-05   4.476412643364142e-06   5.6476025916961685e-06
-2.30192263409762e-05   4.476412643364142e-06   5.6476025916961685e-06
-2.30192263409762e-05   4.476412643364142e-06   5.6476025916961685e-06
1.5640961476627955e-05   -2.109331476738774e-06   1.3165083616375312e-05
1.5640961476627955e-05   -2.109331476738774e-06   1.3165083616375312e-05
1.5640961476627955e-05   -2.109331476738774e-06   1.3165083616375312e-05
1.5640961476627955e-05   -2.109331476738774e-06   1.3165083616375312e-05
7.3519666884136514e-06   -1.4097253803180537e-06   -2.301440394626925e-07
7.3519666884136514e-06   -1.4097253803180537e-06   -2.301440394626925e-07
7.3519666884136514e-06   -1.4097253803180537e-06   -2.301440394626925e-07
7.3519666884136514e-06   -1.4097253803180537e-06   -2.301440394626925e-07
7.01489403152638e-06   -2.4418602240906893e-06   1.1554113893630954e-05
7.01489403152638e-06   -2.4418602240906893e-06   1.1554113893630954e-05
7.01489403152638e-06   -2.4418602240906893e-06   1.1554113893630954e-05
7.01489403152638e-06   -2.4418602240906893e-06   1.1554113893630954e-05
1.4987916412340858e-05   -1.705287478916389e-06   -2.1762003881644436e-06
1.4987916412340858e-05   -1.705287478916389e-06   -2.1762003881644436e-06
1.4987916412340858e-05   -1.705287478916389e-06   -2.1762003881644436e-06
1.4987916412340858e-05   -1.705287478916389e-06   -2.1762003881644436e-06
1.0720237585480134e-05   -1.9300423732656257e-06   5.071450593212918e-06
1.0720237585480134e-05   -1.9300423732656257e-06   5.071450593212918e-06
1.0720237585480134e-05   -1.9300423732656257e-06   5.071450593212918e-06
1.0720237585480134e-05   -1.9300423732656257e-06   5.071450593212918e-06
1.4987916412340858e-05   -2.4418602240906893e-06   1.1112170246526374e-05
1.4987916412340858e-05   -2.4418602240906893e-06   1.1112170246526374e-05
1.4987916412340858e-05   -2.4418602240906893e-06   1.1112170246526374e-05
1.4987916412340858e-05   -2.4418602240906893e-06   1.1112170246526374e-05
7.01489403152639e-06   -1.705287478916389e-06   -1.7342567410599244e-06
7.01489403152639e-06   -1.705287478916389e-06   -1.7342567410599244e-06
7.01489403152639e-06   -1.705287478916389e-06   -1.7342567410599244e-06
7.01489403152639e-06   -1.705287478916389e-06   -1.7342567410599244e-06
6.6419958874016614e-06   -2.5076552434342807e-06   1.0423137246218478e-05
6.6419958874016614e-06   -2.5076552434342807e-06   1.0423137246218478e-05
6.6419958874016614e-06   -2.5076552434342807e-06   1.0423137246218478e-05
6.6419958874016614e-06   -2.5076552434342807e-06   1.0423137246218478e-05
1.4414509730678424e-05   -1.7833920719358912e-06   -2.965610395475243e-06
1.4414509730678424e-05   -1.7833920719358912e-06   -2.965610395475243e-06
1.4414509730678424e-05   -1.7833920719358912e-06   -2.965610395475243e-06
1.4414509730678424e-05   -1.7833920719358912e-06   -2.965610395475243e-06
1.0455490588340104e-05   -2.0504364519875837e-06   3.7929814697866483e-06
1.0455490588340104e-05   -2.0504364519875837e-06   3.7929814697866483e-06
1.0455490588340104e-05   -2.0504364519875837e-06   3.7929814697866483e-06
1.0455490588340104e-05   -2.0504364519875837e-06   3.7929814697866483e-06
1.4414509730678402e-05   -2.507655243434389e-06   9.988579343319466e-06
1.4414509730678402e-05   -2.507655243434389e-06   9.988579343319466e-06
1.4414509730678402e-05   -2.507655243434389e-06   9.988579343319466e-06
1.4414509730678402e-05   -2.507655243434389e-06   9.988579343319466e-06
6.641995887401672e-06   -1.7833920719358912e-06   -2.531052492576102e-06
6.641995887401672e-06   -1.7833920719358912e-06   -2.531052492576102e-06
6.641995887401672e-06   -1.7833920719358912e-06   -2.531052492576102e-06
6.641995887401672e-06   -1.7833920719358912e-06   -2.531052492576102e-06
6.297194114716113e-06   -2.5291112211019108e-06   8.883403483930189e-06
6.297194114716113e-06   -2.5291112211019108e-06   8.883403483930189e-06
6.297194114716113e-06   -2.5291112211019108e-06   8.883403483930189e-06
6.297194114716113e-06   -2.5291112211019108e-06   8.883403483930189e-06
1.3772264402338785e-05   -1.8524210734319766e-06   -3.9810610840428545e-06
1.3772264402338785e-05   -1.8524210734319766e-06   -3.9810610840428545e-06
1.3772264402338785e-05   -1.8524210734319766e-06   -3.9810610840428545e-06
1.3772264402338785e-05   -1.8524210734319766e-06   -3.9810610840428545e-06
9.85088891613654e-06   -2.0366880968677526e-06   2.6651249403559863e-06
9.85088891613654e-06   -2.0366880968677526e-06   2.6651249403559863e-06
9.85088891613654e-06   -2.0366880968677526e-06   2.6651249403559863e-06
9.85088891613654e-06   -2.0366880968677526e-06   2.6651249403559863e-06
7.351966688413624e-06   -4.054786882109031e-07   1.4868678550865799e-05
7.351966688413624e-06   -4.054786882109031e-07   1.4868678550865799e-05
7.351966688413624e-06   -4.054786882109031e-07   1.4868678550865799e-05
7.351966688413624e-06   -4.054786882109031e-07   1.4868678550865799e-05
-4.872439463615824e-07   -1.5489763222726813e-08   2.0373208478999868e-06
-4.872439463615824e-07   -1.5489763222726813e-08   2.0373208478999868e-06
-4.872439463615824e-07   -1.5489763222726813e-08   2.0373208478999868e-06
-4.872439463615824e-07   -1.5489763222726813e-08   2.0373208478999868e-06
-8.04615721687172e-07   -6.399811477383367e-07   1.4891126047586814e-05
-8.04615721687172e-07   -6.399811477383367e-07   1.4891126047586814e-05
-8.04615721687172e-07   -6.399811477383367e-07   1.4891126047586814e-05
-8.04615721687172e-07   -6.399811477383367e-07   1.4891126047586814e-05
7.01489403152639e-06   -2.710801182945243e-07   1.6372691745647293e-06
7.01489403152639e-06   -2.710801182945243e-07   1.6372691745647293e-06
7.01489403152639e-06   -2.710801182945243e-07   1.6372691745647293e-06
7.01489403152639e-06   -2.710801182945243e-07   1.6372691745647293e-06
3.215537392661721e-06   -3.42528974313968e-07   8.012399552950862e-06
3.215537392661721e-06   -3.42528974313968e-07   8.012399552950862e-06
3.215537392661721e-06   -3.42528974313968e-07   8.012399552950862e-06
3.215537392661721e-06   -3.42528974313968e-07   8.012399552950862e-06
7.014894031526359e-06   -6.399811477383367e-07   1.4669785429920678e-05
7.014894031526359e-06   -6.399811477383367e-07   1.4669785429920678e-05
7.014894031526359e-06   -6.399811477383367e-07   1.4669785429920678e-05
7.014894031526359e-06   -6.399811477383367e-07   1.4669785429920678e-05
-8.04615721687172e-07   -2.710801182945243e-07   1.8586097922309599e-06
-8.04615721687172e-07   -2.710801182945243e-07   1.8586097922309599e-06
-8.04615721687172e-07   -2.710801182945243e-07   1.8586097922309599e-06
-8.04615721687172e-07   -2.710801182945243e-07   1.8586097922309599e-06
-1.1289347558688596e-06   -8.12551200177398e-07   1.4659451875306904e-05
-1.1289347558688596e-06   -8.12551200177398e-07   1.4659451875306904e-05
-1.1289347558688596e-06   -8.12551200177398e-07   1.4659451875306904e-05
-1.1289347558688596e-06   -8.12551200177398e-07   1.4659451875306904e-05
6.641995887401672e-06   -4.7112186281643084e-07   1.5030432007728022e-06
6.641995887401672e-06   -4.7112186281643084e-07   1.5030432007728022e-06
6.641995887401672e-06   -4.7112186281643084e-07   1.5030432007728022e-06
6.641995887401672e-06   -4.7112186281643084e-07   1.5030432007728022e-06
2.8582497234122578e-06   -4.995165960896327e-07   7.826323647386278e-06
2.8582497234122578e-06   -4.995165960896327e-07   7.826323647386278e-06
2.8582497234122578e-06   -4.995165960896327e-07   7.826323647386278e-06
2.8582497234122578e-06   -4.995165960896327e-07   7.826323647386278e-06
6.6419958874016614e-06   -8.125512001772896e-07   1.4454594272890454e-05
6.6419958874016614e-06   -8.125512001772896e-07   1.4454594272890454e-05
6.6419958874016614e-06   -8.125512001772896e-07   1.4454594272890454e-05
6.6419958874016614e-06   -8.125512001772896e-07   1.4454594272890454e-05
-1.1289347558688596e-06   -4.7112186281643084e-07   1.7079008031894083e-06
-1.1289347558688596e-06   -4.7112186281643084e-07   1.7079008031894083e-06
-1.1289347558688596e-06   -4.7112186281643084e-07   1.7079008031894083e-06
-1.1289347558688596e-06   -4.7112186281643084e-07   1.7079008031894083e-06
-1.455132555173088e-06   -9.467236406953674e-07   1.4753669975144643e-05
-1.455132555173088e-06   -9.467236406953674e-07   1.4753669975144643e-05
-1.455132555173088e-06   -9.467236406953674e-07   1.4753669975144643e-05
-1.455132555173088e-06   -9.467236406953674e-07   1.4753669975144643e-05
6.2971941147161165e-06   -6.546218829881368e-07   1.6578644707050227e-06
6.2971941147161165e-06   -6.546218829881368e-07   1.6578644707050227e-06
6.2971941147161165e-06   -6.546218829881368e-07   1.6578644707050227e-06
6.2971941147161165e-06   -6.546218829881368e-07   1.6578644707050227e-06
2.587533182529026e-06   -6.14022991931619e-07   7.816273356383144e-06
2.587533182529026e-06   -6.14022991931619e-07   7.816273356383144e-06
2.587533182529026e-06   -6.14022991931619e-07   7.816273356383144e-06
2.587533182529026e-06   -6.14022991931619e-07   7.816273356383144e-06
-4.872439463615892e-07   1.300330610459234e-06   1.5723356624990103e-05
-4.872439463615892e-07   1.300330610459234e-06   1.5723356624990103e-05
-4.872439463615892e-07   1.300330610459234e-06   1.5723356624990103e-05
-4.872439463615892e-07   1.300330610459234e-06   1.5723356624990103e-05
-8.161791974846644e-06   1.3416284708870664e-06   2.9572219604383568e-06
-8.161791974846644e-06   1.3416284708870664e-06   2.9572219604383568e-06
-8.161791974846644e-06   1.3416284708870664e-06   2.9572219604383568e-06
-8.161791974846644e-06   1.3416284708870664e-06   2.9572219604383568e-06
-8.481352667994799e-06   1.1070762591974988e-06   1.5675926202744967e-05
-8.481352667994799e-06   1.1070762591974988e-06   1.5675926202744967e-05
-8.481352667994799e-06   1.1070762591974988e-06   1.5675926202744967e-05
-8.481352667994799e-06   1.1070762591974988e-06   1.5675926202744967e-05
-8.046157216871788e-07   1.1186430194082666e-06   2.8744245694393116e-06
-8.046157216871788e-07   1.1186430194082666e-06   2.8744245694393116e-06
-8.046157216871788e-07   1.1186430194082666e-06   2.8744245694393116e-06
-8.046157216871788e-07   1.1186430194082666e-06   2.8744245694393116e-06
-4.495283783909593e-06   1.1946932961003683e-06   8.979907840461372e-06
-4.495283783909593e-06   1.1946932961003683e-06   8.979907840461372e-06
-4.495283783909593e-06   1.1946932961003683e-06   8.979907840461372e-06
-4.495283783909593e-06   1.1946932961003683e-06   8.979907840461372e-06
-8.046157216871788e-07   1.1070762591974988e-06   1.5668986146618723e-05
-8.046157216871788e-07   1.1070762591974988e-06   1.5668986146618723e-05
-8.046157216871788e-07   1.1070762591974988e-06   1.5668986146618723e-05
-8.046157216871788e-07   1.1070762591974988e-06   1.5668986146618723e-05
-8.481352667994799e-06   1.1186430194082666e-06   2.8813646255656774e-06
-8.481352667994799e-06   1.1186430194082666e-06   2.8813646255656774e-06
-8.481352667994799e-06   1.1186430194082666e-06   2.8813646255656774e-06
-8.481352667994799e-06   1.1186430194082666e-06   2.8813646255656774e-06
-8.808632125863468e-06   9.195115234414929e-07   1.5757868976415813e-05
-8.808632125863468e-06   9.195115234414929e-07   1.5757868976415813e-05
-8.808632125863468e-06   9.195115234414929e-07   1.5757868976415813e-05
-8.808632125863468e-06   9.195115234414929e-07   1.5757868976415813e-05
-1.1289347558688664e-06   8.992712302282246e-07   2.9705175356860395e-06
-1.1289347558688664e-06   8.992712302282246e-07   2.9705175356860395e-06
-1.1289347558688664e-06   8.992712302282246e-07   2.9705175356860395e-06
-1.1289347558688664e-06   8.992712302282246e-07   2.9705175356860395e-06
-4.791543484790313e-06   1.045472807859136e-06   8.987144470643524e-06
-4.791543484790313e-06   1.045472807859136e-06   8.987144470643524e-06
-4.791543484790313e-06   1.045472807859136e-06   8.987144470643524e-06
-4.791543484790313e-06   1.045472807859136e-06   8.987144470643524e-06
-1.1289347558688664e-06   9.195115234414929e-07   1.5770013152343818e-05
-1.1289347558688664e-06   9.195115234414929e-07   1.5770013152343818e-05
-1.1289347558688664e-06   9.195115234414929e-07   1.5770013152343818e-05
-1.1289347558688664e-06   9.195115234414929e-07   1.5770013152343818e-05
-8.808632125863482e-06   8.992712302282246e-07   2.958373359758157e-06
-8.808632125863482e-06   8.992712302282246e-07   2.958373359758157e-06
-8.808632125863482e-06   8.992712302282246e-07   2.958373359758157e-06
-8.808632125863482e-06   8.992712302282246e-07   2.958373359758157e-06
-9.135542458289767e-06   7.526747480328605e-07   1.5948082955541203e-05
-9.135542458289767e-06   7.526747480328605e-07   1.5948082955541203e-05
-9.135542458289767e-06   7.526747480328605e-07   1.5948082955541203e-05
-9.135542458289767e-06   7.526747480328605e-07   1.5948082955541203e-05
-1.455132555173088e-06   6.912291008451038e-07   3.18426717199277e-06
-1.455132555173088e-06   6.912291008451038e-07   3.18426717199277e-06
-1.455132555173088e-06   6.912291008451038e-07   3.18426717199277e-06
-1.455132555173088e-06   6.912291008451038e-07   3.18426717199277e-06
-5.101921363162849e-06   9.002700719674701e-07   9.136823935969245e-06
-5.101921363162849e-06   9.002700719674701e-07   9.136823935969245e-06
-5.101921363162849e-06   9.002700719674701e-07   9.136823935969245e-06
-5.101921363162849e-06   9.002700719674701e-07   9.136823935969245e-06
-8.16179197484663e-06   2.9624401637349043e-06   1.3854635271083019e-05
-8.16179197484663e-06   2.9624401637349043e-06   1.3854635271083019e-05
-8.16179197484663e-06   2.9624401637349043e-06   1.3854635271083019e-05
-8.16179197484663e-06   2.9624401637349043e-06   1.3854635271083019e-05
-1.568043157851644e-05   2.649897890122355e-06   1.1360439007991174e-06
-1.568043157851644e-05   2.649897890122355e-06   1.1360439007991174e-06
-1.568043157851644e-05   2.649897890122355e-06   1.1360439007991174e-06
-1.568043157851644e-05   2.649897890122355e-06   1.1360439007991174e-06
-1.6024692308632684e-05   2.779569865114795e-06   1.3768879160091672e-05
-1.6024692308632684e-05   2.779569865114795e-06   1.3768879160091672e-05
-1.6024692308632684e-05   2.779569865114795e-06   1.3768879160091672e-05
-1.6024692308632684e-05   2.779569865114795e-06   1.3768879160091672e-05
-8.481352667994812e-06   2.437725701178394e-06   1.4017529240569187e-06
-8.481352667994812e-06   2.437725701178394e-06   1.4017529240569187e-06
-8.481352667994812e-06   2.437725701178394e-06   1.4017529240569187e-06
-8.481352667994812e-06   2.437725701178394e-06   1.4017529240569187e-06
-1.2046759760709437e-05   2.670423863514789e-06   7.204479181179539e-06
-1.2046759760709437e-05   2.670423863514789e-06   7.204479181179539e-06
-1.2046759760709437e-05   2.670423863514789e-06   7.204479181179539e-06
-1.2046759760709437e-05   2.670423863514789e-06   7.204479181179539e-06
-8.481352667994799e-06   2.779569865114795e-06   1.3973985658453317e-05
-8.481352667994799e-06   2.779569865114795e-06   1.3973985658453317e-05
-8.481352667994799e-06   2.779569865114795e-06   1.3973985658453317e-05
-8.481352667994799e-06   2.779569865114795e-06   1.3973985658453317e-05
-1.6024692308632657e-05   2.4377257011785024e-06   1.1966464256951107e-06
-1.6024692308632657e-05   2.4377257011785024e-06   1.1966464256951107e-06
-1.6024692308632657e-05   2.4377257011785024e-06   1.1966464256951107e-06
-1.6024692308632657e-05   2.4377257011785024e-06   1.1966464256951107e-06
-1.6403019208333788e-05   2.609544891327576e-06   1.4286712854812145e-05
-1.6403019208333788e-05   2.609544891327576e-06   1.4286712854812145e-05
-1.6403019208333788e-05   2.609544891327576e-06   1.4286712854812145e-05
-1.6403019208333788e-05   2.609544891327576e-06   1.4286712854812145e-05
-8.808632125863482e-06   2.238744920256882e-06   1.8518810333374648e-06
-8.808632125863482e-06   2.238744920256882e-06   1.8518810333374648e-06
-8.808632125863482e-06   2.238744920256882e-06   1.8518810333374648e-06
-8.808632125863482e-06   2.238744920256882e-06   1.8518810333374648e-06
-1.2291126177580091e-05   2.535552929120149e-06   7.477952980880877e-06
-1.2291126177580091e-05   2.535552929120149e-06   7.477952980880877e-06
-1.2291126177580091e-05   2.535552929120149e-06   7.477952980880877e-06
-1.2291126177580091e-05   2.535552929120149e-06   7.477952980880877e-06
-8.808632125863482e-06   2.609544891327576e-06   1.450919283745467e-05
-8.808632125863482e-06   2.609544891327576e-06   1.450919283745467e-05
-8.808632125863482e-06   2.609544891327576e-06   1.450919283745467e-05
-8.808632125863482e-06   2.609544891327576e-06   1.450919283745467e-05
-1.640301920833376e-05   2.238744920256882e-06   1.62940105069494e-06
-1.640301920833376e-05   2.238744920256882e-06   1.62940105069494e-06
-1.640301920833376e-05   2.238744920256882e-06   1.62940105069494e-06
-1.640301920833376e-05   2.238744920256882e-06   1.62940105069494e-06
-1.674817393405681e-05   2.400598915495056e-06   1.4670823435180115e-05
-1.674817393405681e-05   2.400598915495056e-06   1.4670823435180115e-05
-1.674817393405681e-05   2.400598915495056e-06   1.4670823435180115e-05
-1.674817393405681e-05   2.400598915495056e-06   1.4670823435180115e-05
-9.135542458289794e-06   2.005846001401331e-06   2.219956057358146e-06
-9.135542458289794e-06   2.005846001401331e-06   2.219956057358146e-06
-9.135542458289794e-06   2.005846001401331e-06   2.219956057358146e-06
-9.135542458289794e-06   2.005846001401331e-06   2.219956057358146e-06
-1.2685605275926681e-05   2.381992529201381e-06   7.911039503406852e-06
-1.2685605275926681e-05   2.381992529201381e-06   7.911039503406852e-06
-1.2685605275926681e-05   2.381992529201381e-06   7.911039503406852e-06
-1.2685605275926681e-05   2.381992529201381e-06   7.911039503406852e-06
-1.568043157851644e-05   4.2815755704893495e-06   6.721622451021721e-06
-1.568043157851644e-05   4.2815755704893495e-06   6.721622451021721e-06
-1.568043157851644e-05   4.2815755704893495e-06   6.721622451021721e-06
-1.568043157851644e-05   4.2815755704893495e-06   6.721622451021721e-06
-2.2851404665735195e-05   3.6688806274977554e-06   -5.597616326804568e-06
-2.2851404665735195e-05   3.6688806274977554e-06   -5.597616326804568e-06
-2.2851404665735195e-05   3.6688806274977554e-06   -5.597616326804568e-06
-2.2851404665735195e-05   3.6688806274977554e-06   -5.597616326804568e-06
-2.347163944356947e-05   4.332255303128693e-06   8.968659282613894e-06
-2.347163944356947e-05   4.332255303128693e-06   8.968659282613894e-06
-2.347163944356947e-05   4.332255303128693e-06   8.968659282613894e-06
-2.347163944356947e-05   4.332255303128693e-06   8.968659282613894e-06
-1.6024692308632684e-05   3.655501347790517e-06   -3.036866902411228e-06
-1.6024692308632684e-05   3.655501347790517e-06   -3.036866902411228e-06
-1.6024692308632684e-05   3.655501347790517e-06   -3.036866902411228e-06
-1.6024692308632684e-05   3.655501347790517e-06   -3.036866902411228e-06
-1.8764157144527065e-05   3.924228445036093e-06   1.3676715657319548e-06
-1.8764157144527065e-05   3.924228445036093e-06   1.3676715657319548e-06
-1.8764157144527065e-05   3.924228445036093e-06   1.3676715657319548e-06
-1.8764157144527065e-05   3.924228445036093e-06   1.3676715657319548e-06
-1.602469230863267e-05   4.332255303128693e-06   9.374711655816778e-06
-1.602469230863267e-05   4.332255303128693e-06   9.374711655816778e-06
-1.602469230863267e-05   4.332255303128693e-06   9.374711655816778e-06
-1.602469230863267e-05   4.332255303128693e-06   9.374711655816778e-06
-2.3471639443569525e-05   3.6555013477904087e-06   -3.4429192756142745e-06
-2.3471639443569525e-05   3.6555013477904087e-06   -3.4429192756142745e-06
-2.3471639443569525e-05   3.6555013477904087e-06   -3.4429192756142745e-06
-2.3471639443569525e-05   3.6555013477904087e-06   -3.4429192756142745e-06
-2.4025540135479747e-05   4.286050138959546e-06   1.0770328615640565e-05
-2.4025540135479747e-05   4.286050138959546e-06   1.0770328615640565e-05
-2.4025540135479747e-05   4.286050138959546e-06   1.0770328615640565e-05
-2.4025540135479747e-05   4.286050138959546e-06   1.0770328615640565e-05
-1.6403019208333788e-05   3.582660133789016e-06   -1.511838926500391e-06
-1.6403019208333788e-05   3.582660133789016e-06   -1.511838926500391e-06
-1.6403019208333788e-05   3.582660133789016e-06   -1.511838926500391e-06
-1.6403019208333788e-05   3.582660133789016e-06   -1.511838926500391e-06
-1.9484111281010318e-05   3.96937535132591e-06   3.391285397439021e-06
-1.9484111281010318e-05   3.96937535132591e-06   3.391285397439021e-06
-1.9484111281010318e-05   3.96937535132591e-06   3.391285397439021e-06
-1.9484111281010318e-05   3.96937535132591e-06   3.391285397439021e-06
-1.6403019208333788e-05   4.286050138959654e-06   1.1192362618743013e-05
-1.6403019208333788e-05   4.286050138959654e-06   1.1192362618743013e-05
-1.6403019208333788e-05   4.286050138959654e-06   1.1192362618743013e-05
-1.6403019208333788e-05   4.286050138959654e-06   1.1192362618743013e-05
-2.40255401354798e-05   3.582660133789016e-06   -1.9338729296027577e-06
-2.40255401354798e-05   3.582660133789016e-06   -1.9338729296027577e-06
-2.40255401354798e-05   3.582660133789016e-06   -1.9338729296027577e-06
-2.40255401354798e-05   3.582660133789016e-06   -1.9338729296027577e-06
-2.4660631522984986e-05   3.95931365852341e-06   1.3863480799029305e-05
-2.4660631522984986e-05   3.95931365852341e-06   1.3863480799029305e-05
-2.4660631522984986e-05   3.95931365852341e-06   1.3863480799029305e-05
-2.4660631522984986e-05   3.95931365852341e-06   1.3863480799029305e-05
-1.674817393405681e-05   3.257378590725609e-06   1.0972125248274415e-06
-1.674817393405681e-05   3.257378590725609e-06   1.0972125248274415e-06
-1.674817393405681e-05   3.257378590725609e-06   1.0972125248274415e-06
-1.674817393405681e-05   3.257378590725609e-06   1.0972125248274415e-06
-1.9626577019446924e-05   3.834034976168098e-06   5.548557169212645e-06
-1.9626577019446924e-05   3.834034976168098e-06   5.548557169212645e-06
-1.9626577019446924e-05   3.834034976168098e-06   5.548557169212645e-06
-1.9626577019446924e-05   3.834034976168098e-06   5.548557169212645e-06
1.0896994852302025e-05   -1.4097253803179452e-06   1.0799861460328015e-05
1.0896994852302025e-05   -1.4097253803179452e-06   1.0799861460328015e-05
1.0896994852302025e-05   -1.4097253803179452e-06   1.0799861460328015e-05
1.0896994852302025e-05   -1.4097253803179452e-06   1.0799861460328015e-05
4.529173031690928e-06   -7.103119655762135e-07   6.064731414879578e-07
4.529173031690928e-06   -7.103119655762135e-07   6.064731414879578e-07
4.529173031690928e-06   -7.103119655762135e-07   6.064731414879578e-07
4.529173031690928e-06   -7.103119655762135e-07   6.064731414879578e-07
4.256539559857813e-06   -1.705287478916389e-06   9.696035673455248e-06
4.256539559857813e-06   -1.705287478916389e-06   9.696035673455248e-06
4.256539559857813e-06   -1.705287478916389e-06   9.696035673455248e-06
4.256539559857813e-06   -1.705287478916389e-06   9.696035673455248e-06
1.031469537938513e-05   -9.76573240950556e-07   -8.38119235203072e-07
1.031469537938513e-05   -9.76573240950556e-07   -8.38119235203072e-07
1.031469537938513e-05   -9.76573240950556e-07   -8.38119235203072e-07
1.031469537938513e-05   -9.76573240950556e-07   -8.38119235203072e-07
7.127063241182802e-06   -1.2281835717409609e-06   4.6255671936085975e-06
7.127063241182802e-06   -1.2281835717409609e-06   4.6255671936085975e-06
7.127063241182802e-06   -1.2281835717409609e-06   4.6255671936085975e-06
7.127063241182802e-06   -1.2281835717409609e-06   4.6255671936085975e-06
1.0314695379385147e-05   -1.705287478916389e-06   9.258807130675824e-06
1.0314695379385147e-05   -1.705287478916389e-06   9.258807130675824e-06
1.0314695379385147e-05   -1.705287478916389e-06   9.258807130675824e-06
1.0314695379385147e-05   -1.705287478916389e-06   9.258807130675824e-06
4.256539559857798e-06   -9.76573240950556e-07   -4.008906924235804e-07
4.256539559857798e-06   -9.76573240950556e-07   -4.008906924235804e-07
4.256539559857798e-06   -9.76573240950556e-07   -4.008906924235804e-07
4.256539559857798e-06   -9.76573240950556e-07   -4.008906924235804e-07
3.949365211117918e-06   -1.7833920719358912e-06   8.878199890765106e-06
3.949365211117918e-06   -1.7833920719358912e-06   8.878199890765106e-06
3.949365211117918e-06   -1.7833920719358912e-06   8.878199890765106e-06
3.949365211117918e-06   -1.7833920719358912e-06   8.878199890765106e-06
9.8138390483737e-06   -1.0672231855635584e-06   -1.3256245031513658e-06
9.8138390483737e-06   -1.0672231855635584e-06   -1.3256245031513658e-06
9.8138390483737e-06   -1.0672231855635584e-06   -1.3256245031513658e-06
9.8138390483737e-06   -1.0672231855635584e-06   -1.3256245031513658e-06
6.872819002489245e-06   -1.341481106567101e-06   3.7406303259252065e-06
6.872819002489245e-06   -1.341481106567101e-06   3.7406303259252065e-06
6.872819002489245e-06   -1.341481106567101e-06   3.7406303259252065e-06
6.872819002489245e-06   -1.341481106567101e-06   3.7406303259252065e-06
9.813839048373717e-06   -1.7833920719358912e-06   8.448498558941673e-06
9.813839048373717e-06   -1.7833920719358912e-06   8.448498558941673e-06
9.813839048373717e-06   -1.7833920719358912e-06   8.448498558941673e-06
9.813839048373717e-06   -1.7833920719358912e-06   8.448498558941673e-06
3.949365211117911e-06   -1.0672231855635584e-06   -8.959231713278996e-07
3.949365211117911e-06   -1.0672231855635584e-06   -8.959231713278996e-07
3.949365211117911e-06   -1.0672231855635584e-06   -8.959231713278996e-07
3.949365211117911e-06   -1.0672231855635584e-06   -8.959231713278996e-07
3.673606127867497e-06   -1.8524210734319766e-06   7.808762546394617e-06
3.673606127867497e-06   -1.8524210734319766e-06   7.808762546394617e-06
3.673606127867497e-06   -1.8524210734319766e-06   7.808762546394617e-06
3.673606127867497e-06   -1.8524210734319766e-06   7.808762546394617e-06
9.244075892113288e-06   -1.1838088907488485e-06   -1.8765210369581944e-06
9.244075892113288e-06   -1.1838088907488485e-06   -1.8765210369581944e-06
9.244075892113288e-06   -1.1838088907488485e-06   -1.8765210369581944e-06
9.244075892113288e-06   -1.1838088907488485e-06   -1.8765210369581944e-06
6.3874813593869315e-06   -1.3614609477685235e-06   2.9910610851307863e-06
6.3874813593869315e-06   -1.3614609477685235e-06   2.9910610851307863e-06
6.3874813593869315e-06   -1.3614609477685235e-06   2.9910610851307863e-06
6.3874813593869315e-06   -1.3614609477685235e-06   2.9910610851307863e-06
4.529173031690943e-06   -1.5489763222835233e-08   1.325298104154298e-05
4.529173031690943e-06   -1.5489763222835233e-08   1.325298104154298e-05
4.529173031690943e-06   -1.5489763222835233e-08   1.325298104154298e-05
4.529173031690943e-06   -1.5489763222835233e-08   1.325298104154298e-05
-1.437338244459595e-06   3.4236274981495896e-07   3.523507089114744e-06
-1.437338244459595e-06   3.4236274981495896e-07   3.523507089114744e-06
-1.437338244459595e-06   3.4236274981495896e-07   3.523507089114744e-06
-1.437338244459595e-06   3.4236274981495896e-07   3.523507089114744e-06
-1.6882729762041966e-06   -2.710801182945243e-07   1.3274969250249907e-05
-1.6882729762041966e-06   -2.710801182945243e-07   1.3274969250249907e-05
-1.6882729762041966e-06   -2.710801182945243e-07   1.3274969250249907e-05
-1.6882729762041966e-06   -2.710801182945243e-07   1.3274969250249907e-05
4.256539559857798e-06   7.459931698880398e-08   3.1595406956432994e-06
4.256539559857798e-06   7.459931698880398e-08   3.1595406956432994e-06
4.256539559857798e-06   7.459931698880398e-08   3.1595406956432994e-06
4.256539559857798e-06   7.459931698880398e-08   3.1595406956432994e-06
1.3721623778226947e-06   9.170927388270529e-09   8.00609303279565e-06
1.3721623778226947e-06   9.170927388270529e-09   8.00609303279565e-06
1.3721623778226947e-06   9.170927388270529e-09   8.00609303279565e-06
1.3721623778226947e-06   9.170927388270529e-09   8.00609303279565e-06
4.25653955985781e-06   -2.710801182946327e-07   1.3067561589079997e-05
4.25653955985781e-06   -2.710801182946327e-07   1.3067561589079997e-05
4.25653955985781e-06   -2.710801182946327e-07   1.3067561589079997e-05
4.25653955985781e-06   -2.710801182946327e-07   1.3067561589079997e-05
-1.6882729762041966e-06   7.459931698869555e-08   3.366948356813308e-06
-1.6882729762041966e-06   7.459931698869555e-08   3.366948356813308e-06
-1.6882729762041966e-06   7.459931698869555e-08   3.366948356813308e-06
-1.6882729762041966e-06   7.459931698869555e-08   3.366948356813308e-06
-1.94505277856488e-06   -4.7112186281643084e-07   1.3109073772547125e-05
-1.94505277856488e-06   -4.7112186281643084e-07   1.3109073772547125e-05
-1.94505277856488e-06   -4.7112186281643084e-07   1.3109073772547125e-05
-1.94505277856488e-06   -4.7112186281643084e-07   1.3109073772547125e-05
3.949365211117911e-06   -1.4315821542792984e-07   3.0882656013094175e-06
3.949365211117911e-06   -1.4315821542792984e-07   3.0882656013094175e-06
3.949365211117911e-06   -1.4315821542792984e-07   3.0882656013094175e-06
3.949365211117911e-06   -1.4315821542792984e-07   3.0882656013094175e-06
1.0953030312014753e-06   -1.6861761698526694e-07   7.860311542104969e-06
1.0953030312014753e-06   -1.6861761698526694e-07   7.860311542104969e-06
1.0953030312014753e-06   -1.6861761698526694e-07   7.860311542104969e-06
1.0953030312014753e-06   -1.6861761698526694e-07   7.860311542104969e-06
3.949365211117925e-06   -4.7112186281643084e-07   1.2912295584114003e-05
3.949365211117925e-06   -4.7112186281643084e-07   1.2912295584114003e-05
3.949365211117925e-06   -4.7112186281643084e-07   1.2912295584114003e-05
3.949365211117925e-06   -4.7112186281643084e-07   1.2912295584114003e-05
-1.94505277856488e-06   -1.4315821542792984e-07   3.2850437897425093e-06
-1.94505277856488e-06   -1.4315821542792984e-07   3.2850437897425093e-06
-1.94505277856488e-06   -1.4315821542792984e-07   3.2850437897425093e-06
-1.94505277856488e-06   -1.4315821542792984e-07   3.2850437897425093e-06
-2.199840450734483e-06   -6.546218829881368e-07   1.3220821611930494e-05
-2.199840450734483e-06   -6.546218829881368e-07   1.3220821611930494e-05
-2.199840450734483e-06   -6.546218829881368e-07   1.3220821611930494e-05
-2.199840450734483e-06   -6.546218829881368e-07   1.3220821611930494e-05
3.67360612786748e-06   -3.560425506713956e-07   3.25259638153713e-06
3.67360612786748e-06   -3.560425506713956e-07   3.25259638153713e-06
3.67360612786748e-06   -3.560425506713956e-07   3.25259638153713e-06
3.67360612786748e-06   -3.560425506713956e-07   3.25259638153713e-06
8.781658832971183e-07   -3.1522102501466923e-07   7.887170540427043e-06
8.781658832971183e-07   -3.1522102501466923e-07   7.887170540427043e-06
8.781658832971183e-07   -3.1522102501466923e-07   7.887170540427043e-06
8.781658832971183e-07   -3.1522102501466923e-07   7.887170540427043e-06
-1.437338244459595e-06   1.3416284708870664e-06   1.4362814945647283e-05
-1.437338244459595e-06   1.3416284708870664e-06   1.4362814945647283e-05
-1.437338244459595e-06   1.3416284708870664e-06   1.4362814945647283e-05
-1.437338244459595e-06   1.3416284708870664e-06   1.4362814945647283e-05
-7.302173363674726e-06   1.3248599548047702e-06   4.578028637305942e-06
-7.302173363674726e-06   1.3248599548047702e-06   4.578028637305942e-06
-7.302173363674726e-06   1.3248599548047702e-06   4.578028637305942e-06
-7.302173363674726e-06   1.3248599548047702e-06   4.578028637305942e-06
-7.5502146571940725e-06   1.1186430194082666e-06   1.426942363659024e-05
-7.5502146571940725e-06   1.1186430194082666e-06   1.426942363659024e-05
-7.5502146571940725e-06   1.1186430194082666e-06   1.426942363659024e-05
-7.5502146571940725e-06   1.1186430194082666e-06   1.426942363659024e-05
-1.6882729762041898e-06   1.0830423679617082e-06   4.520881225808461e-06
-1.6882729762041898e-06   1.0830423679617082e-06   4.520881225808461e-06
-1.6882729762041898e-06   1.0830423679617082e-06   4.520881225808461e-06
-1.6882729762041898e-06   1.0830423679617082e-06   4.520881225808461e-06
-4.505856386469519e-06   1.185865031052549e-06   9.155159978396432e-06
-4.505856386469519e-06   1.185865031052549e-06   9.155159978396432e-06
-4.505856386469519e-06   1.185865031052549e-06   9.155159978396432e-06
-4.505856386469519e-06   1.185865031052549e-06   9.155159978396432e-06
-1.6882729762041966e-06   1.1186430194082666e-06   1.4290784027458272e-05
-1.6882729762041966e-06   1.1186430194082666e-06   1.4290784027458272e-05
-1.6882729762041966e-06   1.1186430194082666e-06   1.4290784027458272e-05
-1.6882729762041966e-06   1.1186430194082666e-06   1.4290784027458272e-05
-7.5502146571940725e-06   1.0830423679617082e-06   4.4995208349404825e-06
-7.5502146571940725e-06   1.0830423679617082e-06   4.4995208349404825e-06
-7.5502146571940725e-06   1.0830423679617082e-06   4.4995208349404825e-06
-7.5502146571940725e-06   1.0830423679617082e-06   4.4995208349404825e-06
-7.804030401987197e-06   8.992712302282246e-07   1.433855538422648e-05
-7.804030401987197e-06   8.992712302282246e-07   1.433855538422648e-05
-7.804030401987197e-06   8.992712302282246e-07   1.433855538422648e-05
-7.804030401987197e-06   8.992712302282246e-07   1.433855538422648e-05
-1.94505277856488e-06   8.440460288662186e-07   4.606727799340003e-06
-1.94505277856488e-06   8.440460288662186e-07   4.606727799340003e-06
-1.94505277856488e-06   8.440460288662186e-07   4.606727799340003e-06
-1.94505277856488e-06   8.440460288662186e-07   4.606727799340003e-06
-4.732551461954167e-06   1.0109881800657349e-06   9.15239364760263e-06
-4.732551461954167e-06   1.0109881800657349e-06   9.15239364760263e-06
-4.732551461954167e-06   1.0109881800657349e-06   9.15239364760263e-06
-4.732551461954167e-06   1.0109881800657349e-06   9.15239364760263e-06
-1.94505277856488e-06   8.992712302282246e-07   1.437169050504377e-05
-1.94505277856488e-06   8.992712302282246e-07   1.437169050504377e-05
-1.94505277856488e-06   8.992712302282246e-07   1.437169050504377e-05
-1.94505277856488e-06   8.992712302282246e-07   1.437169050504377e-05
-7.804030401987197e-06   8.440460288662186e-07   4.573592678522754e-06
-7.804030401987197e-06   8.440460288662186e-07   4.573592678522754e-06
-7.804030401987197e-06   8.440460288662186e-07   4.573592678522754e-06
-7.804030401987197e-06   8.440460288662186e-07   4.573592678522754e-06
-8.054700573789249e-06   6.912291008451038e-07   1.452572927646814e-05
-8.054700573789249e-06   6.912291008451038e-07   1.452572927646814e-05
-8.054700573789249e-06   6.912291008451038e-07   1.452572927646814e-05
-8.054700573789249e-06   6.912291008451038e-07   1.452572927646814e-05
-2.1998404507344695e-06   6.141724639685802e-07   4.813863053502738e-06
-2.1998404507344695e-06   6.141724639685802e-07   4.813863053502738e-06
-2.1998404507344695e-06   6.141724639685802e-07   4.813863053502738e-06
-2.1998404507344695e-06   6.141724639685802e-07   4.813863053502738e-06
-4.969915698821611e-06   8.403908712917123e-07   9.29492408925402e-06
-4.969915698821611e-06   8.403908712917123e-07   9.29492408925402e-06
-4.969915698821611e-06   8.403908712917123e-07   9.29492408925402e-06
-4.969915698821611e-06   8.403908712917123e-07   9.29492408925402e-06
-7.302173363674726e-06   2.649897890122355e-06   1.2719101140526033e-05
-7.302173363674726e-06   2.649897890122355e-06   1.2719101140526033e-05
-7.302173363674726e-06   2.649897890122355e-06   1.2719101140526033e-05
-7.302173363674726e-06   2.649897890122355e-06   1.2719101140526033e-05
-1.3078366577042063e-05   2.2818197208969828e-06   2.871265550045271e-06
-1.3078366577042063e-05   2.2818197208969828e-06   2.871265550045271e-06
-1.3078366577042063e-05   2.2818197208969828e-06   2.871265550045271e-06
-1.3078366577042063e-05   2.2818197208969828e-06   2.871265550045271e-06
-1.334499623832755e-05   2.437725701178394e-06   1.2555156769837377e-05
-1.334499623832755e-05   2.437725701178394e-06   1.2555156769837377e-05
-1.334499623832755e-05   2.437725701178394e-06   1.2555156769837377e-05
-1.334499623832755e-05   2.437725701178394e-06   1.2555156769837377e-05
-7.550214657194032e-06   2.046633759105105e-06   3.1318426331923555e-06
-7.550214657194032e-06   2.046633759105105e-06   3.1318426331923555e-06
-7.550214657194032e-06   2.046633759105105e-06   3.1318426331923555e-06
-7.550214657194032e-06   2.046633759105105e-06   3.1318426331923555e-06
-1.0289452438454942e-05   2.3123793685597607e-06   7.537791569621325e-06
-1.0289452438454942e-05   2.3123793685597607e-06   7.537791569621325e-06
-1.0289452438454942e-05   2.3123793685597607e-06   7.537791569621325e-06
-1.0289452438454942e-05   2.3123793685597607e-06   7.537791569621325e-06
-7.5502146571940725e-06   2.4377257011785024e-06   1.2789811935081481e-05
-7.5502146571940725e-06   2.4377257011785024e-06   1.2789811935081481e-05
-7.5502146571940725e-06   2.4377257011785024e-06   1.2789811935081481e-05
-7.5502146571940725e-06   2.4377257011785024e-06   1.2789811935081481e-05
-1.3344996238327523e-05   2.0466337591052135e-06   2.8971874679483605e-06
-1.3344996238327523e-05   2.0466337591052135e-06   2.8971874679483605e-06
-1.3344996238327523e-05   2.0466337591052135e-06   2.8971874679483605e-06
-1.3344996238327523e-05   2.0466337591052135e-06   2.8971874679483605e-06
-1.3644551777735055e-05   2.238744920256882e-06   1.2985562254416716e-05
-1.3644551777735055e-05   2.238744920256882e-06   1.2985562254416716e-05
-1.3644551777735055e-05   2.238744920256882e-06   1.2985562254416716e-05
-1.3644551777735055e-05   2.238744920256882e-06   1.2985562254416716e-05
-7.804030401987157e-06   1.8279102479415096e-06   3.4978607648928587e-06
-7.804030401987157e-06   1.8279102479415096e-06   3.4978607648928587e-06
-7.804030401987157e-06   1.8279102479415096e-06   3.4978607648928587e-06
-7.804030401987157e-06   1.8279102479415096e-06   3.4978607648928587e-06
-1.0471847177796572e-05   2.1526493555307745e-06   7.749378593355216e-06
-1.0471847177796572e-05   2.1526493555307745e-06   7.749378593355216e-06
-1.0471847177796572e-05   2.1526493555307745e-06   7.749378593355216e-06
-1.0471847177796572e-05   2.1526493555307745e-06   7.749378593355216e-06
-7.804030401987184e-06   2.238744920256882e-06   1.3232063057805842e-05
-7.804030401987184e-06   2.238744920256882e-06   1.3232063057805842e-05
-7.804030401987184e-06   2.238744920256882e-06   1.3232063057805842e-05
-7.804030401987184e-06   2.238744920256882e-06   1.3232063057805842e-05
-1.3644551777735028e-05   1.8279102479415096e-06   3.2513599615037058e-06
-1.3644551777735028e-05   1.8279102479415096e-06   3.2513599615037058e-06
-1.3644551777735028e-05   1.8279102479415096e-06   3.2513599615037058e-06
-1.3644551777735028e-05   1.8279102479415096e-06   3.2513599615037058e-06
-1.391005927465793e-05   2.005846001401331e-06   1.334416650368897e-05
-1.391005927465793e-05   2.005846001401331e-06   1.334416650368897e-05
-1.391005927465793e-05   2.005846001401331e-06   1.334416650368897e-05
-1.391005927465793e-05   2.005846001401331e-06   1.334416650368897e-05
-8.054700573789222e-06   1.5823142573062393e-06   3.839354382031697e-06
-8.054700573789222e-06   1.5823142573062393e-06   3.839354382031697e-06
-8.054700573789222e-06   1.5823142573062393e-06   3.839354382031697e-06
-8.054700573789222e-06   1.5823142573062393e-06   3.839354382031697e-06
-1.0773369280937447e-05   1.983282895217666e-06   8.129887711198769e-06
-1.0773369280937447e-05   1.983282895217666e-06   8.129887711198769e-06
-1.0773369280937447e-05   1.983282895217666e-06   8.129887711198769e-06
-1.0773369280937447e-05   1.983282895217666e-06   8.129887711198769e-06
-1.3078366577042063e-05   3.6688806274977554e-06   6.132210977182232e-06
-1.3078366577042063e-05   3.6688806274977554e-06   6.132210977182232e-06
-1.3078366577042063e-05   3.6688806274977554e-06   6.132210977182232e-06
-1.3078366577042063e-05   3.6688806274977554e-06   6.132210977182232e-06
-1.8523798692437462e-05   3.00922340352853e-06   -3.3393035495249965e-06
-1.8523798692437462e-05   3.00922340352853e-06   -3.3393035495249965e-06
-1.8523798692437462e-05   3.00922340352853e-06   -3.3393035495249965e-06
-1.8523798692437462e-05   3.00922340352853e-06   -3.3393035495249965e-06
-1.9083406167450022e-05   3.6555013477904087e-06   7.890298204347806e-06
-1.9083406167450022e-05   3.6555013477904087e-06   7.890298204347806e-06
-1.9083406167450022e-05   3.6555013477904087e-06   7.890298204347806e-06
-1.9083406167450022e-05   3.6555013477904087e-06   7.890298204347806e-06
-1.334499623832751e-05   2.9365926188185338e-06   -1.2423731068064768e-06
-1.334499623832751e-05   2.9365926188185338e-06   -1.2423731068064768e-06
-1.334499623832751e-05   2.9365926188185338e-06   -1.2423731068064768e-06
-1.334499623832751e-05   2.9365926188185338e-06   -1.2423731068064768e-06
-1.5406995029589195e-05   3.2553432806801084e-06   2.003041148179659e-06
-1.5406995029589195e-05   3.2553432806801084e-06   2.003041148179659e-06
-1.5406995029589195e-05   3.2553432806801084e-06   2.003041148179659e-06
-1.5406995029589195e-05   3.2553432806801084e-06   2.003041148179659e-06
-1.3344996238327537e-05   3.6555013477904087e-06   8.321643441731093e-06
-1.3344996238327537e-05   3.6555013477904087e-06   8.321643441731093e-06
-1.3344996238327537e-05   3.6555013477904087e-06   8.321643441731093e-06
-1.3344996238327537e-05   3.6555013477904087e-06   8.321643441731093e-06
-1.908340616745005e-05   2.9365926188184253e-06   -1.6737183441896289e-06
-1.908340616745005e-05   2.9365926188184253e-06   -1.6737183441896289e-06
-1.908340616745005e-05   2.9365926188184253e-06   -1.6737183441896289e-06
-1.908340616745005e-05   2.9365926188184253e-06   -1.6737183441896289e-06
-1.9570241757810173e-05   3.5826601337891244e-06   9.400899503323725e-06
-1.9570241757810173e-05   3.5826601337891244e-06   9.400899503323725e-06
-1.9570241757810173e-05   3.5826601337891244e-06   9.400899503323725e-06
-1.9570241757810173e-05   3.5826601337891244e-06   9.400899503323725e-06
-1.3644551777735e-05   2.843622177293179e-06   -3.182768957055485e-08
-1.3644551777735e-05   2.843622177293179e-06   -3.182768957055485e-08
-1.3644551777735e-05   2.843622177293179e-06   -3.182768957055485e-08
-1.3644551777735e-05   2.843622177293179e-06   -3.182768957055485e-08
-1.6004400953127522e-05   3.259521778391683e-06   3.651714508758416e-06
-1.6004400953127522e-05   3.259521778391683e-06   3.651714508758416e-06
-1.6004400953127522e-05   3.259521778391683e-06   3.651714508758416e-06
-1.6004400953127522e-05   3.259521778391683e-06   3.651714508758416e-06
-1.3644551777735028e-05   3.582660133789016e-06   9.844322277221304e-06
-1.3644551777735028e-05   3.582660133789016e-06   9.844322277221304e-06
-1.3644551777735028e-05   3.582660133789016e-06   9.844322277221304e-06
-1.3644551777735028e-05   3.582660133789016e-06   9.844322277221304e-06
-1.95702417578102e-05   2.843622177293179e-06   -4.752504634681601e-07
-1.95702417578102e-05   2.843622177293179e-06   -4.752504634681601e-07
-1.95702417578102e-05   2.843622177293179e-06   -4.752504634681601e-07
-1.95702417578102e-05   2.843622177293179e-06   -4.752504634681601e-07
-2.013373828329529e-05   3.2573785907257175e-06   1.2020868595127312e-05
-2.013373828329529e-05   3.2573785907257175e-06   1.2020868595127312e-05
-2.013373828329529e-05   3.2573785907257175e-06   1.2020868595127312e-05
-2.013373828329529e-05   3.2573785907257175e-06   1.2020868595127312e-05
-1.3910059274657889e-05   2.5283683832469893e-06   2.085476371885655e-06
-1.3910059274657889e-05   2.5283683832469893e-06   2.085476371885655e-06
-1.3910059274657889e-05   2.5283683832469893e-06   2.085476371885655e-06
-1.3910059274657889e-05   2.5283683832469893e-06   2.085476371885655e-06
-1.6128865015193818e-05   3.1219190290642483e-06   5.427355551955161e-06
-1.6128865015193818e-05   3.1219190290642483e-06   5.427355551955161e-06
-1.6128865015193818e-05   3.1219190290642483e-06   5.427355551955161e-06
-1.6128865015193818e-05   3.1219190290642483e-06   5.427355551955161e-06
6.180734356135314e-06   -7.103119655762135e-07   8.570806575991551e-06
6.180734356135314e-06   -7.103119655762135e-07   8.570806575991551e-06
6.180734356135314e-06   -7.103119655762135e-07   8.570806575991551e-06
6.180734356135314e-06   -7.103119655762135e-07   8.570806575991551e-06
1.6662918264939738e-06   -1.2415076545914568e-08   1.4654738266742131e-06
1.6662918264939738e-06   -1.2415076545914568e-08   1.4654738266742131e-06
1.6662918264939738e-06   -1.2415076545914568e-08   1.4654738266742131e-06
1.6662918264939738e-06   -1.2415076545914568e-08   1.4654738266742131e-06
1.460299383312491e-06   -9.76573240950556e-07   7.973865973175641e-06
1.460299383312491e-06   -9.76573240950556e-07   7.973865973175641e-06
1.460299383312491e-06   -9.76573240950556e-07   7.973865973175641e-06
1.460299383312491e-06   -9.76573240950556e-07   7.973865973175641e-06
5.6700807593628015e-06   -2.522503281092176e-07   5.229699320536999e-07
5.6700807593628015e-06   -2.522503281092176e-07   5.229699320536999e-07
5.6700807593628015e-06   -2.522503281092176e-07   5.229699320536999e-07
5.6700807593628015e-06   -2.522503281092176e-07   5.229699320536999e-07
3.5256459053686674e-06   -5.218070935115613e-07   4.258762081285581e-06
3.5256459053686674e-06   -5.218070935115613e-07   4.258762081285581e-06
3.5256459053686674e-06   -5.218070935115613e-07   4.258762081285581e-06
3.5256459053686674e-06   -5.218070935115613e-07   4.258762081285581e-06
5.670080759362812e-06   -9.76573240950556e-07   7.539272225470773e-06
5.670080759362812e-06   -9.76573240950556e-07   7.539272225470773e-06
5.670080759362812e-06   -9.76573240950556e-07   7.539272225470773e-06
5.670080759362812e-06   -9.76573240950556e-07   7.539272225470773e-06
1.4602993833124876e-06   -2.522503281092176e-07   9.575636797585206e-07
1.4602993833124876e-06   -2.522503281092176e-07   9.575636797585206e-07
1.4602993833124876e-06   -2.522503281092176e-07   9.575636797585206e-07
1.4602993833124876e-06   -2.522503281092176e-07   9.575636797585206e-07
1.2193314141389432e-06   -1.06722318556345e-06   7.47235125786352e-06
1.2193314141389432e-06   -1.06722318556345e-06   7.47235125786352e-06
1.2193314141389432e-06   -1.06722318556345e-06   7.47235125786352e-06
1.2193314141389432e-06   -1.06722318556345e-06   7.47235125786352e-06
5.236679386034266e-06   -3.542257983946747e-07   3.4897287240346405e-07
5.236679386034266e-06   -3.542257983946747e-07   3.4897287240346405e-07
5.236679386034266e-06   -3.542257983946747e-07   3.4897287240346405e-07
5.236679386034266e-06   -3.542257983946747e-07   3.4897287240346405e-07
3.28233578512436e-06   -6.26637070633867e-07   3.7696589705967217e-06
3.28233578512436e-06   -6.26637070633867e-07   3.7696589705967217e-06
3.28233578512436e-06   -6.26637070633867e-07   3.7696589705967217e-06
3.28233578512436e-06   -6.26637070633867e-07   3.7696589705967217e-06
5.236679386034269e-06   -1.0672231855635584e-06   7.044552825562287e-06
5.236679386034269e-06   -1.0672231855635584e-06   7.044552825562287e-06
5.236679386034269e-06   -1.0672231855635584e-06   7.044552825562287e-06
5.236679386034269e-06   -1.0672231855635584e-06   7.044552825562287e-06
1.2193314141389381e-06   -3.542257983946747e-07   7.767713047046967e-07
1.2193314141389381e-06   -3.542257983946747e-07   7.767713047046967e-07
1.2193314141389381e-06   -3.542257983946747e-07   7.767713047046967e-07
1.2193314141389381e-06   -3.542257983946747e-07   7.767713047046967e-07
1.0100841682935817e-06   -1.1838088907488485e-06   6.883987846115463e-06
1.0100841682935817e-06   -1.1838088907488485e-06   6.883987846115463e-06
1.0100841682935817e-06   -1.1838088907488485e-06   6.883987846115463e-06
1.0100841682935817e-06   -1.1838088907488485e-06   6.883987846115463e-06
4.727679189099419e-06   -5.213796882893446e-07   2.905386232967199e-07
4.727679189099419e-06   -5.213796882893446e-07   2.905386232967199e-07
4.727679189099419e-06   -5.213796882893446e-07   2.905386232967199e-07
4.727679189099419e-06   -5.213796882893446e-07   2.905386232967199e-07
2.9141425849352473e-06   -6.781002092820032e-07   3.40713194283269e-06
2.9141425849352473e-06   -6.781002092820032e-07   3.40713194283269e-06
2.9141425849352473e-06   -6.781002092820032e-07   3.40713194283269e-06
2.9141425849352473e-06   -6.781002092820032e-07   3.40713194283269e-06
1.6662918264939772e-06   3.4236274981485054e-07   1.169186714921396e-05
1.6662918264939772e-06   3.4236274981485054e-07   1.169186714921396e-05
1.6662918264939772e-06   3.4236274981485054e-07   1.169186714921396e-05
1.6662918264939772e-06   3.4236274981485054e-07   1.169186714921396e-05
-2.4381146346653392e-06   6.61303474267308e-07   5.042554148619756e-06
-2.4381146346653392e-06   6.61303474267308e-07   5.042554148619756e-06
-2.4381146346653392e-06   6.61303474267308e-07   5.042554148619756e-06
-2.4381146346653392e-06   6.61303474267308e-07   5.042554148619756e-06
-2.6195652269751722e-06   7.459931698880398e-08   1.172485410352159e-05
-2.6195652269751722e-06   7.459931698880398e-08   1.172485410352159e-05
-2.6195652269751722e-06   7.459931698880398e-08   1.172485410352159e-05
-2.6195652269751722e-06   7.459931698880398e-08   1.172485410352159e-05
1.4602993833124876e-06   3.9219388745393574e-07   4.734523010763132e-06
1.4602993833124876e-06   3.9219388745393574e-07   4.734523010763132e-06
1.4602993833124876e-06   3.9219388745393574e-07   4.734523010763132e-06
1.4602993833124876e-06   3.9219388745393574e-07   4.734523010763132e-06
-5.140749801170076e-07   3.3996538387117553e-07   8.056484051962343e-06
-5.140749801170076e-07   3.3996538387117553e-07   8.056484051962343e-06
-5.140749801170076e-07   3.3996538387117553e-07   8.056484051962343e-06
-5.140749801170076e-07   3.3996538387117553e-07   8.056484051962343e-06
1.4602993833124893e-06   7.459931698880398e-08   1.1534297361242456e-05
1.4602993833124893e-06   7.459931698880398e-08   1.1534297361242456e-05
1.4602993833124893e-06   7.459931698880398e-08   1.1534297361242456e-05
1.4602993833124893e-06   7.459931698880398e-08   1.1534297361242456e-05
-2.6195652269751722e-06   3.9219388745393574e-07   4.9250797530422485e-06
-2.6195652269751722e-06   3.9219388745393574e-07   4.9250797530422485e-06
-2.6195652269751722e-06   3.9219388745393574e-07   4.9250797530422485e-06
-2.6195652269751722e-06   3.9219388745393574e-07   4.9250797530422485e-06
-2.8065206854877e-06   -1.4315821542792984e-07   1.1641757063407684e-05
-2.8065206854877e-06   -1.4315821542792984e-07   1.1641757063407684e-05
-2.8065206854877e-06   -1.4315821542792984e-07   1.1641757063407684e-05
-2.8065206854877e-06   -1.4315821542792984e-07   1.1641757063407684e-05
1.2193314141389381e-06   1.655368394168832e-07   4.74678653112308e-06
1.2193314141389381e-06   1.655368394168832e-07   4.74678653112308e-06
1.2193314141389381e-06   1.655368394168832e-07   4.74678653112308e-06
1.2193314141389381e-06   1.655368394168832e-07   4.74678653112308e-06
-7.0835373734299e-07   1.5316776440525617e-07   7.967016561933452e-06
-7.0835373734299e-07   1.5316776440525617e-07   7.967016561933452e-06
-7.0835373734299e-07   1.5316776440525617e-07   7.967016561933452e-06
-7.0835373734299e-07   1.5316776440525617e-07   7.967016561933452e-06
1.2193314141389432e-06   -1.4315821542792984e-07   1.1456540030500807e-05
1.2193314141389432e-06   -1.4315821542792984e-07   1.1456540030500807e-05
1.2193314141389432e-06   -1.4315821542792984e-07   1.1456540030500807e-05
1.2193314141389432e-06   -1.4315821542792984e-07   1.1456540030500807e-05
-2.806520685487707e-06   1.655368394168832e-07   4.932003564030066e-06
-2.806520685487707e-06   1.655368394168832e-07   4.932003564030066e-06
-2.806520685487707e-06   1.655368394168832e-07   4.932003564030066e-06
-2.806520685487707e-06   1.655368394168832e-07   4.932003564030066e-06
-2.990922528273767e-06   -3.560425506713956e-07   1.1786947248564376e-05
-2.990922528273767e-06   -3.560425506713956e-07   1.1786947248564376e-05
-2.990922528273767e-06   -3.560425506713956e-07   1.1786947248564376e-05
-2.990922528273767e-06   -3.560425506713956e-07   1.1786947248564376e-05
1.01008416829358e-06   -6.43603947323183e-08   4.943593460722178e-06
1.01008416829358e-06   -6.43603947323183e-08   4.943593460722178e-06
1.01008416829358e-06   -6.43603947323183e-08   4.943593460722178e-06
1.01008416829358e-06   -6.43603947323183e-08   4.943593460722178e-06
-8.719063484216037e-07   -1.2842169790257263e-08   8.049333386949066e-06
-8.719063484216037e-07   -1.2842169790257263e-08   8.049333386949066e-06
-8.719063484216037e-07   -1.2842169790257263e-08   8.049333386949066e-06
-8.719063484216037e-07   -1.2842169790257263e-08   8.049333386949066e-06
-2.4381146346653392e-06   1.3248599548047702e-06   1.2947814241725934e-05
-2.4381146346653392e-06   1.3248599548047702e-06   1.2947814241725934e-05
-2.4381146346653392e-06   1.3248599548047702e-06   1.2947814241725934e-05
-2.4381146346653392e-06   1.3248599548047702e-06   1.2947814241725934e-05
-6.467438616951466e-06   1.2534060888449473e-06   6.189401951673258e-06
-6.467438616951466e-06   1.2534060888449473e-06   6.189401951673258e-06
-6.467438616951466e-06   1.2534060888449473e-06   6.189401951673258e-06
-6.467438616951466e-06   1.2534060888449473e-06   6.189401951673258e-06
-6.641976607655781e-06   1.0830423679615998e-06   1.2833010982886655e-05
-6.641976607655781e-06   1.0830423679615998e-06   1.2833010982886655e-05
-6.641976607655781e-06   1.0830423679615998e-06   1.2833010982886655e-05
-6.641976607655781e-06   1.0830423679615998e-06   1.2833010982886655e-05
-2.6195652269751655e-06   1.0067490519114364e-06   6.174768004715852e-06
-2.6195652269751655e-06   1.0067490519114364e-06   6.174768004715852e-06
-2.6195652269751655e-06   1.0067490519114364e-06   6.174768004715852e-06
-2.6195652269751655e-06   1.0067490519114364e-06   6.174768004715852e-06
-4.550678837690611e-06   1.1378184916011145e-06   9.314649025428154e-06
-4.550678837690611e-06   1.1378184916011145e-06   9.314649025428154e-06
-4.550678837690611e-06   1.1378184916011145e-06   9.314649025428154e-06
-4.550678837690611e-06   1.1378184916011145e-06   9.314649025428154e-06
-2.6195652269751722e-06   1.0830423679615998e-06   1.2878786972516797e-05
-2.6195652269751722e-06   1.0830423679615998e-06   1.2878786972516797e-05
-2.6195652269751722e-06   1.0830423679615998e-06   1.2878786972516797e-05
-2.6195652269751722e-06   1.0830423679615998e-06   1.2878786972516797e-05
-6.6419766076557675e-06   1.0067490519115449e-06   6.128992015085738e-06
-6.6419766076557675e-06   1.0067490519115449e-06   6.128992015085738e-06
-6.6419766076557675e-06   1.0067490519115449e-06   6.128992015085738e-06
-6.6419766076557675e-06   1.0067490519115449e-06   6.128992015085738e-06
-6.822067951291224e-06   8.440460288662186e-07   1.2913851954270996e-05
-6.822067951291224e-06   8.440460288662186e-07   1.2913851954270996e-05
-6.822067951291224e-06   8.440460288662186e-07   1.2913851954270996e-05
-6.822067951291224e-06   8.440460288662186e-07   1.2913851954270996e-05
-2.8065206854876933e-06   7.613974976426047e-07   6.27086229666607e-06
-2.8065206854876933e-06   7.613974976426047e-07   6.27086229666607e-06
-2.8065206854876933e-06   7.613974976426047e-07   6.27086229666607e-06
-2.8065206854876933e-06   7.613974976426047e-07   6.27086229666607e-06
-4.705734333207895e-06   9.508698611944639e-07   9.322534958068637e-06
-4.705734333207895e-06   9.508698611944639e-07   9.322534958068637e-06
-4.705734333207895e-06   9.508698611944639e-07   9.322534958068637e-06
-4.705734333207895e-06   9.508698611944639e-07   9.322534958068637e-06
-2.806520685487707e-06   8.440460288662186e-07   1.2963441073005272e-05
-2.806520685487707e-06   8.440460288662186e-07   1.2963441073005272e-05
-2.806520685487707e-06   8.440460288662186e-07   1.2963441073005272e-05
-2.806520685487707e-06   8.440460288662186e-07   1.2963441073005272e-05
-6.822067951291224e-06   7.613974976426047e-07   6.221273177931875e-06
-6.822067951291224e-06   7.613974976426047e-07   6.221273177931875e-06
-6.822067951291224e-06   7.613974976426047e-07   6.221273177931875e-06
-6.822067951291224e-06   7.613974976426047e-07   6.221273177931875e-06
-6.999231203856372e-06   6.141724639686886e-07   1.3116668484399862e-05
-6.999231203856372e-06   6.141724639686886e-07   1.3116668484399862e-05
-6.999231203856372e-06   6.141724639686886e-07   1.3116668484399862e-05
-6.999231203856372e-06   6.141724639686886e-07   1.3116668484399862e-05
-2.990922528273767e-06   5.268427360684714e-07   6.488551861835766e-06
-2.990922528273767e-06   5.268427360684714e-07   6.488551861835766e-06
-2.990922528273767e-06   5.268427360684714e-07   6.488551861835766e-06
-2.990922528273767e-06   5.268427360684714e-07   6.488551861835766e-06
-4.870856217132824e-06   7.678550683043982e-07   9.477167277259404e-06
-4.870856217132824e-06   7.678550683043982e-07   9.477167277259404e-06
-4.870856217132824e-06   7.678550683043982e-07   9.477167277259404e-06
-4.870856217132824e-06   7.678550683043982e-07   9.477167277259404e-06
-6.467438616951466e-06   2.2818197208969828e-06   1.141902573642469e-05
-6.467438616951466e-06   2.2818197208969828e-06   1.141902573642469e-05
-6.467438616951466e-06   2.2818197208969828e-06   1.141902573642469e-05
-6.467438616951466e-06   2.2818197208969828e-06   1.141902573642469e-05
-1.0431255948778728e-05   1.8717755462350572e-06   4.566637011915449e-06
-1.0431255948778728e-05   1.8717755462350572e-06   4.566637011915449e-06
-1.0431255948778728e-05   1.8717755462350572e-06   4.566637011915449e-06
-1.0431255948778728e-05   1.8717755462350572e-06   4.566637011915449e-06
-1.0621980716504878e-05   2.0466337591052135e-06   1.1211562612007016e-05
-1.0621980716504878e-05   2.0466337591052135e-06   1.1211562612007016e-05
-1.0621980716504878e-05   2.0466337591052135e-06   1.1211562612007016e-05
-1.0621980716504878e-05   2.0466337591052135e-06   1.1211562612007016e-05
-6.6419766076557675e-06   1.6236834772193412e-06   4.831992599723425e-06
-6.6419766076557675e-06   1.6236834772193412e-06   4.831992599723425e-06
-6.6419766076557675e-06   1.6236834772193412e-06   4.831992599723425e-06
-6.6419766076557675e-06   1.6236834772193412e-06   4.831992599723425e-06
-8.51987148806504e-06   1.9223458622559487e-06   7.782619969384005e-06
-8.51987148806504e-06   1.9223458622559487e-06   7.782619969384005e-06
-8.51987148806504e-06   1.9223458622559487e-06   7.782619969384005e-06
-8.51987148806504e-06   1.9223458622559487e-06   7.782619969384005e-06
-6.641976607655781e-06   2.0466337591052135e-06   1.1465332781138528e-05
-6.641976607655781e-06   2.0466337591052135e-06   1.1465332781138528e-05
-6.641976607655781e-06   2.0466337591052135e-06   1.1465332781138528e-05
-6.641976607655781e-06   2.0466337591052135e-06   1.1465332781138528e-05
-1.0621980716504851e-05   1.6236834772192328e-06   4.5782224305919125e-06
-1.0621980716504851e-05   1.6236834772192328e-06   4.5782224305919125e-06
-1.0621980716504851e-05   1.6236834772192328e-06   4.5782224305919125e-06
-1.0621980716504851e-05   1.6236834772192328e-06   4.5782224305919125e-06
-1.0847275133803787e-05   1.8279102479415096e-06   1.1579690160932045e-05
-1.0847275133803787e-05   1.8279102479415096e-06   1.1579690160932045e-05
-1.0847275133803787e-05   1.8279102479415096e-06   1.1579690160932045e-05
-1.0847275133803787e-05   1.8279102479415096e-06   1.1579690160932045e-05
-6.8220679512912105e-06   1.3971937817595058e-06   5.1294414031202566e-06
-6.8220679512912105e-06   1.3971937817595058e-06   5.1294414031202566e-06
-6.8220679512912105e-06   1.3971937817595058e-06   5.1294414031202566e-06
-6.8220679512912105e-06   1.3971937817595058e-06   5.1294414031202566e-06
-8.641959728368989e-06   1.7473860912378333e-06   7.95247897922947e-06
-8.641959728368989e-06   1.7473860912378333e-06   7.95247897922947e-06
-8.641959728368989e-06   1.7473860912378333e-06   7.95247897922947e-06
-8.641959728368989e-06   1.7473860912378333e-06   7.95247897922947e-06
-6.8220679512912105e-06   1.827910247941618e-06   1.1838120040641074e-05
-6.8220679512912105e-06   1.827910247941618e-06   1.1838120040641074e-05
-6.8220679512912105e-06   1.827910247941618e-06   1.1838120040641074e-05
-6.8220679512912105e-06   1.827910247941618e-06   1.1838120040641074e-05
-1.084727513380376e-05   1.3971937817596142e-06   4.871011523411092e-06
-1.084727513380376e-05   1.3971937817596142e-06   4.871011523411092e-06
-1.084727513380376e-05   1.3971937817596142e-06   4.871011523411092e-06
-1.084727513380376e-05   1.3971937817596142e-06   4.871011523411092e-06
-1.1039877078433577e-05   1.5823142573062393e-06   1.1931505691936857e-05
-1.1039877078433577e-05   1.5823142573062393e-06   1.1931505691936857e-05
-1.1039877078433577e-05   1.5823142573062393e-06   1.1931505691936857e-05
-1.1039877078433577e-05   1.5823142573062393e-06   1.1931505691936857e-05
-6.999231203856358e-06   1.1541674187766056e-06   5.453984004092797e-06
-6.999231203856358e-06   1.1541674187766056e-06   5.453984004092797e-06
-6.999231203856358e-06   1.1541674187766056e-06   5.453984004092797e-06
-6.999231203856358e-06   1.1541674187766056e-06   5.453984004092797e-06
-8.854715620037702e-06   1.5711089208577007e-06   8.296293129813367e-06
-8.854715620037702e-06   1.5711089208577007e-06   8.296293129813367e-06
-8.854715620037702e-06   1.5711089208577007e-06   8.296293129813367e-06
-8.854715620037702e-06   1.5711089208577007e-06   8.296293129813367e-06
-1.0431255948778728e-05   3.00922340352853e-06   5.358224466438829e-06
-1.0431255948778728e-05   3.00922340352853e-06   5.358224466438829e-06
-1.0431255948778728e-05   3.00922340352853e-06   5.358224466438829e-06
-1.0431255948778728e-05   3.00922340352853e-06   5.358224466438829e-06
-1.4035817996968525e-05   2.3181577688275844e-06   -1.0640183280314773e-06
-1.4035817996968525e-05   2.3181577688275844e-06   -1.0640183280314773e-06
-1.4035817996968525e-05   2.3181577688275844e-06   -1.0640183280314773e-06
-1.4035817996968525e-05   2.3181577688275844e-06   -1.0640183280314773e-06
-1.4526050596681876e-05   2.9365926188184253e-06   6.625557191666407e-06
-1.4526050596681876e-05   2.9365926188184253e-06   6.625557191666407e-06
-1.4526050596681876e-05   2.9365926188184253e-06   6.625557191666407e-06
-1.4526050596681876e-05   2.9365926188184253e-06   6.625557191666407e-06
-1.0621980716504824e-05   2.1925178761756812e-06   5.652189036238573e-07
-1.0621980716504824e-05   2.1925178761756812e-06   5.652189036238573e-07
-1.0621980716504824e-05   2.1925178761756812e-06   5.652189036238573e-07
-1.0621980716504824e-05   2.1925178761756812e-06   5.652189036238573e-07
-1.1951250836937004e-05   2.5640118494380275e-06   2.5577727203871707e-06
-1.1951250836937004e-05   2.5640118494380275e-06   2.5577727203871707e-06
-1.1951250836937004e-05   2.5640118494380275e-06   2.5577727203871707e-06
-1.1951250836937004e-05   2.5640118494380275e-06   2.5577727203871707e-06
-1.0621980716504851e-05   2.9365926188185338e-06   7.072002037252097e-06
-1.0621980716504851e-05   2.9365926188185338e-06   7.072002037252097e-06
-1.0621980716504851e-05   2.9365926188185338e-06   7.072002037252097e-06
-1.0621980716504851e-05   2.9365926188185338e-06   7.072002037252097e-06
-1.4526050596681876e-05   2.1925178761756812e-06   1.1877405803811325e-07
-1.4526050596681876e-05   2.1925178761756812e-06   1.1877405803811325e-07
-1.4526050596681876e-05   2.1925178761756812e-06   1.1877405803811325e-07
-1.4526050596681876e-05   2.1925178761756812e-06   1.1877405803811325e-07
-1.4946812044449264e-05   2.843622177293179e-06   7.841712583323153e-06
-1.4946812044449264e-05   2.843622177293179e-06   7.841712583323153e-06
-1.4946812044449264e-05   2.843622177293179e-06   7.841712583323153e-06
-1.4946812044449264e-05   2.843622177293179e-06   7.841712583323153e-06
-1.0847275133803733e-05   2.085638966402444e-06   1.4639409921151703e-06
-1.0847275133803733e-05   2.085638966402444e-06   1.4639409921151703e-06
-1.0847275133803733e-05   2.085638966402444e-06   1.4639409921151703e-06
-1.0847275133803733e-05   2.085638966402444e-06   1.4639409921151703e-06
-1.2424818361012055e-05   2.5327050212680053e-06   3.824940071209823e-06
-1.2424818361012055e-05   2.5327050212680053e-06   3.824940071209823e-06
-1.2424818361012055e-05   2.5327050212680053e-06   3.824940071209823e-06
-1.2424818361012055e-05   2.5327050212680053e-06   3.824940071209823e-06
-1.084727513380376e-05   2.843622177293179e-06   8.296502509857649e-06
-1.084727513380376e-05   2.843622177293179e-06   8.296502509857649e-06
-1.084727513380376e-05   2.843622177293179e-06   8.296502509857649e-06
-1.084727513380376e-05   2.843622177293179e-06   8.296502509857649e-06
-1.494681204444929e-05   2.085638966402444e-06   1.0091510655807294e-06
-1.494681204444929e-05   2.085638966402444e-06   1.0091510655807294e-06
-1.494681204444929e-05   2.085638966402444e-06   1.0091510655807294e-06
-1.494681204444929e-05   2.085638966402444e-06   1.0091510655807294e-06
-1.5448928120014618e-05   2.5283683832469893e-06   9.989829283291087e-06
-1.5448928120014618e-05   2.5283683832469893e-06   9.989829283291087e-06
-1.5448928120014618e-05   2.5283683832469893e-06   9.989829283291087e-06
-1.5448928120014618e-05   2.5283683832469893e-06   9.989829283291087e-06
-1.1039877078433523e-05   1.7918393083189276e-06   3.0833283256128698e-06
-1.1039877078433523e-05   1.7918393083189276e-06   3.0833283256128698e-06
-1.1039877078433523e-05   1.7918393083189276e-06   3.0833283256128698e-06
-1.1039877078433523e-05   1.7918393083189276e-06   3.0833283256128698e-06
-1.253681612586897e-05   2.3990856441308273e-06   5.2138789365182995e-06
-1.253681612586897e-05   2.3990856441308273e-06   5.2138789365182995e-06
-1.253681612586897e-05   2.3990856441308273e-06   5.2138789365182995e-06
-1.253681612586897e-05   2.3990856441308273e-06   5.2138789365182995e-06
1.4271790539448803e-06   -1.2415076545914568e-08   6.463007053772668e-06
1.4271790539448803e-06   -1.2415076545914568e-08   6.463007053772668e-06
1.4271790539448803e-06   -1.2415076545914568e-08   6.463007053772668e-06
1.4271790539448803e-06   -1.2415076545914568e-08   6.463007053772668e-06
-1.2125412229231487e-06   6.623410470084118e-07   2.4683269331252566e-06
-1.2125412229231487e-06   6.623410470084118e-07   2.4683269331252566e-06
-1.2125412229231487e-06   6.623410470084118e-07   2.4683269331252566e-06
-1.2125412229231487e-06   6.623410470084118e-07   2.4683269331252566e-06
-1.3613150481942767e-06   -2.522503281091092e-07   6.350651612402889e-06
-1.3613150481942767e-06   -2.522503281091092e-07   6.350651612402889e-06
-1.3613150481942767e-06   -2.522503281091092e-07   6.350651612402889e-06
-1.3613150481942767e-06   -2.522503281091092e-07   6.350651612402889e-06
9.76767844465689e-07   4.3840834058986875e-07   2.0394515900835637e-06
9.76767844465689e-07   4.3840834058986875e-07   2.0394515900835637e-06
9.76767844465689e-07   4.3840834058986875e-07   2.0394515900835637e-06
9.76767844465689e-07   4.3840834058986875e-07   2.0394515900835637e-06
-1.0960838468442517e-07   1.6998328419690805e-07   4.011133672502828e-06
-1.0960838468442517e-07   1.6998328419690805e-07   4.011133672502828e-06
-1.0960838468442517e-07   1.6998328419690805e-07   4.011133672502828e-06
-1.0960838468442517e-07   1.6998328419690805e-07   4.011133672502828e-06
9.76767844465689e-07   -2.522503281091092e-07   5.9362564111834154e-06
9.76767844465689e-07   -2.522503281091092e-07   5.9362564111834154e-06
9.76767844465689e-07   -2.522503281091092e-07   5.9362564111834154e-06
9.76767844465689e-07   -2.522503281091092e-07   5.9362564111834154e-06
-1.3613150481942767e-06   4.3840834058986875e-07   2.453846791302956e-06
-1.3613150481942767e-06   4.3840834058986875e-07   2.453846791302956e-06
-1.3613150481942767e-06   4.3840834058986875e-07   2.453846791302956e-06
-1.3613150481942767e-06   4.3840834058986875e-07   2.453846791302956e-06
-1.5455820517233012e-06   -3.542257983947831e-07   6.169293398394652e-06
-1.5455820517233012e-06   -3.542257983947831e-07   6.169293398394652e-06
-1.5455820517233012e-06   -3.542257983947831e-07   6.169293398394652e-06
-1.5455820517233012e-06   -3.542257983947831e-07   6.169293398394652e-06
5.846613821374654e-07   3.171713105094018e-07   2.2160494099508153e-06
5.846613821374654e-07   3.171713105094018e-07   2.2160494099508153e-06
5.846613821374654e-07   3.171713105094018e-07   2.2160494099508153e-06
5.846613821374654e-07   3.171713105094018e-07   2.2160494099508153e-06
-3.505607031778235e-07   7.47194248378177e-08   3.920224016879238e-06
-3.505607031778235e-07   7.47194248378177e-08   3.920224016879238e-06
-3.505607031778235e-07   7.47194248378177e-08   3.920224016879238e-06
-3.505607031778235e-07   7.47194248378177e-08   3.920224016879238e-06
5.846613821374654e-07   -3.542257983947831e-07   5.766455133052054e-06
5.846613821374654e-07   -3.542257983947831e-07   5.766455133052054e-06
5.846613821374654e-07   -3.542257983947831e-07   5.766455133052054e-06
5.846613821374654e-07   -3.542257983947831e-07   5.766455133052054e-06
-1.5455820517232961e-06   3.171713105094018e-07   2.6188876752934265e-06
-1.5455820517232961e-06   3.171713105094018e-07   2.6188876752934265e-06
-1.5455820517232961e-06   3.171713105094018e-07   2.6188876752934265e-06
-1.5455820517232961e-06   3.171713105094018e-07   2.6188876752934265e-06
-1.7004034806388845e-06   -5.213796882893446e-07   6.082388333090321e-06
-1.7004034806388845e-06   -5.213796882893446e-07   6.082388333090321e-06
-1.7004034806388845e-06   -5.213796882893446e-07   6.082388333090321e-06
-1.7004034806388845e-06   -5.213796882893446e-07   6.082388333090321e-06
9.174076129714705e-08   6.199772495033137e-08   2.74545481525321e-06
9.174076129714705e-08   6.199772495033137e-08   2.74545481525321e-06
9.174076129714705e-08   6.199772495033137e-08   2.74545481525321e-06
9.174076129714705e-08   6.199772495033137e-08   2.74545481525321e-06
-6.172337659346443e-07   -9.628641410390753e-09   3.970054847122579e-06
-6.172337659346443e-07   -9.628641410390753e-09   3.970054847122579e-06
-6.172337659346443e-07   -9.628641410390753e-09   3.970054847122579e-06
-6.172337659346443e-07   -9.628641410390753e-09   3.970054847122579e-06
-1.2125412229231487e-06   6.61303474267308e-07   1.0253576615179485e-05
-1.2125412229231487e-06   6.61303474267308e-07   1.0253576615179485e-05
-1.2125412229231487e-06   6.61303474267308e-07   1.0253576615179485e-05
-1.2125412229231487e-06   6.61303474267308e-07   1.0253576615179485e-05
-3.4180035804632508e-06   7.983017465910264e-07   6.660004982673556e-06
-3.4180035804632508e-06   7.983017465910264e-07   6.660004982673556e-06
-3.4180035804632508e-06   7.983017465910264e-07   6.660004982673556e-06
-3.4180035804632508e-06   7.983017465910264e-07   6.660004982673556e-06
-3.5312174813448605e-06   3.9219388745393574e-07   1.0221887560686984e-05
-3.5312174813448605e-06   3.9219388745393574e-07   1.0221887560686984e-05
-3.5312174813448605e-06   3.9219388745393574e-07   1.0221887560686984e-05
-3.5312174813448605e-06   3.9219388745393574e-07   1.0221887560686984e-05
-1.3613150481942767e-06   5.493215829194438e-07   6.511106888156579e-06
-1.3613150481942767e-06   5.493215829194438e-07   6.511106888156579e-06
-1.3613150481942767e-06   5.493215829194438e-07   6.511106888156579e-06
-1.3613150481942767e-06   5.493215829194438e-07   6.511106888156579e-06
-2.3970467065745813e-06   5.702504533406055e-07   8.224768996537768e-06
-2.3970467065745813e-06   5.702504533406055e-07   8.224768996537768e-06
-2.3970467065745813e-06   5.702504533406055e-07   8.224768996537768e-06
-2.3970467065745813e-06   5.702504533406055e-07   8.224768996537768e-06
-1.3613150481942716e-06   3.921938874538273e-07   1.0127610943407484e-05
-1.3613150481942716e-06   3.921938874538273e-07   1.0127610943407484e-05
-1.3613150481942716e-06   3.921938874538273e-07   1.0127610943407484e-05
-1.3613150481942716e-06   3.921938874538273e-07   1.0127610943407484e-05
-3.531217481344847e-06   5.493215829194438e-07   6.605383505435981e-06
-3.531217481344847e-06   5.493215829194438e-07   6.605383505435981e-06
-3.531217481344847e-06   5.493215829194438e-07   6.605383505435981e-06
-3.531217481344847e-06   5.493215829194438e-07   6.605383505435981e-06
-3.648136838369096e-06   1.6553683941699163e-07   1.0232774022848412e-05
-3.648136838369096e-06   1.6553683941699163e-07   1.0232774022848412e-05
-3.648136838369096e-06   1.6553683941699163e-07   1.0232774022848412e-05
-3.648136838369096e-06   1.6553683941699163e-07   1.0232774022848412e-05
-1.5455820517232961e-06   3.2131250280912444e-07   6.635050647070105e-06
-1.5455820517232961e-06   3.2131250280912444e-07   6.635050647070105e-06
-1.5455820517232961e-06   3.2131250280912444e-07   6.635050647070105e-06
-1.5455820517232961e-06   3.2131250280912444e-07   6.635050647070105e-06
-2.512962774206557e-06   3.8938134887169656e-07   8.206510543571275e-06
-2.512962774206557e-06   3.8938134887169656e-07   8.206510543571275e-06
-2.512962774206557e-06   3.8938134887169656e-07   8.206510543571275e-06
-2.512962774206557e-06   3.8938134887169656e-07   8.206510543571275e-06
-1.5455820517232961e-06   1.655368394168832e-07   1.0139308624813035e-05
-1.5455820517232961e-06   1.655368394168832e-07   1.0139308624813035e-05
-1.5455820517232961e-06   1.655368394168832e-07   1.0139308624813035e-05
-1.5455820517232961e-06   1.655368394168832e-07   1.0139308624813035e-05
-3.648136838369096e-06   3.2131250280912444e-07   6.728516045105364e-06
-3.648136838369096e-06   3.2131250280912444e-07   6.728516045105364e-06
-3.648136838369096e-06   3.2131250280912444e-07   6.728516045105364e-06
-3.648136838369096e-06   3.2131250280912444e-07   6.728516045105364e-06
-3.7632125262274764e-06   -6.43603947323183e-08   1.0422338120540141e-05
-3.7632125262274764e-06   -6.43603947323183e-08   1.0422338120540141e-05
-3.7632125262274764e-06   -6.43603947323183e-08   1.0422338120540141e-05
-3.7632125262274764e-06   -6.43603947323183e-08   1.0422338120540141e-05
-1.7004034806388811e-06   7.622705776782817e-08   6.899970573059178e-06
-1.7004034806388811e-06   7.622705776782817e-08   6.899970573059178e-06
-1.7004034806388811e-06   7.622705776782817e-08   6.899970573059178e-06
-1.7004034806388811e-06   7.622705776782817e-08   6.899970573059178e-06
-2.6280853787999324e-06   2.133574960719634e-07   8.36382880701167e-06
-2.6280853787999324e-06   2.133574960719634e-07   8.36382880701167e-06
-2.6280853787999324e-06   2.133574960719634e-07   8.36382880701167e-06
-2.6280853787999324e-06   2.133574960719634e-07   8.36382880701167e-06
-3.4180035804632372e-06   1.2534060888449473e-06   1.1525495701202927e-05
-3.4180035804632372e-06   1.2534060888449473e-06   1.1525495701202927e-05
-3.4180035804632372e-06   1.2534060888449473e-06   1.1525495701202927e-05
-3.4180035804632372e-06   1.2534060888449473e-06   1.1525495701202927e-05
-5.6057257880908395e-06   9.693706611020418e-07   7.708870765177914e-06
-5.6057257880908395e-06   9.693706611020418e-07   7.708870765177914e-06
-5.6057257880908395e-06   9.693706611020418e-07   7.708870765177914e-06
-5.6057257880908395e-06   9.693706611020418e-07   7.708870765177914e-06
-5.7022143819484395e-06   1.0067490519115449e-06   1.13115780393788e-05
-5.7022143819484395e-06   1.0067490519115449e-06   1.13115780393788e-05
-5.7022143819484395e-06   1.0067490519115449e-06   1.13115780393788e-05
-5.7022143819484395e-06   1.0067490519115449e-06   1.13115780393788e-05
-3.531217481344847e-06   7.400860969418552e-07   7.853247644687886e-06
-3.531217481344847e-06   7.400860969418552e-07   7.853247644687886e-06
-3.531217481344847e-06   7.400860969418552e-07   7.853247644687886e-06
-3.531217481344847e-06   7.400860969418552e-07   7.853247644687886e-06
-4.567285896933147e-06   9.717487292116612e-07   9.441030757973201e-06
-4.567285896933147e-06   9.717487292116612e-07   9.441030757973201e-06
-4.567285896933147e-06   9.717487292116612e-07   9.441030757973201e-06
-4.567285896933147e-06   9.717487292116612e-07   9.441030757973201e-06
-3.531217481344847e-06   1.0067490519115449e-06   1.1471575812360452e-05
-3.531217481344847e-06   1.0067490519115449e-06   1.1471575812360452e-05
-3.531217481344847e-06   1.0067490519115449e-06   1.1471575812360452e-05
-3.531217481344847e-06   1.0067490519115449e-06   1.1471575812360452e-05
-5.7022143819484395e-06   7.400860969418552e-07   7.69324987170614e-06
-5.7022143819484395e-06   7.400860969418552e-07   7.69324987170614e-06
-5.7022143819484395e-06   7.400860969418552e-07   7.69324987170614e-06
-5.7022143819484395e-06   7.400860969418552e-07   7.69324987170614e-06
-5.805348574555101e-06   7.613974976426047e-07   1.1419116682226252e-05
-5.805348574555101e-06   7.613974976426047e-07   1.1419116682226252e-05
-5.805348574555101e-06   7.613974976426047e-07   1.1419116682226252e-05
-5.805348574555101e-06   7.613974976426047e-07   1.1419116682226252e-05
-3.648136838369096e-06   5.072040422123936e-07   7.976279861841065e-06
-3.648136838369096e-06   5.072040422123936e-07   7.976279861841065e-06
-3.648136838369096e-06   5.072040422123936e-07   7.976279861841065e-06
-3.648136838369096e-06   5.072040422123936e-07   7.976279861841065e-06
-4.6497687145861355e-06   7.889286847654752e-07   9.476631536670834e-06
-4.6497687145861355e-06   7.889286847654752e-07   9.476631536670834e-06
-4.6497687145861355e-06   7.889286847654752e-07   9.476631536670834e-06
-4.6497687145861355e-06   7.889286847654752e-07   9.476631536670834e-06
-3.648136838369096e-06   7.613974976426047e-07   1.1571632755484336e-05
-3.648136838369096e-06   7.613974976426047e-07   1.1571632755484336e-05
-3.648136838369096e-06   7.613974976426047e-07   1.1571632755484336e-05
-3.648136838369096e-06   7.613974976426047e-07   1.1571632755484336e-05
-5.805348574555101e-06   5.072040422123936e-07   7.823763788582927e-06
-5.805348574555101e-06   5.072040422123936e-07   7.823763788582927e-06
-5.805348574555101e-06   5.072040422123936e-07   7.823763788582927e-06
-5.805348574555101e-06   5.072040422123936e-07   7.823763788582927e-06
-5.906369349758928e-06   5.26842736068363e-07   1.1648473174327202e-05
-5.906369349758928e-06   5.26842736068363e-07   1.1648473174327202e-05
-5.906369349758928e-06   5.26842736068363e-07   1.1648473174327202e-05
-5.906369349758928e-06   5.26842736068363e-07   1.1648473174327202e-05
-3.7632125262274696e-06   2.8715264646336e-07   8.220359188871177e-06
-3.7632125262274696e-06   2.8715264646336e-07   8.220359188871177e-06
-3.7632125262274696e-06   2.8715264646336e-07   8.220359188871177e-06
-3.7632125262274696e-06   2.8715264646336e-07   8.220359188871177e-06
-4.741614071414331e-06   6.091565140865698e-07   9.65782611027534e-06
-4.741614071414331e-06   6.091565140865698e-07   9.65782611027534e-06
-4.741614071414331e-06   6.091565140865698e-07   9.65782611027534e-06
-4.741614071414331e-06   6.091565140865698e-07   9.65782611027534e-06
-5.605725788090853e-06   1.8717755462349488e-06   9.978336009596616e-06
-5.605725788090853e-06   1.8717755462349488e-06   9.978336009596616e-06
-5.605725788090853e-06   1.8717755462349488e-06   9.978336009596616e-06
-5.605725788090853e-06   1.8717755462349488e-06   9.978336009596616e-06
-7.762246041764299e-06   1.3183077226216252e-06   6.052054892639495e-06
-7.762246041764299e-06   1.3183077226216252e-06   6.052054892639495e-06
-7.762246041764299e-06   1.3183077226216252e-06   6.052054892639495e-06
-7.762246041764299e-06   1.3183077226216252e-06   6.052054892639495e-06
-7.868494533953e-06   1.6236834772193412e-06   9.686722635458703e-06
-7.868494533953e-06   1.6236834772193412e-06   9.686722635458703e-06
-7.868494533953e-06   1.6236834772193412e-06   9.686722635458703e-06
-7.868494533953e-06   1.6236834772193412e-06   9.686722635458703e-06
-5.7022143819484395e-06   1.0772568296229883e-06   6.4041117040088645e-06
-5.7022143819484395e-06   1.0772568296229883e-06   6.4041117040088645e-06
-5.7022143819484395e-06   1.0772568296229883e-06   6.4041117040088645e-06
-5.7022143819484395e-06   1.0772568296229883e-06   6.4041117040088645e-06
-6.720365370869719e-06   1.4582050606338093e-06   7.8724610802711e-06
-6.720365370869719e-06   1.4582050606338093e-06   7.8724610802711e-06
-6.720365370869719e-06   1.4582050606338093e-06   7.8724610802711e-06
-6.720365370869719e-06   1.4582050606338093e-06   7.8724610802711e-06
-5.7022143819484395e-06   1.6236834772192328e-06   1.0014578624016406e-05
-5.7022143819484395e-06   1.6236834772192328e-06   1.0014578624016406e-05
-5.7022143819484395e-06   1.6236834772192328e-06   1.0014578624016406e-05
-5.7022143819484395e-06   1.6236834772192328e-06   1.0014578624016406e-05
-7.868494533953e-06   1.0772568296229341e-06   6.076255715451053e-06
-7.868494533953e-06   1.0772568296229341e-06   6.076255715451053e-06
-7.868494533953e-06   1.0772568296229341e-06   6.076255715451053e-06
-7.868494533953e-06   1.0772568296229341e-06   6.076255715451053e-06
-8.01394768722773e-06   1.3971937817595058e-06   1.0006221603169312e-05
-8.01394768722773e-06   1.3971937817595058e-06   1.0006221603169312e-05
-8.01394768722773e-06   1.3971937817595058e-06   1.0006221603169312e-05
-8.01394768722773e-06   1.3971937817595058e-06   1.0006221603169312e-05
-5.805348574555101e-06   8.620882746840776e-07   6.646286386293576e-06
-5.805348574555101e-06   8.620882746840776e-07   6.646286386293576e-06
-5.805348574555101e-06   8.620882746840776e-07   6.646286386293576e-06
-5.805348574555101e-06   8.620882746840776e-07   6.646286386293576e-06
-6.778016429059043e-06   1.2810727634248462e-06   8.01600878388883e-06
-6.778016429059043e-06   1.2810727634248462e-06   8.01600878388883e-06
-6.778016429059043e-06   1.2810727634248462e-06   8.01600878388883e-06
-6.778016429059043e-06   1.2810727634248462e-06   8.01600878388883e-06
-5.805348574555087e-06   1.3971937817596142e-06   1.0327284907414526e-05
-5.805348574555087e-06   1.3971937817596142e-06   1.0327284907414526e-05
-5.805348574555087e-06   1.3971937817596142e-06   1.0327284907414526e-05
-5.805348574555087e-06   1.3971937817596142e-06   1.0327284907414526e-05
-8.01394768722773e-06   8.620882746840776e-07   6.3252230820483085e-06
-8.01394768722773e-06   8.620882746840776e-07   6.3252230820483085e-06
-8.01394768722773e-06   8.620882746840776e-07   6.3252230820483085e-06
-8.01394768722773e-06   8.620882746840776e-07   6.3252230820483085e-06
-8.130233090123285e-06   1.154167418776714e-06   1.035907715772952e-05
-8.130233090123285e-06   1.154167418776714e-06   1.035907715772952e-05
-8.130233090123285e-06   1.154167418776714e-06   1.035907715772952e-05
-8.130233090123285e-06   1.154167418776714e-06   1.035907715772952e-05
-5.906369349758915e-06   6.421240927851723e-07   6.959863586050502e-06
-5.906369349758915e-06   6.421240927851723e-07   6.959863586050502e-06
-5.906369349758915e-06   6.421240927851723e-07   6.959863586050502e-06
-5.906369349758915e-06   6.421240927851723e-07   6.959863586050502e-06
-6.899253283546829e-06   1.1117920622184764e-06   8.332869360703815e-06
-6.899253283546829e-06   1.1117920622184764e-06   8.332869360703815e-06
-6.899253283546829e-06   1.1117920622184764e-06   8.332869360703815e-06
-6.899253283546829e-06   1.1117920622184764e-06   8.332869360703815e-06
-7.762246041764299e-06   2.3181577688275844e-06   4.430239356302231e-06
-7.762246041764299e-06   2.3181577688275844e-06   4.430239356302231e-06
-7.762246041764299e-06   2.3181577688275844e-06   4.430239356302231e-06
-7.762246041764299e-06   2.3181577688275844e-06   4.430239356302231e-06
-9.490937101266884e-06   1.5711022808632654e-06   1.100854297686032e-06
-9.490937101266884e-06   1.5711022808632654e-06   1.100854297686032e-06
-9.490937101266884e-06   1.5711022808632654e-06   1.100854297686032e-06
-9.490937101266884e-06   1.5711022808632654e-06   1.100854297686032e-06
-9.889516332367717e-06   2.1925178761756812e-06   5.204751053151176e-06
-9.889516332367717e-06   2.1925178761756812e-06   5.204751053151176e-06
-9.889516332367717e-06   2.1925178761756812e-06   5.204751053151176e-06
-9.889516332367717e-06   2.1925178761756812e-06   5.204751053151176e-06
-7.868494533953e-06   1.41090445061003e-06   2.3053494444660383e-06
-7.868494533953e-06   1.41090445061003e-06   2.3053494444660383e-06
-7.868494533953e-06   1.41090445061003e-06   2.3053494444660383e-06
-7.868494533953e-06   1.41090445061003e-06   2.3053494444660383e-06
-8.448232667266338e-06   1.8517405704321604e-06   3.007077994761657e-06
-8.448232667266338e-06   1.8517405704321604e-06   3.007077994761657e-06
-8.448232667266338e-06   1.8517405704321604e-06   3.007077994761657e-06
-8.448232667266338e-06   1.8517405704321604e-06   3.007077994761657e-06
-7.868494533952973e-06   2.1925178761756812e-06   5.673719108490404e-06
-7.868494533952973e-06   2.1925178761756812e-06   5.673719108490404e-06
-7.868494533952973e-06   2.1925178761756812e-06   5.673719108490404e-06
-7.868494533952973e-06   2.1925178761756812e-06   5.673719108490404e-06
-9.889516332367717e-06   1.41090445061003e-06   1.8363813891266476e-06
-9.889516332367717e-06   1.41090445061003e-06   1.8363813891266476e-06
-9.889516332367717e-06   1.41090445061003e-06   1.8363813891266476e-06
-9.889516332367717e-06   1.41090445061003e-06   1.8363813891266476e-06
-1.023067301408526e-05   2.0856389664023357e-06   6.1279067061647706e-06
-1.023067301408526e-05   2.0856389664023357e-06   6.1279067061647706e-06
-1.023067301408526e-05   2.0856389664023357e-06   6.1279067061647706e-06
-1.023067301408526e-05   2.0856389664023357e-06   6.1279067061647706e-06
-8.01394768722773e-06   1.3002316902212935e-06   2.904608860444238e-06
-8.01394768722773e-06   1.3002316902212935e-06   2.904608860444238e-06
-8.01394768722773e-06   1.3002316902212935e-06   2.904608860444238e-06
-8.01394768722773e-06   1.3002316902212935e-06   2.904608860444238e-06
-8.787739269788366e-06   1.7902222409321407e-06   3.900267167618798e-06
-8.787739269788366e-06   1.7902222409321407e-06   3.900267167618798e-06
-8.787739269788366e-06   1.7902222409321407e-06   3.900267167618798e-06
-8.787739269788366e-06   1.7902222409321407e-06   3.900267167618798e-06
-8.01394768722773e-06   2.0856389664023357e-06   6.599151071873363e-06
-8.01394768722773e-06   2.0856389664023357e-06   6.599151071873363e-06
-8.01394768722773e-06   2.0856389664023357e-06   6.599151071873363e-06
-8.01394768722773e-06   2.0856389664023357e-06   6.599151071873363e-06
-1.023067301408526e-05   1.3002316902213477e-06   2.433364494735564e-06
-1.023067301408526e-05   1.3002316902213477e-06   2.433364494735564e-06
-1.023067301408526e-05   1.3002316902213477e-06   2.433364494735564e-06
-1.023067301408526e-05   1.3002316902213477e-06   2.433364494735564e-06
-1.0662780940102259e-05   1.7918393083189276e-06   7.795930443001511e-06
-1.0662780940102259e-05   1.7918393083189276e-06   7.795930443001511e-06
-1.0662780940102259e-05   1.7918393083189276e-06   7.795930443001511e-06
-1.0662780940102259e-05   1.7918393083189276e-06   7.795930443001511e-06
-8.130233090123285e-06   1.0428740760427e-06   4.024396499069133e-06
-8.130233090123285e-06   1.0428740760427e-06   4.024396499069133e-06
-8.130233090123285e-06   1.0428740760427e-06   4.024396499069133e-06
-8.130233090123285e-06   1.0428740760427e-06   4.024396499069133e-06
-8.881835878092544e-06   1.6679207367106797e-06   4.902039815950329e-06
-8.881835878092544e-06   1.6679207367106797e-06   4.902039815950329e-06
-8.881835878092544e-06   1.6679207367106797e-06   4.902039815950329e-06
-8.881835878092544e-06   1.6679207367106797e-06   4.902039815950329e-06
-3.5660192708575803e-06   6.623410470084118e-07   4.674565023006765e-06
-3.5660192708575803e-06   6.623410470084118e-07   4.674565023006765e-06
-3.5660192708575803e-06   6.623410470084118e-07   4.674565023006765e-06
-3.5660192708575803e-06   6.623410470084118e-07   4.674565023006765e-06
-4.039152333610195e-06   1.276388306968427e-06   4.254438274394997e-06
-4.039152333610195e-06   1.276388306968427e-06   4.254438274394997e-06
-4.039152333610195e-06   1.276388306968427e-06   4.254438274394997e-06
-4.039152333610195e-06   1.276388306968427e-06   4.254438274394997e-06
-4.150041735527212e-06   4.3840834058986875e-07   4.983349041473448e-06
-4.150041735527212e-06   4.3840834058986875e-07   4.983349041473448e-06
-4.150041735527212e-06   4.3840834058986875e-07   4.983349041473448e-06
-4.150041735527212e-06   4.3840834058986875e-07   4.983349041473448e-06
-4.0188961672864716e-06   9.921411030584977e-07   4.43253343692434e-06
-4.0188961672864716e-06   9.921411030584977e-07   4.43253343692434e-06
-4.0188961672864716e-06   9.921411030584977e-07   4.43253343692434e-06
-4.0188961672864716e-06   9.921411030584977e-07   4.43253343692434e-06
-3.849752198648092e-06   7.84699418787194e-07   4.27509183308981e-06
-3.849752198648092e-06   7.84699418787194e-07   4.27509183308981e-06
-3.849752198648092e-06   7.84699418787194e-07   4.27509183308981e-06
-3.849752198648092e-06   7.84699418787194e-07   4.27509183308981e-06
-4.018896167286478e-06   4.3840834058986875e-07   4.651109383992254e-06
-4.018896167286478e-06   4.3840834058986875e-07   4.651109383992254e-06
-4.018896167286478e-06   4.3840834058986875e-07   4.651109383992254e-06
-4.018896167286478e-06   4.3840834058986875e-07   4.651109383992254e-06
-4.150041735527212e-06   9.921411030584977e-07   4.764773094405561e-06
-4.150041735527212e-06   9.921411030584977e-07   4.764773094405561e-06
-4.150041735527212e-06   9.921411030584977e-07   4.764773094405561e-06
-4.150041735527212e-06   9.921411030584977e-07   4.764773094405561e-06
-4.293695782050896e-06   3.171713105094018e-07   5.118881421863964e-06
-4.293695782050896e-06   3.171713105094018e-07   5.118881421863964e-06
-4.293695782050896e-06   3.171713105094018e-07   5.118881421863964e-06
-4.293695782050896e-06   3.171713105094018e-07   5.118881421863964e-06
-4.4609796580481765e-06   7.976399448091933e-07   5.109406701279589e-06
-4.4609796580481765e-06   7.976399448091933e-07   5.109406701279589e-06
-4.4609796580481765e-06   7.976399448091933e-07   5.109406701279589e-06
-4.4609796580481765e-06   7.976399448091933e-07   5.109406701279589e-06
-4.118529844818109e-06   6.626939408577539e-07   4.619624614933595e-06
-4.118529844818109e-06   6.626939408577539e-07   4.619624614933595e-06
-4.118529844818109e-06   6.626939408577539e-07   4.619624614933595e-06
-4.118529844818109e-06   6.626939408577539e-07   4.619624614933595e-06
-4.460979658048183e-06   3.171713105094018e-07   4.830600241284024e-06
-4.460979658048183e-06   3.171713105094018e-07   4.830600241284024e-06
-4.460979658048183e-06   3.171713105094018e-07   4.830600241284024e-06
-4.460979658048183e-06   3.171713105094018e-07   4.830600241284024e-06
-4.293695782050896e-06   7.976399448091933e-07   5.397687881859414e-06
-4.293695782050896e-06   7.976399448091933e-07   5.397687881859414e-06
-4.293695782050896e-06   7.976399448091933e-07   5.397687881859414e-06
-4.293695782050896e-06   7.976399448091933e-07   5.397687881859414e-06
-4.3876697116261135e-06   6.199772495033137e-08   5.587290600154223e-06
-4.3876697116261135e-06   6.199772495033137e-08   5.587290600154223e-06
-4.3876697116261135e-06   6.199772495033137e-08   5.587290600154223e-06
-4.3876697116261135e-06   6.199772495033137e-08   5.587290600154223e-06
-4.932700194764175e-06   3.203520887173363e-07   6.3406621204573766e-06
-4.932700194764175e-06   3.203520887173363e-07   6.3406621204573766e-06
-4.932700194764175e-06   3.203520887173363e-07   6.3406621204573766e-06
-4.932700194764175e-06   3.203520887173363e-07   6.3406621204573766e-06
-4.314637805558711e-06   5.154740410146441e-07   5.193484967069754e-06
-4.314637805558711e-06   5.154740410146441e-07   5.193484967069754e-06
-4.314637805558711e-06   5.154740410146441e-07   5.193484967069754e-06
-4.314637805558711e-06   5.154740410146441e-07   5.193484967069754e-06
-4.039152333610195e-06   7.983017465910264e-07   9.152472465136794e-06
-4.039152333610195e-06   7.983017465910264e-07   9.152472465136794e-06
-4.039152333610195e-06   7.983017465910264e-07   9.152472465136794e-06
-4.039152333610195e-06   7.983017465910264e-07   9.152472465136794e-06
-4.179516396394472e-06   3.316721858495782e-07   8.638554624051405e-06
-4.179516396394472e-06   3.316721858495782e-07   8.638554624051405e-06
-4.179516396394472e-06   3.316721858495782e-07   8.638554624051405e-06
-4.179516396394472e-06   3.316721858495782e-07   8.638554624051405e-06
-4.217560747389776e-06   5.493215829194438e-07   8.804082803049959e-06
-4.217560747389776e-06   5.493215829194438e-07   8.804082803049959e-06
-4.217560747389776e-06   5.493215829194438e-07   8.804082803049959e-06
-4.217560747389776e-06   5.493215829194438e-07   8.804082803049959e-06
-4.150041735527212e-06   1.5511102412424848e-07   8.92807745188951e-06
-4.150041735527212e-06   1.5511102412424848e-07   8.92807745188951e-06
-4.150041735527212e-06   1.5511102412424848e-07   8.92807745188951e-06
-4.150041735527212e-06   1.5511102412424848e-07   8.92807745188951e-06
-4.135743932745813e-06   4.040074803657377e-07   8.754909906842246e-06
-4.135743932745813e-06   4.040074803657377e-07   8.754909906842246e-06
-4.135743932745813e-06   4.040074803657377e-07   8.754909906842246e-06
-4.135743932745813e-06   4.040074803657377e-07   8.754909906842246e-06
-4.150041735527217e-06   5.49321582919498e-07   9.040609138327027e-06
-4.150041735527217e-06   5.49321582919498e-07   9.040609138327027e-06
-4.150041735527217e-06   5.49321582919498e-07   9.040609138327027e-06
-4.150041735527217e-06   5.49321582919498e-07   9.040609138327027e-06
-4.217560747389776e-06   1.5511102412424848e-07   8.691551116612323e-06
-4.217560747389776e-06   1.5511102412424848e-07   8.691551116612323e-06
-4.217560747389776e-06   1.5511102412424848e-07   8.691551116612323e-06
-4.217560747389776e-06   1.5511102412424848e-07   8.691551116612323e-06
-4.263964928638222e-06   3.2131250280907023e-07   8.914615315610966e-06
-4.263964928638222e-06   3.2131250280907023e-07   8.914615315610966e-06
-4.263964928638222e-06   3.2131250280907023e-07   8.914615315610966e-06
-4.263964928638222e-06   3.2131250280907023e-07   8.914615315610966e-06
-4.293695782050896e-06   -4.606929390705769e-08   9.184595815995105e-06
-4.293695782050896e-06   -4.606929390705769e-08   9.184595815995105e-06
-4.293695782050896e-06   -4.606929390705769e-08   9.184595815995105e-06
-4.293695782050896e-06   -4.606929390705769e-08   9.184595815995105e-06
-4.181566339755196e-06   2.596638785800514e-07   8.814273508676815e-06
-4.181566339755196e-06   2.596638785800514e-07   8.814273508676815e-06
-4.181566339755196e-06   2.596638785800514e-07   8.814273508676815e-06
-4.181566339755196e-06   2.596638785800514e-07   8.814273508676815e-06
-4.293695782050896e-06   3.2131250280912444e-07   9.135044393640578e-06
-4.293695782050896e-06   3.2131250280912444e-07   9.135044393640578e-06
-4.293695782050896e-06   3.2131250280912444e-07   9.135044393640578e-06
-4.293695782050896e-06   3.2131250280912444e-07   9.135044393640578e-06
-4.263964928638216e-06   -4.606929390705769e-08   8.964166737965426e-06
-4.263964928638216e-06   -4.606929390705769e-08   8.964166737965426e-06
-4.263964928638216e-06   -4.606929390705769e-08   8.964166737965426e-06
-4.263964928638216e-06   -4.606929390705769e-08   8.964166737965426e-06
-4.299860738707171e-06   7.622705776777396e-08   9.161093752245377e-06
-4.299860738707171e-06   7.622705776777396e-08   9.161093752245377e-06
-4.299860738707171e-06   7.622705776777396e-08   9.161093752245377e-06
-4.299860738707171e-06   7.622705776777396e-08   9.161093752245377e-06
-4.387669711626098e-06   -3.082498718505575e-07   9.538128198214454e-06
-4.387669711626098e-06   -3.082498718505575e-07   9.538128198214454e-06
-4.387669711626098e-06   -3.082498718505575e-07   9.538128198214454e-06
-4.387669711626098e-06   -3.082498718505575e-07   9.538128198214454e-06
-4.2505934796749796e-06   9.218652161411102e-08   9.06940597555026e-06
-4.2505934796749796e-06   9.218652161411102e-08   9.06940597555026e-06
-4.2505934796749796e-06   9.218652161411102e-08   9.06940597555026e-06
-4.2505934796749796e-06   9.218652161411102e-08   9.06940597555026e-06
-4.179516396394472e-06   9.69370661102096e-07   1.0091781767841972e-05
-4.179516396394472e-06   9.69370661102096e-07   1.0091781767841972e-05
-4.179516396394472e-06   9.69370661102096e-07   1.0091781767841972e-05
-4.179516396394472e-06   9.69370661102096e-07   1.0091781767841972e-05
-4.569798764279278e-06   9.412003198995197e-08   8.916160777233453e-06
-4.569798764279278e-06   9.412003198995197e-08   8.916160777233453e-06
-4.569798764279278e-06   9.412003198995197e-08   8.916160777233453e-06
-4.569798764279278e-06   9.412003198995197e-08   8.916160777233453e-06
-4.586296493579308e-06   7.400860969418552e-07   9.576202596525566e-06
-4.586296493579308e-06   7.400860969418552e-07   9.576202596525566e-06
-4.586296493579308e-06   7.400860969418552e-07   9.576202596525566e-06
-4.586296493579308e-06   7.400860969418552e-07   9.576202596525566e-06
-4.217560747389776e-06   -5.282114601864573e-08   9.43738736531929e-06
-4.217560747389776e-06   -5.282114601864573e-08   9.43738736531929e-06
-4.217560747389776e-06   -5.282114601864573e-08   9.43738736531929e-06
-4.217560747389776e-06   -5.282114601864573e-08   9.43738736531929e-06
-4.381720707202177e-06   4.2178535352295184e-07   9.426223398615024e-06
-4.381720707202177e-06   4.2178535352295184e-07   9.426223398615024e-06
-4.381720707202177e-06   4.2178535352295184e-07   9.426223398615024e-06
-4.381720707202177e-06   4.2178535352295184e-07   9.426223398615024e-06
-4.217560747389776e-06   7.400860969418552e-07   1.0051946942301823e-05
-4.217560747389776e-06   7.400860969418552e-07   1.0051946942301823e-05
-4.217560747389776e-06   7.400860969418552e-07   1.0051946942301823e-05
-4.217560747389776e-06   7.400860969418552e-07   1.0051946942301823e-05
-4.586296493579308e-06   -5.282114601864573e-08   8.961643019542978e-06
-4.586296493579308e-06   -5.282114601864573e-08   8.961643019542978e-06
-4.586296493579308e-06   -5.282114601864573e-08   8.961643019542978e-06
-4.586296493579308e-06   -5.282114601864573e-08   8.961643019542978e-06
-4.612001890613496e-06   5.072040422123936e-07   9.720889280431528e-06
-4.612001890613496e-06   5.072040422123936e-07   9.720889280431528e-06
-4.612001890613496e-06   5.072040422123936e-07   9.720889280431528e-06
-4.612001890613496e-06   5.072040422123936e-07   9.720889280431528e-06
-4.263964928638216e-06   -2.286123776461626e-07   9.582317529054513e-06
-4.263964928638216e-06   -2.286123776461626e-07   9.582317529054513e-06
-4.263964928638216e-06   -2.286123776461626e-07   9.582317529054513e-06
-4.263964928638216e-06   -2.286123776461626e-07   9.582317529054513e-06
-4.38937442342901e-06   2.7718897476121124e-07   9.487852542261423e-06
-4.38937442342901e-06   2.7718897476121124e-07   9.487852542261423e-06
-4.38937442342901e-06   2.7718897476121124e-07   9.487852542261423e-06
-4.38937442342901e-06   2.7718897476121124e-07   9.487852542261423e-06
-4.263964928638216e-06   5.072040422123936e-07   1.0162379132346613e-05
-4.263964928638216e-06   5.072040422123936e-07   1.0162379132346613e-05
-4.263964928638216e-06   5.072040422123936e-07   1.0162379132346613e-05
-4.263964928638216e-06   5.072040422123936e-07   1.0162379132346613e-05
-4.612001890613496e-06   -2.286123776461626e-07   9.140827677139347e-06
-4.612001890613496e-06   -2.286123776461626e-07   9.140827677139347e-06
-4.612001890613496e-06   -2.286123776461626e-07   9.140827677139347e-06
-4.612001890613496e-06   -2.286123776461626e-07   9.140827677139347e-06
-4.630592067948543e-06   2.8715264646336e-07   9.982586279589506e-06
-4.630592067948543e-06   2.8715264646336e-07   9.982586279589506e-06
-4.630592067948543e-06   2.8715264646336e-07   9.982586279589506e-06
-4.630592067948543e-06   2.8715264646336e-07   9.982586279589506e-06
-4.299860738707164e-06   -4.03753381816353e-07   9.845911014488306e-06
-4.299860738707164e-06   -4.03753381816353e-07   9.845911014488306e-06
-4.299860738707164e-06   -4.03753381816353e-07   9.845911014488306e-06
-4.299860738707164e-06   -4.03753381816353e-07   9.845911014488306e-06
-4.404612019316425e-06   1.2883296988177315e-07   9.700944671151246e-06
-4.404612019316425e-06   1.2883296988177315e-07   9.700944671151246e-06
-4.404612019316425e-06   1.2883296988177315e-07   9.700944671151246e-06
-4.404612019316425e-06   1.2883296988177315e-07   9.700944671151246e-06
-4.569798764279278e-06   1.3183077226216252e-06   8.241896212004407e-06
-4.569798764279278e-06   1.3183077226216252e-06   8.241896212004407e-06
-4.569798764279278e-06   1.3183077226216252e-06   8.241896212004407e-06
-4.569798764279278e-06   1.3183077226216252e-06   8.241896212004407e-06
-5.103527694150348e-06   4.366797366559395e-07   6.823371203973171e-06
-5.103527694150348e-06   4.366797366559395e-07   6.823371203973171e-06
-5.103527694150348e-06   4.366797366559395e-07   6.823371203973171e-06
-5.103527694150348e-06   4.366797366559395e-07   6.823371203973171e-06
-5.1174848074156875e-06   1.0772568296229883e-06   7.78611238877485e-06
-5.1174848074156875e-06   1.0772568296229883e-06   7.78611238877485e-06
-5.1174848074156875e-06   1.0772568296229883e-06   7.78611238877485e-06
-5.1174848074156875e-06   1.0772568296229883e-06   7.78611238877485e-06
-4.586296493579308e-06   2.4233676286722827e-07   7.401750572434343e-06
-4.586296493579308e-06   2.4233676286722827e-07   7.401750572434343e-06
-4.586296493579308e-06   2.4233676286722827e-07   7.401750572434343e-06
-4.586296493579308e-06   2.4233676286722827e-07   7.401750572434343e-06
-4.831776944860832e-06   7.850045318014208e-07   7.485283996543025e-06
-4.831776944860832e-06   7.850045318014208e-07   7.485283996543025e-06
-4.831776944860832e-06   7.850045318014208e-07   7.485283996543025e-06
-4.831776944860832e-06   7.850045318014208e-07   7.485283996543025e-06
-4.586296493579308e-06   1.0772568296229883e-06   8.28706442882829e-06
-4.586296493579308e-06   1.0772568296229883e-06   8.28706442882829e-06
-4.586296493579308e-06   1.0772568296229883e-06   8.28706442882829e-06
-4.586296493579308e-06   1.0772568296229883e-06   8.28706442882829e-06
-5.1174848074156875e-06   2.4233676286722827e-07   6.9007985323809304e-06
-5.1174848074156875e-06   2.4233676286722827e-07   6.9007985323809304e-06
-5.1174848074156875e-06   2.4233676286722827e-07   6.9007985323809304e-06
-5.1174848074156875e-06   2.4233676286722827e-07   6.9007985323809304e-06
-5.177498847959639e-06   8.620882746840776e-07   8.07146228632116e-06
-5.177498847959639e-06   8.620882746840776e-07   8.07146228632116e-06
-5.177498847959639e-06   8.620882746840776e-07   8.07146228632116e-06
-5.177498847959639e-06   8.620882746840776e-07   8.07146228632116e-06
-4.612001890613496e-06   7.550562164903001e-08   7.600916949231979e-06
-4.612001890613496e-06   7.550562164903001e-08   7.600916949231979e-06
-4.612001890613496e-06   7.550562164903001e-08   7.600916949231979e-06
-4.612001890613496e-06   7.550562164903001e-08   7.600916949231979e-06
-4.822992545574446e-06   6.263787523003465e-07   7.622044162442843e-06
-4.822992545574446e-06   6.263787523003465e-07   7.622044162442843e-06
-4.822992545574446e-06   6.263787523003465e-07   7.622044162442843e-06
-4.822992545574446e-06   6.263787523003465e-07   7.622044162442843e-06
-4.612001890613496e-06   8.620882746840234e-07   8.543411878142042e-06
-4.612001890613496e-06   8.620882746840234e-07   8.543411878142042e-06
-4.612001890613496e-06   8.620882746840234e-07   8.543411878142042e-06
-4.612001890613496e-06   8.620882746840234e-07   8.543411878142042e-06
-5.177498847959639e-06   7.550562164908422e-08   7.128967357410962e-06
-5.177498847959639e-06   7.550562164908422e-08   7.128967357410962e-06
-5.177498847959639e-06   7.550562164908422e-08   7.128967357410962e-06
-5.177498847959639e-06   7.550562164908422e-08   7.128967357410962e-06
-5.214801567695107e-06   6.421240927852265e-07   8.42486304146109e-06
-5.214801567695107e-06   6.421240927852265e-07   8.42486304146109e-06
-5.214801567695107e-06   6.421240927852265e-07   8.42486304146109e-06
-5.214801567695107e-06   6.421240927852265e-07   8.42486304146109e-06
-4.630592067948543e-06   -9.294538899932894e-08   7.892222230954137e-06
-4.630592067948543e-06   -9.294538899932894e-08   7.892222230954137e-06
-4.630592067948543e-06   -9.294538899932894e-08   7.892222230954137e-06
-4.630592067948543e-06   -9.294538899932894e-08   7.892222230954137e-06
-4.852496494207808e-06   4.841342783154946e-07   7.915815140997122e-06
-4.852496494207808e-06   4.841342783154946e-07   7.915815140997122e-06
-4.852496494207808e-06   4.841342783154946e-07   7.915815140997122e-06
-4.852496494207808e-06   4.841342783154946e-07   7.915815140997122e-06
-5.103527694150348e-06   1.5711022808632654e-06   3.2099521182501296e-06
-5.103527694150348e-06   1.5711022808632654e-06   3.2099521182501296e-06
-5.103527694150348e-06   1.5711022808632654e-06   3.2099521182501296e-06
-5.103527694150348e-06   1.5711022808632654e-06   3.2099521182501296e-06
-5.119242439879414e-06   7.290827219834915e-07   2.678549140040478e-06
-5.119242439879414e-06   7.290827219834915e-07   2.678549140040478e-06
-5.119242439879414e-06   7.290827219834915e-07   2.678549140040478e-06
-5.119242439879414e-06   7.290827219834915e-07   2.678549140040478e-06
-5.3828749319421196e-06   1.41090445061003e-06   3.5228805501347584e-06
-5.3828749319421196e-06   1.41090445061003e-06   3.5228805501347584e-06
-5.3828749319421196e-06   1.41090445061003e-06   3.5228805501347584e-06
-5.3828749319421196e-06   1.41090445061003e-06   3.5228805501347584e-06
-5.1174848074156875e-06   5.903618378515847e-07   3.5728892435791344e-06
-5.1174848074156875e-06   5.903618378515847e-07   3.5728892435791344e-06
-5.1174848074156875e-06   5.903618378515847e-07   3.5728892435791344e-06
-5.1174848074156875e-06   5.903618378515847e-07   3.5728892435791344e-06
-5.011718162702629e-06   1.108768308019409e-06   3.0855676202900736e-06
-5.011718162702629e-06   1.108768308019409e-06   3.0855676202900736e-06
-5.011718162702629e-06   1.108768308019409e-06   3.0855676202900736e-06
-5.011718162702629e-06   1.108768308019409e-06   3.0855676202900736e-06
-5.1174848074156875e-06   1.41090445061003e-06   4.015206117789782e-06
-5.1174848074156875e-06   1.41090445061003e-06   4.015206117789782e-06
-5.1174848074156875e-06   1.41090445061003e-06   4.015206117789782e-06
-5.1174848074156875e-06   1.41090445061003e-06   4.015206117789782e-06
-5.3828749319421196e-06   5.903618378515847e-07   3.0805636759240022e-06
-5.3828749319421196e-06   5.903618378515847e-07   3.0805636759240022e-06
-5.3828749319421196e-06   5.903618378515847e-07   3.0805636759240022e-06
-5.3828749319421196e-06   5.903618378515847e-07   3.0805636759240022e-06
-5.613767253304471e-06   1.3002316902212935e-06   4.170681300049318e-06
-5.613767253304471e-06   1.3002316902212935e-06   4.170681300049318e-06
-5.613767253304471e-06   1.3002316902212935e-06   4.170681300049318e-06
-5.613767253304471e-06   1.3002316902212935e-06   4.170681300049318e-06
-5.177498847959612e-06   4.999537491083323e-07   3.923734055808945e-06
-5.177498847959612e-06   4.999537491083323e-07   3.923734055808945e-06
-5.177498847959612e-06   4.999537491083323e-07   3.923734055808945e-06
-5.177498847959612e-06   4.999537491083323e-07   3.923734055808945e-06
-5.201633290350736e-06   1.0295953333838205e-06   3.64617317589566e-06
-5.201633290350736e-06   1.0295953333838205e-06   3.64617317589566e-06
-5.201633290350736e-06   1.0295953333838205e-06   3.64617317589566e-06
-5.201633290350736e-06   1.0295953333838205e-06   3.64617317589566e-06
-5.177498847959612e-06   1.3002316902213477e-06   4.650848064717008e-06
-5.177498847959612e-06   1.3002316902213477e-06   4.650848064717008e-06
-5.177498847959612e-06   1.3002316902213477e-06   4.650848064717008e-06
-5.177498847959612e-06   1.3002316902213477e-06   4.650848064717008e-06
-5.613767253304498e-06   4.999537491083323e-07   3.4435672911410924e-06
-5.613767253304498e-06   4.999537491083323e-07   3.4435672911410924e-06
-5.613767253304498e-06   4.999537491083323e-07   3.4435672911410924e-06
-5.613767253304498e-06   4.999537491083323e-07   3.4435672911410924e-06
-5.9523477835111505e-06   1.0428740760426458e-06   5.359694213948941e-06
-5.9523477835111505e-06   1.0428740760426458e-06   5.359694213948941e-06
-5.9523477835111505e-06   1.0428740760426458e-06   5.359694213948941e-06
-5.9523477835111505e-06   1.0428740760426458e-06   5.359694213948941e-06
-5.214801567695107e-06   3.146611824998745e-07   4.567378257047726e-06
-5.214801567695107e-06   3.146611824998745e-07   4.567378257047726e-06
-5.214801567695107e-06   3.146611824998745e-07   4.567378257047726e-06
-5.214801567695107e-06   3.146611824998745e-07   4.567378257047726e-06
-5.266306141723666e-06   9.327658574589774e-07   4.282356408786148e-06
-5.266306141723666e-06   9.327658574589774e-07   4.282356408786148e-06
-5.266306141723666e-06   9.327658574589774e-07   4.282356408786148e-06
-5.266306141723666e-06   9.327658574589774e-07   4.282356408786148e-06
-9.626531848660482e-06   1.2763883069683729e-06   3.960933182925935e-06
-9.626531848660482e-06   1.2763883069683729e-06   3.960933182925935e-06
-9.626531848660482e-06   1.2763883069683729e-06   3.960933182925935e-06
-9.626531848660482e-06   1.2763883069683729e-06   3.960933182925935e-06
-6.562699535702977e-06   1.7595793628206796e-06   9.357235004699808e-06
-6.562699535702977e-06   1.7595793628206796e-06   9.357235004699808e-06
-6.562699535702977e-06   1.7595793628206796e-06   9.357235004699808e-06
-6.562699535702977e-06   1.7595793628206796e-06   9.357235004699808e-06
-6.563979563610298e-06   9.92141103058552e-07   4.439857465833949e-06
-6.563979563610298e-06   9.92141103058552e-07   4.439857465833949e-06
-6.563979563610298e-06   9.92141103058552e-07   4.439857465833949e-06
-6.563979563610298e-06   9.92141103058552e-07   4.439857465833949e-06
-1.0639178657981205e-05   6.813363294071574e-07   1.1418338820642981e-05
-1.0639178657981205e-05   6.813363294071574e-07   1.1418338820642981e-05
-1.0639178657981205e-05   6.813363294071574e-07   1.1418338820642981e-05
-1.0639178657981205e-05   6.813363294071574e-07   1.1418338820642981e-05
-7.915983654335154e-06   1.035390352436172e-06   6.667248067415456e-06
-7.915983654335154e-06   1.035390352436172e-06   6.667248067415456e-06
-7.915983654335154e-06   1.035390352436172e-06   6.667248067415456e-06
-7.915983654335154e-06   1.035390352436172e-06   6.667248067415456e-06
-1.0639178657981222e-05   9.92141103058552e-07   4.626340330024693e-06
-1.0639178657981222e-05   9.92141103058552e-07   4.626340330024693e-06
-1.0639178657981222e-05   9.92141103058552e-07   4.626340330024693e-06
-1.0639178657981222e-05   9.92141103058552e-07   4.626340330024693e-06
-6.563979563610288e-06   6.813363294071574e-07   1.1231855956452122e-05
-6.563979563610288e-06   6.813363294071574e-07   1.1231855956452122e-05
-6.563979563610288e-06   6.813363294071574e-07   1.1231855956452122e-05
-6.563979563610288e-06   6.813363294071574e-07   1.1231855956452122e-05
-6.664731480702387e-06   7.976399448091933e-07   4.9380651374784045e-06
-6.664731480702387e-06   7.976399448091933e-07   4.9380651374784045e-06
-6.664731480702387e-06   7.976399448091933e-07   4.9380651374784045e-06
-6.664731480702387e-06   7.976399448091933e-07   4.9380651374784045e-06
-1.0686788314600953e-05   4.777376978115037e-07   1.183343454217465e-05
-1.0686788314600953e-05   4.777376978115037e-07   1.183343454217465e-05
-1.0686788314600953e-05   4.777376978115037e-07   1.183343454217465e-05
-1.0686788314600953e-05   4.777376978115037e-07   1.183343454217465e-05
-8.464974217372212e-06   6.352699413407611e-07   8.035891700675794e-06
-8.464974217372212e-06   6.352699413407611e-07   8.035891700675794e-06
-8.464974217372212e-06   6.352699413407611e-07   8.035891700675794e-06
-8.464974217372212e-06   6.352699413407611e-07   8.035891700675794e-06
-1.068678831460097e-05   7.976399448091933e-07   5.130006485677067e-06
-1.068678831460097e-05   7.976399448091933e-07   5.130006485677067e-06
-1.068678831460097e-05   7.976399448091933e-07   5.130006485677067e-06
-1.068678831460097e-05   7.976399448091933e-07   5.130006485677067e-06
-6.664731480702374e-06   4.777376978115037e-07   1.1641493193976062e-05
-6.664731480702374e-06   4.777376978115037e-07   1.1641493193976062e-05
-6.664731480702374e-06   4.777376978115037e-07   1.1641493193976062e-05
-6.664731480702374e-06   4.777376978115037e-07   1.1641493193976062e-05
-6.604632008033198e-06   3.203520887173363e-07   5.8073022366022755e-06
-6.604632008033198e-06   3.203520887173363e-07   5.8073022366022755e-06
-6.604632008033198e-06   3.203520887173363e-07   5.8073022366022755e-06
-6.604632008033198e-06   3.203520887173363e-07   5.8073022366022755e-06
-1.0819981567463461e-05   -3.9469489127995794e-07   1.3261913023651052e-05
-1.0819981567463461e-05   -3.9469489127995794e-07   1.3261913023651052e-05
-1.0819981567463461e-05   -3.9469489127995794e-07   1.3261913023651052e-05
-1.0819981567463461e-05   -3.9469489127995794e-07   1.3261913023651052e-05
-8.34714997846826e-06   2.9407530128749775e-07   8.727264926451905e-06
-8.34714997846826e-06   2.9407530128749775e-07   8.727264926451905e-06
-8.34714997846826e-06   2.9407530128749775e-07   8.727264926451905e-06
-8.34714997846826e-06   2.9407530128749775e-07   8.727264926451905e-06
-6.562699535702989e-06   3.31672185849524e-07   8.91494190253858e-06
-6.562699535702989e-06   3.31672185849524e-07   8.91494190253858e-06
-6.562699535702989e-06   3.31672185849524e-07   8.91494190253858e-06
-6.562699535702989e-06   3.31672185849524e-07   8.91494190253858e-06
-4.057416693041019e-06   -2.0881874145582625e-06   1.163849754673054e-05
-4.057416693041019e-06   -2.0881874145582625e-06   1.163849754673054e-05
-4.057416693041019e-06   -2.0881874145582625e-06   1.163849754673054e-05
-4.057416693041019e-06   -2.0881874145582625e-06   1.163849754673054e-05
-4.072829817758159e-06   1.5511102412419427e-07   7.47800100724111e-06
-4.072829817758159e-06   1.5511102412419427e-07   7.47800100724111e-06
-4.072829817758159e-06   1.5511102412419427e-07   7.47800100724111e-06
-4.072829817758159e-06   1.5511102412419427e-07   7.47800100724111e-06
-6.563979563610288e-06   -1.720157002670417e-06   1.2755078066404783e-05
-6.563979563610288e-06   -1.720157002670417e-06   1.2755078066404783e-05
-6.563979563610288e-06   -1.720157002670417e-06   1.2755078066404783e-05
-6.563979563610288e-06   -1.720157002670417e-06   1.2755078066404783e-05
-5.288729543515535e-06   -1.0347122889139038e-06   1.021839453799295e-05
-5.288729543515535e-06   -1.0347122889139038e-06   1.021839453799295e-05
-5.288729543515535e-06   -1.0347122889139038e-06   1.021839453799295e-05
-5.288729543515535e-06   -1.0347122889139038e-06   1.021839453799295e-05
-6.563979563610295e-06   1.5511102412419427e-07   8.603161823317779e-06
-6.563979563610295e-06   1.5511102412419427e-07   8.603161823317779e-06
-6.563979563610295e-06   1.5511102412419427e-07   8.603161823317779e-06
-6.563979563610295e-06   1.5511102412419427e-07   8.603161823317779e-06
-4.072829817758152e-06   -1.720157002670417e-06   1.1629917250328033e-05
-4.072829817758152e-06   -1.720157002670417e-06   1.1629917250328033e-05
-4.072829817758152e-06   -1.720157002670417e-06   1.1629917250328033e-05
-4.072829817758152e-06   -1.720157002670417e-06   1.1629917250328033e-05
-4.099082726711877e-06   -4.606929390700348e-08   7.699186840712507e-06
-4.099082726711877e-06   -4.606929390700348e-08   7.699186840712507e-06
-4.099082726711877e-06   -4.606929390700348e-08   7.699186840712507e-06
-4.099082726711877e-06   -4.606929390700348e-08   7.699186840712507e-06
-6.664731480702374e-06   -1.7557130120763958e-06   1.3001054328264963e-05
-6.664731480702374e-06   -1.7557130120763958e-06   1.3001054328264963e-05
-6.664731480702374e-06   -1.7557130120763958e-06   1.3001054328264963e-05
-6.664731480702374e-06   -1.7557130120763958e-06   1.3001054328264963e-05
-5.257469220195947e-06   -9.045191897435285e-07   1.014490093402117e-05
-5.257469220195947e-06   -9.045191897435285e-07   1.014490093402117e-05
-5.257469220195947e-06   -9.045191897435285e-07   1.014490093402117e-05
-5.257469220195947e-06   -9.045191897435285e-07   1.014490093402117e-05
-6.664731480702387e-06   -4.606929390705769e-08   8.724973071614164e-06
-6.664731480702387e-06   -4.606929390705769e-08   8.724973071614164e-06
-6.664731480702387e-06   -4.606929390705769e-08   8.724973071614164e-06
-6.664731480702387e-06   -4.606929390705769e-08   8.724973071614164e-06
-4.099082726711877e-06   -1.7557130120763958e-06   1.1975268097363333e-05
-4.099082726711877e-06   -1.7557130120763958e-06   1.1975268097363333e-05
-4.099082726711877e-06   -1.7557130120763958e-06   1.1975268097363333e-05
-4.099082726711877e-06   -1.7557130120763958e-06   1.1975268097363333e-05
-4.071373464271399e-06   -3.082498718505575e-07   7.97750831897553e-06
-4.071373464271399e-06   -3.082498718505575e-07   7.97750831897553e-06
-4.071373464271399e-06   -3.082498718505575e-07   7.97750831897553e-06
-4.071373464271399e-06   -3.082498718505575e-07   7.97750831897553e-06
-6.604632008033178e-06   -1.7619955003899388e-06   1.3071853269035436e-05
-6.604632008033178e-06   -1.7619955003899388e-06   1.3071853269035436e-05
-6.604632008033178e-06   -1.7619955003899388e-06   1.3071853269035436e-05
-6.604632008033178e-06   -1.7619955003899388e-06   1.3071853269035436e-05
-5.292828632029703e-06   -1.0090019891253934e-06   1.043371820227093e-05
-5.292828632029703e-06   -1.0090019891253934e-06   1.043371820227093e-05
-5.292828632029703e-06   -1.0090019891253934e-06   1.043371820227093e-05
-5.292828632029703e-06   -1.0090019891253934e-06   1.043371820227093e-05
-4.057416693041019e-06   9.412003199000618e-08   8.265782672943142e-06
-4.057416693041019e-06   9.412003199000618e-08   8.265782672943142e-06
-4.057416693041019e-06   9.412003199000618e-08   8.265782672943142e-06
-4.057416693041019e-06   9.412003199000618e-08   8.265782672943142e-06
-3.0223496867068226e-06   -1.6324130826173206e-06   8.954974481402414e-06
-3.0223496867068226e-06   -1.6324130826173206e-06   8.954974481402414e-06
-3.0223496867068226e-06   -1.6324130826173206e-06   8.954974481402414e-06
-3.0223496867068226e-06   -1.6324130826173206e-06   8.954974481402414e-06
-3.003623382680015e-06   -5.282114601864573e-08   7.293569177197737e-06
-3.003623382680015e-06   -5.282114601864573e-08   7.293569177197737e-06
-3.003623382680015e-06   -5.282114601864573e-08   7.293569177197737e-06
-3.003623382680015e-06   -5.282114601864573e-08   7.293569177197737e-06
-4.072829817758152e-06   -1.6032679439358967e-06   1.0005847981078283e-05
-4.072829817758152e-06   -1.6032679439358967e-06   1.0005847981078283e-05
-4.072829817758152e-06   -1.6032679439358967e-06   1.0005847981078283e-05
-4.072829817758152e-06   -1.6032679439358967e-06   1.0005847981078283e-05
-3.5185609892281673e-06   -8.227480496698285e-07   8.613754663635301e-06
-3.5185609892281673e-06   -8.227480496698285e-07   8.613754663635301e-06
-3.5185609892281673e-06   -8.227480496698285e-07   8.613754663635301e-06
-3.5185609892281673e-06   -8.227480496698285e-07   8.613754663635301e-06
-4.072829817758152e-06   -5.282114601864573e-08   8.223837255947995e-06
-4.072829817758152e-06   -5.282114601864573e-08   8.223837255947995e-06
-4.072829817758152e-06   -5.282114601864573e-08   8.223837255947995e-06
-4.072829817758152e-06   -5.282114601864573e-08   8.223837255947995e-06
-3.003623382680015e-06   -1.6032679439358967e-06   9.07557990232793e-06
-3.003623382680015e-06   -1.6032679439358967e-06   9.07557990232793e-06
-3.003623382680015e-06   -1.6032679439358967e-06   9.07557990232793e-06
-3.003623382680015e-06   -1.6032679439358967e-06   9.07557990232793e-06
-2.990349984376763e-06   -2.286123776461626e-07   7.4643682736577665e-06
-2.990349984376763e-06   -2.286123776461626e-07   7.4643682736577665e-06
-2.990349984376763e-06   -2.286123776461626e-07   7.4643682736577665e-06
-2.990349984376763e-06   -2.286123776461626e-07   7.4643682736577665e-06
-4.099082726711877e-06   -1.6502279745525246e-06   1.0165225535693442e-05
-4.099082726711877e-06   -1.6502279745525246e-06   1.0165225535693442e-05
-4.099082726711877e-06   -1.6502279745525246e-06   1.0165225535693442e-05
-4.099082726711877e-06   -1.6502279745525246e-06   1.0165225535693442e-05
-3.4958336133877026e-06   -8.729306017403763e-07   8.693431923132398e-06
-3.4958336133877026e-06   -8.729306017403763e-07   8.693431923132398e-06
-3.4958336133877026e-06   -8.729306017403763e-07   8.693431923132398e-06
-3.4958336133877026e-06   -8.729306017403763e-07   8.693431923132398e-06
-4.099082726711877e-06   -2.2861237764621681e-07   8.317337631801622e-06
-4.099082726711877e-06   -2.2861237764621681e-07   8.317337631801622e-06
-4.099082726711877e-06   -2.2861237764621681e-07   8.317337631801622e-06
-4.099082726711877e-06   -2.2861237764621681e-07   8.317337631801622e-06
-2.990349984376763e-06   -1.6502279745525246e-06   9.312256177549641e-06
-2.990349984376763e-06   -1.6502279745525246e-06   9.312256177549641e-06
-2.990349984376763e-06   -1.6502279745525246e-06   9.312256177549641e-06
-2.990349984376763e-06   -1.6502279745525246e-06   9.312256177549641e-06
-2.9433377850502583e-06   -4.03753381816353e-07   7.730133538078933e-06
-2.9433377850502583e-06   -4.03753381816353e-07   7.730133538078933e-06
-2.9433377850502583e-06   -4.03753381816353e-07   7.730133538078933e-06
-2.9433377850502583e-06   -4.03753381816353e-07   7.730133538078933e-06
-4.071373464271399e-06   -1.7134929733853682e-06   1.0396036758388854e-05
-4.071373464271399e-06   -1.7134929733853682e-06   1.0396036758388854e-05
-4.071373464271399e-06   -1.7134929733853682e-06   1.0396036758388854e-05
-4.071373464271399e-06   -1.7134929733853682e-06   1.0396036758388854e-05
-3.469890960537156e-06   -9.480732226777228e-07   8.93431406840726e-06
-3.469890960537156e-06   -9.480732226777228e-07   8.93431406840726e-06
-3.469890960537156e-06   -9.480732226777228e-07   8.93431406840726e-06
-3.469890960537156e-06   -9.480732226777228e-07   8.93431406840726e-06
-3.0223496867068226e-06   4.366797366559395e-07   5.666050022497927e-06
-3.0223496867068226e-06   4.366797366559395e-07   5.666050022497927e-06
-3.0223496867068226e-06   4.366797366559395e-07   5.666050022497927e-06
-3.0223496867068226e-06   4.366797366559395e-07   5.666050022497927e-06
-2.5637632341677025e-06   -6.736009872208436e-07   5.764192342403717e-06
-2.5637632341677025e-06   -6.736009872208436e-07   5.764192342403717e-06
-2.5637632341677025e-06   -6.736009872208436e-07   5.764192342403717e-06
-2.5637632341677025e-06   -6.736009872208436e-07   5.764192342403717e-06
-2.518225478963861e-06   2.423367628672825e-07   5.117281660990116e-06
-2.518225478963861e-06   2.423367628672825e-07   5.117281660990116e-06
-2.518225478963861e-06   2.423367628672825e-07   5.117281660990116e-06
-2.518225478963861e-06   2.423367628672825e-07   5.117281660990116e-06
-3.003623382680015e-06   -7.84988352297612e-07   6.542673236282701e-06
-3.003623382680015e-06   -7.84988352297612e-07   6.542673236282701e-06
-3.003623382680015e-06   -7.84988352297612e-07   6.542673236282701e-06
-3.003623382680015e-06   -7.84988352297612e-07   6.542673236282701e-06
-2.7571524338313325e-06   -1.5428524317270863e-07   5.7534664560598915e-06
-2.7571524338313325e-06   -1.5428524317270863e-07   5.7534664560598915e-06
-2.7571524338313325e-06   -1.5428524317270863e-07   5.7534664560598915e-06
-2.7571524338313325e-06   -1.5428524317270863e-07   5.7534664560598915e-06
-3.003623382680015e-06   2.4233676286722827e-07   5.7336767300889934e-06
-3.003623382680015e-06   2.4233676286722827e-07   5.7336767300889934e-06
-3.003623382680015e-06   2.4233676286722827e-07   5.7336767300889934e-06
-3.003623382680015e-06   2.4233676286722827e-07   5.7336767300889934e-06
-2.518225478963834e-06   -7.84988352297612e-07   5.926278167183729e-06
-2.518225478963834e-06   -7.84988352297612e-07   5.926278167183729e-06
-2.518225478963834e-06   -7.84988352297612e-07   5.926278167183729e-06
-2.518225478963834e-06   -7.84988352297612e-07   5.926278167183729e-06
-2.503244489409674e-06   7.550562164908422e-08   5.356583083653823e-06
-2.503244489409674e-06   7.550562164908422e-08   5.356583083653823e-06
-2.503244489409674e-06   7.550562164908422e-08   5.356583083653823e-06
-2.503244489409674e-06   7.550562164908422e-08   5.356583083653823e-06
-2.990349984376763e-06   -8.709518151786045e-07   6.736300037362195e-06
-2.990349984376763e-06   -8.709518151786045e-07   6.736300037362195e-06
-2.990349984376763e-06   -8.709518151786045e-07   6.736300037362195e-06
-2.990349984376763e-06   -8.709518151786045e-07   6.736300037362195e-06
-2.7116831326046985e-06   -2.7129796710499417e-07   5.912062975564468e-06
-2.7116831326046985e-06   -2.7129796710499417e-07   5.912062975564468e-06
-2.7116831326046985e-06   -2.7129796710499417e-07   5.912062975564468e-06
-2.7116831326046985e-06   -2.7129796710499417e-07   5.912062975564468e-06
-2.990349984376763e-06   7.550562164903001e-08   5.924457545750399e-06
-2.990349984376763e-06   7.550562164903001e-08   5.924457545750399e-06
-2.990349984376763e-06   7.550562164903001e-08   5.924457545750399e-06
-2.990349984376763e-06   7.550562164903001e-08   5.924457545750399e-06
-2.503244489409674e-06   -8.709518151786045e-07   6.1684255752655925e-06
-2.503244489409674e-06   -8.709518151786045e-07   6.1684255752655925e-06
-2.503244489409674e-06   -8.709518151786045e-07   6.1684255752655925e-06
-2.503244489409674e-06   -8.709518151786045e-07   6.1684255752655925e-06
-2.4724498722924397e-06   -9.294538899932894e-08   5.657069964605131e-06
-2.4724498722924397e-06   -9.294538899932894e-08   5.657069964605131e-06
-2.4724498722924397e-06   -9.294538899932894e-08   5.657069964605131e-06
-2.4724498722924397e-06   -9.294538899932894e-08   5.657069964605131e-06
-2.9433377850502583e-06   -9.828094005117684e-07   6.975801559442186e-06
-2.9433377850502583e-06   -9.828094005117684e-07   6.975801559442186e-06
-2.9433377850502583e-06   -9.828094005117684e-07   6.975801559442186e-06
-2.9433377850502583e-06   -9.828094005117684e-07   6.975801559442186e-06
-2.6798509645883177e-06   -3.747344339245719e-07   6.171811878720224e-06
-2.6798509645883177e-06   -3.747344339245719e-07   6.171811878720224e-06
-2.6798509645883177e-06   -3.747344339245719e-07   6.171811878720224e-06
-2.6798509645883177e-06   -3.747344339245719e-07   6.171811878720224e-06
-2.5637632341677296e-06   7.290827219834915e-07   1.360271259567055e-06
-2.5637632341677296e-06   7.290827219834915e-07   1.360271259567055e-06
-2.5637632341677296e-06   7.290827219834915e-07   1.360271259567055e-06
-2.5637632341677296e-06   7.290827219834915e-07   1.360271259567055e-06
-1.5506544680905722e-06   -6.928266972947668e-08   2.569766634667812e-06
-1.5506544680905722e-06   -6.928266972947668e-08   2.569766634667812e-06
-1.5506544680905722e-06   -6.928266972947668e-08   2.569766634667812e-06
-1.5506544680905722e-06   -6.928266972947668e-08   2.569766634667812e-06
-1.6462121706903093e-06   5.903618378515305e-07   1.3756658804276942e-06
-1.6462121706903093e-06   5.903618378515305e-07   1.3756658804276942e-06
-1.6462121706903093e-06   5.903618378515305e-07   1.3756658804276942e-06
-1.6462121706903093e-06   5.903618378515305e-07   1.3756658804276942e-06
-2.518225478963861e-06   -9.914898174958535e-08   3.2427278859776002e-06
-2.518225478963861e-06   -9.914898174958535e-08   3.2427278859776002e-06
-2.518225478963861e-06   -9.914898174958535e-08   3.2427278859776002e-06
-2.518225478963861e-06   -9.914898174958535e-08   3.2427278859776002e-06
-1.9983422414840846e-06   3.7631373912106565e-07   2.090978190988932e-06
-1.9983422414840846e-06   3.7631373912106565e-07   2.090978190988932e-06
-1.9983422414840846e-06   3.7631373912106565e-07   2.090978190988932e-06
-1.9983422414840846e-06   3.7631373912106565e-07   2.090978190988932e-06
-2.518225478963861e-06   5.903618378515305e-07   1.789372372188212e-06
-2.518225478963861e-06   5.903618378515305e-07   1.789372372188212e-06
-2.518225478963861e-06   5.903618378515305e-07   1.789372372188212e-06
-2.518225478963861e-06   5.903618378515305e-07   1.789372372188212e-06
-1.6462121706903093e-06   -9.914898174958535e-08   2.829021394216947e-06
-1.6462121706903093e-06   -9.914898174958535e-08   2.829021394216947e-06
-1.6462121706903093e-06   -9.914898174958535e-08   2.829021394216947e-06
-1.6462121706903093e-06   -9.914898174958535e-08   2.829021394216947e-06
-1.7258756059069277e-06   4.999537491083323e-07   1.7681380365790482e-06
-1.7258756059069277e-06   4.999537491083323e-07   1.7681380365790482e-06
-1.7258756059069277e-06   4.999537491083323e-07   1.7681380365790482e-06
-1.7258756059069277e-06   4.999537491083323e-07   1.7681380365790482e-06
-2.503244489409674e-06   -1.387324933461477e-07   3.4469645878896452e-06
-2.503244489409674e-06   -1.387324933461477e-07   3.4469645878896452e-06
-2.503244489409674e-06   -1.387324933461477e-07   3.4469645878896452e-06
-2.503244489409674e-06   -1.387324933461477e-07   3.4469645878896452e-06
-2.043496942835251e-06   3.0925807047196114e-07   2.4119243386413417e-06
-2.043496942835251e-06   3.0925807047196114e-07   2.4119243386413417e-06
-2.043496942835251e-06   3.0925807047196114e-07   2.4119243386413417e-06
-2.043496942835251e-06   3.0925807047196114e-07   2.4119243386413417e-06
-2.503244489409674e-06   4.999537491083323e-07   2.1513497820517796e-06
-2.503244489409674e-06   4.999537491083323e-07   2.1513497820517796e-06
-2.503244489409674e-06   4.999537491083323e-07   2.1513497820517796e-06
-2.503244489409674e-06   4.999537491083323e-07   2.1513497820517796e-06
-1.7258756059069277e-06   -1.387324933461477e-07   3.063752842416968e-06
-1.7258756059069277e-06   -1.387324933461477e-07   3.063752842416968e-06
-1.7258756059069277e-06   -1.387324933461477e-07   3.063752842416968e-06
-1.7258756059069277e-06   -1.387324933461477e-07   3.063752842416968e-06
-1.9055735686854562e-06   3.146611824998745e-07   2.470685590209897e-06
-1.9055735686854562e-06   3.146611824998745e-07   2.470685590209897e-06
-1.9055735686854562e-06   3.146611824998745e-07   2.470685590209897e-06
-1.9055735686854562e-06   3.146611824998745e-07   2.470685590209897e-06
-2.4724498722924397e-06   -1.8964230009938616e-07   3.7180615191144493e-06
-2.4724498722924397e-06   -1.8964230009938616e-07   3.7180615191144493e-06
-2.4724498722924397e-06   -1.8964230009938616e-07   3.7180615191144493e-06
-2.4724498722924397e-06   -1.8964230009938616e-07   3.7180615191144493e-06
-2.0564307602714284e-06   2.6236989266882724e-07   2.753489016751767e-06
-2.0564307602714284e-06   2.6236989266882724e-07   2.753489016751767e-06
-2.0564307602714284e-06   2.6236989266882724e-07   2.753489016751767e-06
-2.0564307602714284e-06   2.6236989266882724e-07   2.753489016751767e-06
-2.2904072262802255e-05   1.7595793628206796e-06   1.022797236269711e-05
-2.2904072262802255e-05   1.7595793628206796e-06   1.022797236269711e-05
-2.2904072262802255e-05   1.7595793628206796e-06   1.022797236269711e-05
-2.2904072262802255e-05   1.7595793628206796e-06   1.022797236269711e-05
-5.336934138921355e-06   -1.1698367653934429e-05   3.1431767692445575e-05
-5.336934138921355e-06   -1.1698367653934429e-05   3.1431767692445575e-05
-5.336934138921355e-06   -1.1698367653934429e-05   3.1431767692445575e-05
-5.336934138921355e-06   -1.1698367653934429e-05   3.1431767692445575e-05
-6.29674236173294e-06   6.813363294071574e-07   5.572936684422212e-06
-6.29674236173294e-06   6.813363294071574e-07   5.572936684422212e-06
-6.29674236173294e-06   6.813363294071574e-07   5.572936684422212e-06
-6.29674236173294e-06   6.813363294071574e-07   5.572936684422212e-06
-2.088950987520317e-05   -9.16900870712937e-06   3.580442289546113e-05
-2.088950987520317e-05   -9.16900870712937e-06   3.580442289546113e-05
-2.088950987520317e-05   -9.16900870712937e-06   3.580442289546113e-05
-2.088950987520317e-05   -9.16900870712937e-06   3.580442289546113e-05
-1.3915451869760629e-05   -4.561392559412276e-06   2.1416423197759977e-05
-1.3915451869760629e-05   -4.561392559412276e-06   2.1416423197759977e-05
-1.3915451869760629e-05   -4.561392559412276e-06   2.1416423197759977e-05
-1.3915451869760629e-05   -4.561392559412276e-06   2.1416423197759977e-05
-2.0889509875203137e-05   6.813363294071574e-07   1.1483143706344118e-05
-2.0889509875203137e-05   6.813363294071574e-07   1.1483143706344118e-05
-2.0889509875203137e-05   6.813363294071574e-07   1.1483143706344118e-05
-2.0889509875203137e-05   6.813363294071574e-07   1.1483143706344118e-05
-6.29674236173295e-06   -9.16900870712937e-06   2.9894215873539224e-05
-6.29674236173295e-06   -9.16900870712937e-06   2.9894215873539224e-05
-6.29674236173295e-06   -9.16900870712937e-06   2.9894215873539224e-05
-6.29674236173295e-06   -9.16900870712937e-06   2.9894215873539224e-05
-6.455391435632322e-06   4.777376978115308e-07   6.126929123997495e-06
-6.455391435632322e-06   4.777376978115308e-07   6.126929123997495e-06
-6.455391435632322e-06   4.777376978115308e-07   6.126929123997495e-06
-6.455391435632322e-06   4.777376978115308e-07   6.126929123997495e-06
-1.9713417059534158e-05   -7.96042321514169e-06   3.328653504493909e-05
-1.9713417059534158e-05   -7.96042321514169e-06   3.328653504493909e-05
-1.9713417059534158e-05   -7.96042321514169e-06   3.328653504493909e-05
-1.9713417059534158e-05   -7.96042321514169e-06   3.328653504493909e-05
-1.3512040933684307e-05   -4.3295576987167894e-06   2.077238885866776e-05
-1.3512040933684307e-05   -4.3295576987167894e-06   2.077238885866776e-05
-1.3512040933684307e-05   -4.3295576987167894e-06   2.077238885866776e-05
-1.3512040933684307e-05   -4.3295576987167894e-06   2.077238885866776e-05
-1.9713417059534124e-05   4.777376978115308e-07   1.1189825671769417e-05
-1.9713417059534124e-05   4.777376978115308e-07   1.1189825671769417e-05
-1.9713417059534124e-05   4.777376978115308e-07   1.1189825671769417e-05
-1.9713417059534124e-05   4.777376978115308e-07   1.1189825671769417e-05
-6.4553914356323326e-06   -7.96042321514169e-06   2.8223638497167177e-05
-6.4553914356323326e-06   -7.96042321514169e-06   2.8223638497167177e-05
-6.4553914356323326e-06   -7.96042321514169e-06   2.8223638497167177e-05
-6.4553914356323326e-06   -7.96042321514169e-06   2.8223638497167177e-05
-7.104358294116075e-06   -3.9469489127995794e-07   7.657139008632247e-06
-7.104358294116075e-06   -3.9469489127995794e-07   7.657139008632247e-06
-7.104358294116075e-06   -3.9469489127995794e-07   7.657139008632247e-06
-7.104358294116075e-06   -3.9469489127995794e-07   7.657139008632247e-06
-1.8200411157273584e-05   -6.3488883981207665e-06   2.972307655133252e-05
-1.8200411157273584e-05   -6.3488883981207665e-06   2.972307655133252e-05
-1.8200411157273584e-05   -6.3488883981207665e-06   2.972307655133252e-05
-1.8200411157273584e-05   -6.3488883981207665e-06   2.972307655133252e-05
-1.3013681131210425e-05   -4.000180109389292e-06   1.966930153465506e-05
-1.3013681131210425e-05   -4.000180109389292e-06   1.966930153465506e-05
-1.3013681131210425e-05   -4.000180109389292e-06   1.966930153465506e-05
-1.3013681131210425e-05   -4.000180109389292e-06   1.966930153465506e-05
-5.3369341389213445e-06   -2.0881874145582625e-06   5.886382454919464e-06
-5.3369341389213445e-06   -2.0881874145582625e-06   5.886382454919464e-06
-5.3369341389213445e-06   -2.0881874145582625e-06   5.886382454919464e-06
-5.3369341389213445e-06   -2.0881874145582625e-06   5.886382454919464e-06
-1.845158907905057e-06   -3.7663114844902216e-06   1.0699133397987427e-05
-1.845158907905057e-06   -3.7663114844902216e-06   1.0699133397987427e-05
-1.845158907905057e-06   -3.7663114844902216e-06   1.0699133397987427e-05
-1.845158907905057e-06   -3.7663114844902216e-06   1.0699133397987427e-05
-2.0803649373053984e-06   -1.7201570026703899e-06   5.167227387911004e-06
-2.0803649373053984e-06   -1.7201570026703899e-06   5.167227387911004e-06
-2.0803649373053984e-06   -1.7201570026703899e-06   5.167227387911004e-06
-2.0803649373053984e-06   -1.7201570026703899e-06   5.167227387911004e-06
-6.29674236173295e-06   -4.935042680110174e-06   1.412345450175409e-05
-6.29674236173295e-06   -4.935042680110174e-06   1.412345450175409e-05
-6.29674236173295e-06   -4.935042680110174e-06   1.412345450175409e-05
-6.29674236173295e-06   -4.935042680110174e-06   1.412345450175409e-05
-3.6866809533032476e-06   -2.564491944482869e-06   8.351021712994848e-06
-3.6866809533032476e-06   -2.564491944482869e-06   8.351021712994848e-06
-3.6866809533032476e-06   -2.564491944482869e-06   8.351021712994848e-06
-3.6866809533032476e-06   -2.564491944482869e-06   8.351021712994848e-06
-6.296742361732933e-06   -1.7201570026703899e-06   7.096158794374786e-06
-6.296742361732933e-06   -1.7201570026703899e-06   7.096158794374786e-06
-6.296742361732933e-06   -1.7201570026703899e-06   7.096158794374786e-06
-6.296742361732933e-06   -1.7201570026703899e-06   7.096158794374786e-06
-2.080364937305385e-06   -4.935042680110174e-06   1.219452309529022e-05
-2.080364937305385e-06   -4.935042680110174e-06   1.219452309529022e-05
-2.080364937305385e-06   -4.935042680110174e-06   1.219452309529022e-05
-2.080364937305385e-06   -4.935042680110174e-06   1.219452309529022e-05
-2.2833471770059124e-06   -1.7557130120763958e-06   5.812408033187443e-06
-2.2833471770059124e-06   -1.7557130120763958e-06   5.812408033187443e-06
-2.2833471770059124e-06   -1.7557130120763958e-06   5.812408033187443e-06
-2.2833471770059124e-06   -1.7557130120763958e-06   5.812408033187443e-06
-6.4553914356323326e-06   -4.545850053908038e-06   1.4439897355997094e-05
-6.4553914356323326e-06   -4.545850053908038e-06   1.4439897355997094e-05
-6.4553914356323326e-06   -4.545850053908038e-06   1.4439897355997094e-05
-6.4553914356323326e-06   -4.545850053908038e-06   1.4439897355997094e-05
-4.1787333403350936e-06   -3.116925722347101e-06   9.788112598231854e-06
-4.1787333403350936e-06   -3.116925722347101e-06   9.788112598231854e-06
-4.1787333403350936e-06   -3.116925722347101e-06   9.788112598231854e-06
-4.1787333403350936e-06   -3.116925722347101e-06   9.788112598231854e-06
-6.4553914356323326e-06   -1.7557130120763958e-06   7.486490258286417e-06
-6.4553914356323326e-06   -1.7557130120763958e-06   7.486490258286417e-06
-6.4553914356323326e-06   -1.7557130120763958e-06   7.486490258286417e-06
-6.4553914356323326e-06   -1.7557130120763958e-06   7.486490258286417e-06
-2.2833471770059124e-06   -4.545850053908038e-06   1.2765815130898114e-05
-2.2833471770059124e-06   -4.545850053908038e-06   1.2765815130898114e-05
-2.2833471770059124e-06   -4.545850053908038e-06   1.2765815130898114e-05
-2.2833471770059124e-06   -4.545850053908038e-06   1.2765815130898114e-05
-2.6167331771583387e-06   -1.7619955003899388e-06   6.375143577011953e-06
-2.6167331771583387e-06   -1.7619955003899388e-06   6.375143577011953e-06
-2.6167331771583387e-06   -1.7619955003899388e-06   6.375143577011953e-06
-2.6167331771583387e-06   -1.7619955003899388e-06   6.375143577011953e-06
-7.1043582941160814e-06   -4.296935275395085e-06   1.537548263694455e-05
-7.1043582941160814e-06   -4.296935275395085e-06   1.537548263694455e-05
-7.1043582941160814e-06   -4.296935275395085e-06   1.537548263694455e-05
-7.1043582941160814e-06   -4.296935275395085e-06   1.537548263694455e-05
-4.4770335710524944e-06   -2.8489451999142112e-06   1.0127814053216742e-05
-4.4770335710524944e-06   -2.8489451999142112e-06   1.0127814053216742e-05
-4.4770335710524944e-06   -2.8489451999142112e-06   1.0127814053216742e-05
-4.4770335710524944e-06   -2.8489451999142112e-06   1.0127814053216742e-05
-1.845158907905057e-06   -1.6324130826173206e-06   3.2319048163965546e-06
-1.845158907905057e-06   -1.6324130826173206e-06   3.2319048163965546e-06
-1.845158907905057e-06   -1.6324130826173206e-06   3.2319048163965546e-06
-1.845158907905057e-06   -1.6324130826173206e-06   3.2319048163965546e-06
-1.0380701473953785e-06   -1.1313193729030286e-06   4.877708976407937e-06
-1.0380701473953785e-06   -1.1313193729030286e-06   4.877708976407937e-06
-1.0380701473953785e-06   -1.1313193729030286e-06   4.877708976407937e-06
-1.0380701473953785e-06   -1.1313193729030286e-06   4.877708976407937e-06
-1.0077416181913766e-06   -1.6032679439358967e-06   3.632191080311562e-06
-1.0077416181913766e-06   -1.6032679439358967e-06   3.632191080311562e-06
-1.0077416181913766e-06   -1.6032679439358967e-06   3.632191080311562e-06
-1.0077416181913766e-06   -1.6032679439358967e-06   3.632191080311562e-06
-2.080364937305385e-06   -1.4548796745187899e-06   5.330863650517928e-06
-2.080364937305385e-06   -1.4548796745187899e-06   5.330863650517928e-06
-2.080364937305385e-06   -1.4548796745187899e-06   5.330863650517928e-06
-2.080364937305385e-06   -1.4548796745187899e-06   5.330863650517928e-06
-1.3974215000438933e-06   -1.3649040794706118e-06   4.138639231386485e-06
-1.3974215000438933e-06   -1.3649040794706118e-06   4.138639231386485e-06
-1.3974215000438933e-06   -1.3649040794706118e-06   4.138639231386485e-06
-1.3974215000438933e-06   -1.3649040794706118e-06   4.138639231386485e-06
-2.080364937305385e-06   -1.6032679439358696e-06   3.543158118661288e-06
-2.080364937305385e-06   -1.6032679439358696e-06   3.543158118661288e-06
-2.080364937305385e-06   -1.6032679439358696e-06   3.543158118661288e-06
-2.080364937305385e-06   -1.6032679439358696e-06   3.543158118661288e-06
-1.0077416181913766e-06   -1.4548796745187865e-06   5.4198966121681746e-06
-1.0077416181913766e-06   -1.4548796745187865e-06   5.4198966121681746e-06
-1.0077416181913766e-06   -1.4548796745187865e-06   5.4198966121681746e-06
-1.0077416181913766e-06   -1.4548796745187865e-06   5.4198966121681746e-06
-1.0197757386969097e-06   -1.6502279745525246e-06   3.890260694884589e-06
-1.0197757386969097e-06   -1.6502279745525246e-06   3.890260694884589e-06
-1.0197757386969097e-06   -1.6502279745525246e-06   3.890260694884589e-06
-1.0197757386969097e-06   -1.6502279745525246e-06   3.890260694884589e-06
-2.2833471770059124e-06   -1.8370692689408313e-06   6.108317868699139e-06
-2.2833471770059124e-06   -1.8370692689408313e-06   6.108317868699139e-06
-2.2833471770059124e-06   -1.8370692689408313e-06   6.108317868699139e-06
-2.2833471770059124e-06   -1.8370692689408313e-06   6.108317868699139e-06
-1.4945508966929109e-06   -1.4917164826921893e-06   4.586445729761639e-06
-1.4945508966929109e-06   -1.4917164826921893e-06   4.586445729761639e-06
-1.4945508966929109e-06   -1.4917164826921893e-06   4.586445729761639e-06
-1.4945508966929109e-06   -1.4917164826921893e-06   4.586445729761639e-06
-2.283347177005899e-06   -1.6502279745525517e-06   4.002365471517531e-06
-2.283347177005899e-06   -1.6502279745525517e-06   4.002365471517531e-06
-2.283347177005899e-06   -1.6502279745525517e-06   4.002365471517531e-06
-2.283347177005899e-06   -1.6502279745525517e-06   4.002365471517531e-06
-1.0197757386969097e-06   -1.8370692689408313e-06   5.99621309206617e-06
-1.0197757386969097e-06   -1.8370692689408313e-06   5.99621309206617e-06
-1.0197757386969097e-06   -1.8370692689408313e-06   5.99621309206617e-06
-1.0197757386969097e-06   -1.8370692689408313e-06   5.99621309206617e-06
-1.0539376148297895e-06   -1.7134929733853682e-06   4.280430885573132e-06
-1.0539376148297895e-06   -1.7134929733853682e-06   4.280430885573132e-06
-1.0539376148297895e-06   -1.7134929733853682e-06   4.280430885573132e-06
-1.0539376148297895e-06   -1.7134929733853682e-06   4.280430885573132e-06
-2.6167331771583387e-06   -2.198732236578522e-06   7.176233714036555e-06
-2.6167331771583387e-06   -2.198732236578522e-06   7.176233714036555e-06
-2.6167331771583387e-06   -2.198732236578522e-06   7.176233714036555e-06
-2.6167331771583387e-06   -2.198732236578522e-06   7.176233714036555e-06
-1.6076716321309194e-06   -1.6195025283307555e-06   5.146926647375539e-06
-1.6076716321309194e-06   -1.6195025283307555e-06   5.146926647375539e-06
-1.6076716321309194e-06   -1.6195025283307555e-06   5.146926647375539e-06
-1.6076716321309194e-06   -1.6195025283307555e-06   5.146926647375539e-06
-1.0380701473953785e-06   -6.736009872208436e-07   1.0079473375524783e-06
-1.0380701473953785e-06   -6.736009872208436e-07   1.0079473375524783e-06
-1.0380701473953785e-06   -6.736009872208436e-07   1.0079473375524783e-06
-1.0380701473953785e-06   -6.736009872208436e-07   1.0079473375524783e-06
-7.904872826177095e-07   1.043735302561484e-07   1.887370156001449e-06
-7.904872826177095e-07   1.043735302561484e-07   1.887370156001449e-06
-7.904872826177095e-07   1.043735302561484e-07   1.887370156001449e-06
-7.904872826177095e-07   1.043735302561484e-07   1.887370156001449e-06
-6.482811593934402e-07   -7.849883522976391e-07   1.5590895077450097e-06
-6.482811593934402e-07   -7.849883522976391e-07   1.5590895077450097e-06
-6.482811593934402e-07   -7.849883522976391e-07   1.5590895077450097e-06
-6.482811593934402e-07   -7.849883522976391e-07   1.5590895077450097e-06
-1.0077416181913766e-06   -1.8646529833019456e-08   1.6983851789294788e-06
-1.0077416181913766e-06   -1.8646529833019456e-08   1.6983851789294788e-06
-1.0077416181913766e-06   -1.8646529833019456e-08   1.6983851789294788e-06
-1.0077416181913766e-06   -1.8646529833019456e-08   1.6983851789294788e-06
-8.166347788018765e-07   -3.4373417957807393e-07   1.574926369793953e-06
-8.166347788018765e-07   -3.4373417957807393e-07   1.574926369793953e-06
-8.166347788018765e-07   -3.4373417957807393e-07   1.574926369793953e-06
-8.166347788018765e-07   -3.4373417957807393e-07   1.574926369793953e-06
-1.0077416181913766e-06   -7.849883522976391e-07   1.099284414266265e-06
-1.0077416181913766e-06   -7.849883522976391e-07   1.099284414266265e-06
-1.0077416181913766e-06   -7.849883522976391e-07   1.099284414266265e-06
-1.0077416181913766e-06   -7.849883522976391e-07   1.099284414266265e-06
-6.482811593934402e-07   -1.8646529833019456e-08   2.1581902724082506e-06
-6.482811593934402e-07   -1.8646529833019456e-08   2.1581902724082506e-06
-6.482811593934402e-07   -1.8646529833019456e-08   2.1581902724082506e-06
-6.482811593934402e-07   -1.8646529833019456e-08   2.1581902724082506e-06
-5.739722107947487e-07   -8.709518151786045e-07   1.713655719237726e-06
-5.739722107947487e-07   -8.709518151786045e-07   1.713655719237726e-06
-5.739722107947487e-07   -8.709518151786045e-07   1.713655719237726e-06
-5.739722107947487e-07   -8.709518151786045e-07   1.713655719237726e-06
-1.0197757386969097e-06   -2.053665409442748e-07   2.057310434533979e-06
-1.0197757386969097e-06   -2.053665409442748e-07   2.057310434533979e-06
-1.0197757386969097e-06   -2.053665409442748e-07   2.057310434533979e-06
-1.0197757386969097e-06   -2.053665409442748e-07   2.057310434533979e-06
-7.482523154274628e-07   -4.343401047774602e-07   1.7421555340515105e-06
-7.482523154274628e-07   -4.343401047774602e-07   1.7421555340515105e-06
-7.482523154274628e-07   -4.343401047774602e-07   1.7421555340515105e-06
-7.482523154274628e-07   -4.343401047774602e-07   1.7421555340515105e-06
-1.0197757386969097e-06   -8.709518151786045e-07   1.314304554697035e-06
-1.0197757386969097e-06   -8.709518151786045e-07   1.314304554697035e-06
-1.0197757386969097e-06   -8.709518151786045e-07   1.314304554697035e-06
-1.0197757386969097e-06   -8.709518151786045e-07   1.314304554697035e-06
-5.739722107947487e-07   -2.053665409442748e-07   2.4566615990745616e-06
-5.739722107947487e-07   -2.053665409442748e-07   2.4566615990745616e-06
-5.739722107947487e-07   -2.053665409442748e-07   2.4566615990745616e-06
-5.739722107947487e-07   -2.053665409442748e-07   2.4566615990745616e-06
-4.6052827615354055e-07   -9.828094005117684e-07   1.888639904901331e-06
-4.6052827615354055e-07   -9.828094005117684e-07   1.888639904901331e-06
-4.6052827615354055e-07   -9.828094005117684e-07   1.888639904901331e-06
-4.6052827615354055e-07   -9.828094005117684e-07   1.888639904901331e-06
-1.0539376148297895e-06   -5.784752949558894e-07   2.6350550060282333e-06
-1.0539376148297895e-06   -5.784752949558894e-07   2.6350550060282333e-06
-1.0539376148297895e-06   -5.784752949558894e-07   2.6350550060282333e-06
-1.0539376148297895e-06   -5.784752949558894e-07   2.6350550060282333e-06
-6.967118347835834e-07   -5.689349622348832e-07   2.0339545063187913e-06
-6.967118347835834e-07   -5.689349622348832e-07   2.0339545063187913e-06
-6.967118347835834e-07   -5.689349622348832e-07   2.0339545063187913e-06
-6.967118347835834e-07   -5.689349622348832e-07   2.0339545063187913e-06
-7.904872826177095e-07   -6.928266972950378e-08   -1.240674424669413e-06
-7.904872826177095e-07   -6.928266972950378e-08   -1.240674424669413e-06
-7.904872826177095e-07   -6.928266972950378e-08   -1.240674424669413e-06
-7.904872826177095e-07   -6.928266972950378e-08   -1.240674424669413e-06
-1.6777485416016456e-07   1.04849717343909e-07   -9.83409449961377e-08
-1.6777485416016456e-07   1.04849717343909e-07   -9.83409449961377e-08
-1.6777485416016456e-07   1.04849717343909e-07   -9.83409449961377e-08
-1.6777485416016456e-07   1.04849717343909e-07   -9.83409449961377e-08
-2.8895616848161228e-08   -9.914898174958535e-08   -9.581121806306295e-07
-2.8895616848161228e-08   -9.914898174958535e-08   -9.581121806306295e-07
-2.8895616848161228e-08   -9.914898174958535e-08   -9.581121806306295e-07
-2.8895616848161228e-08   -9.914898174958535e-08   -9.581121806306295e-07
-6.482811593934402e-07   1.7809867296777018e-07   -9.215153588571249e-08
-6.482811593934402e-07   1.7809867296777018e-07   -9.215153588571249e-08
-6.482811593934402e-07   1.7809867296777018e-07   -9.215153588571249e-08
-6.482811593934402e-07   1.7809867296777018e-07   -9.215153588571249e-08
-3.7359371768981694e-07   5.0981233061791077e-08   -4.7369347478163444e-07
-3.7359371768981694e-07   5.0981233061791077e-08   -4.7369347478163444e-07
-3.7359371768981694e-07   5.0981233061791077e-08   -4.7369347478163444e-07
-3.7359371768981694e-07   5.0981233061791077e-08   -4.7369347478163444e-07
-6.482811593934402e-07   -9.914898174958535e-08   -1.1244607734611594e-06
-6.482811593934402e-07   -9.914898174958535e-08   -1.1244607734611594e-06
-6.482811593934402e-07   -9.914898174958535e-08   -1.1244607734611594e-06
-6.482811593934402e-07   -9.914898174958535e-08   -1.1244607734611594e-06
-2.8895616848161228e-08   1.7809867296777018e-07   7.419705694468185e-08
-2.8895616848161228e-08   1.7809867296777018e-07   7.419705694468185e-08
-2.8895616848161228e-08   1.7809867296777018e-07   7.419705694468185e-08
-2.8895616848161228e-08   1.7809867296777018e-07   7.419705694468185e-08
3.995232338913752e-08   -1.387324933461477e-07   -8.385691021211357e-07
3.995232338913752e-08   -1.387324933461477e-07   -8.385691021211357e-07
3.995232338913752e-08   -1.387324933461477e-07   -8.385691021211357e-07
3.995232338913752e-08   -1.387324933461477e-07   -8.385691021211357e-07
-5.739722107947487e-07   1.4332778334906615e-07   1.5402288834804895e-08
-5.739722107947487e-07   1.4332778334906615e-07   1.5402288834804895e-08
-5.739722107947487e-07   1.4332778334906615e-07   1.5402288834804895e-08
-5.739722107947487e-07   1.4332778334906615e-07   1.5402288834804895e-08
-2.72933030787424e-07   3.254846852809726e-08   -4.1986208895131594e-07
-2.72933030787424e-07   3.254846852809726e-08   -4.1986208895131594e-07
-2.72933030787424e-07   3.254846852809726e-08   -4.1986208895131594e-07
-2.72933030787424e-07   3.254846852809726e-08   -4.1986208895131594e-07
-5.739722107947487e-07   -1.387324933461477e-07   -1.007805268138262e-06
-5.739722107947487e-07   -1.387324933461477e-07   -1.007805268138262e-06
-5.739722107947487e-07   -1.387324933461477e-07   -1.007805268138262e-06
-5.739722107947487e-07   -1.387324933461477e-07   -1.007805268138262e-06
3.995232338911041e-08   1.4332778334906615e-07   1.8463845485194473e-07
3.995232338911041e-08   1.4332778334906615e-07   1.8463845485194473e-07
3.995232338911041e-08   1.4332778334906615e-07   1.8463845485194473e-07
3.995232338911041e-08   1.4332778334906615e-07   1.8463845485194473e-07
1.2305392006902414e-07   -1.8964230009938616e-07   -6.581686885085347e-07
1.2305392006902414e-07   -1.8964230009938616e-07   -6.581686885085347e-07
1.2305392006902414e-07   -1.8964230009938616e-07   -6.581686885085347e-07
1.2305392006902414e-07   -1.8964230009938616e-07   -6.581686885085347e-07
-4.6052827615354055e-07   1.0537943325122332e-07   1.3745526518529417e-07
-4.6052827615354055e-07   1.0537943325122332e-07   1.3745526518529417e-07
-4.6052827615354055e-07   1.0537943325122332e-07   1.3745526518529417e-07
-4.6052827615354055e-07   1.0537943325122332e-07   1.3745526518529417e-07
-1.8272716653459345e-07   8.47647844566513e-09   -2.674048112962218e-07
-1.8272716653459345e-07   8.47647844566513e-09   -2.674048112962218e-07
-1.8272716653459345e-07   8.47647844566513e-09   -2.674048112962218e-07
-1.8272716653459345e-07   8.47647844566513e-09   -2.674048112962218e-07
              </DataArray>   
             <DataArray type="Float64" NumberOfComponents="3" Name="Stress" format="ascii">   
-1.1963337128571987   -0.2990834282142997   -0.2990834282142997
-1.1963337128571987   -0.2990834282142997   -0.2990834282142997
-1.1963337128571987   -0.2990834282142997   -0.2990834282142997
-1.1963337128571987   -0.2990834282142997   -0.2990834282142997
-0.692017298261073   -0.022536346268537816   -0.014114484599877103
-0.692017298261073   -0.022536346268537816   -0.014114484599877103
-0.692017298261073   -0.022536346268537816   -0.014114484599877103
-0.692017298261073   -0.022536346268537816   -0.014114484599877103
-0.7453834114909784   -0.1863458528727446   -0.1863458528727446
-0.7453834114909784   -0.1863458528727446   -0.1863458528727446
-0.7453834114909784   -0.1863458528727446   -0.1863458528727446
-0.7453834114909784   -0.1863458528727446   -0.1863458528727446
-1.15278338212485   -0.0951501163883837   -0.03653959118646669
-1.15278338212485   -0.0951501163883837   -0.03653959118646669
-1.15278338212485   -0.0951501163883837   -0.03653959118646669
-1.15278338212485   -0.0951501163883837   -0.03653959118646669
-0.9039760348708666   -0.14848710255690534   -0.00252954201403789
-0.9039760348708666   -0.14848710255690534   -0.00252954201403789
-0.9039760348708666   -0.14848710255690534   -0.00252954201403789
-0.9039760348708666   -0.14848710255690534   -0.00252954201403789
-1.2516060451220912   -0.3129015112805228   -0.3129015112805228
-1.2516060451220912   -0.3129015112805228   -0.3129015112805228
-1.2516060451220912   -0.3129015112805228   -0.3129015112805228
-1.2516060451220912   -0.3129015112805228   -0.3129015112805228
-0.6700462425055322   0.007920048007601627   -0.003925908825860004
-0.6700462425055322   0.007920048007601627   -0.003925908825860004
-0.6700462425055322   0.007920048007601627   -0.003925908825860004
-0.6700462425055322   0.007920048007601627   -0.003925908825860004
-0.747123680936604   -0.186780920234151   -0.186780920234151
-0.747123680936604   -0.186780920234151   -0.186780920234151
-0.747123680936604   -0.186780920234151   -0.186780920234151
-0.747123680936604   -0.186780920234151   -0.186780920234151
-1.1911198484296226   -0.09594912981840581   -0.053492949673078924
-1.1911198484296226   -0.09594912981840581   -0.053492949673078924
-1.1911198484296226   -0.09594912981840581   -0.053492949673078924
-1.1911198484296226   -0.09594912981840581   -0.053492949673078924
-0.9373040542630267   -0.13967231090063476   -0.04970607678244285
-0.9373040542630267   -0.13967231090063476   -0.04970607678244285
-0.9373040542630267   -0.13967231090063476   -0.04970607678244285
-0.9373040542630267   -0.13967231090063476   -0.04970607678244285
-1.2902571472570306   -0.32256428681425764   -0.32256428681425764
-1.2902571472570306   -0.32256428681425764   -0.32256428681425764
-1.2902571472570306   -0.32256428681425764   -0.32256428681425764
-1.2902571472570306   -0.32256428681425764   -0.32256428681425764
-0.6677613071894752   0.020059311681422054   0.0031907165859130365
-0.6677613071894752   0.020059311681422054   0.0031907165859130365
-0.6677613071894752   0.020059311681422054   0.0031907165859130365
-0.6677613071894752   0.020059311681422054   0.0031907165859130365
-0.746323077345701   -0.18658076933642526   -0.18658076933642526
-0.746323077345701   -0.18658076933642526   -0.18658076933642526
-0.746323077345701   -0.18658076933642526   -0.18658076933642526
-0.746323077345701   -0.18658076933642526   -0.18658076933642526
-1.259729628826797   -0.08389645223400982   -0.032285573401068926
-1.259729628826797   -0.08389645223400982   -0.032285573401068926
-1.259729628826797   -0.08389645223400982   -0.032285573401068926
-1.259729628826797   -0.08389645223400982   -0.032285573401068926
-0.9618910785040217   -0.13738833547412754   -0.08976155168984189
-0.9618910785040217   -0.13738833547412754   -0.08976155168984189
-0.9618910785040217   -0.13738833547412754   -0.08976155168984189
-0.9618910785040217   -0.13738833547412754   -0.08976155168984189
-0.7607634800971014   -0.19019087002427534   -0.19019087002427534
-0.7607634800971014   -0.19019087002427534   -0.19019087002427534
-0.7607634800971014   -0.19019087002427534   -0.19019087002427534
-0.7607634800971014   -0.19019087002427534   -0.19019087002427534
-0.31789132412914994   -0.021554447500761686   -0.006968054628636922
-0.31789132412914994   -0.021554447500761686   -0.006968054628636922
-0.31789132412914994   -0.021554447500761686   -0.006968054628636922
-0.31789132412914994   -0.021554447500761686   -0.006968054628636922
-0.3332660782287385   -0.08331651955718462   -0.08331651955718462
-0.3332660782287385   -0.08331651955718462   -0.08331651955718462
-0.3332660782287385   -0.08331651955718462   -0.08331651955718462
-0.3332660782287385   -0.08331651955718462   -0.08331651955718462
-0.6923826253482908   -0.08167291189036534   -0.026014863141685867
-0.6923826253482908   -0.08167291189036534   -0.026014863141685867
-0.6923826253482908   -0.08167291189036534   -0.026014863141685867
-0.6923826253482908   -0.08167291189036534   -0.026014863141685867
-0.5109117215595163   -0.09692372004393977   0.003931618479494869
-0.5109117215595163   -0.09692372004393977   0.003931618479494869
-0.5109117215595163   -0.09692372004393977   0.003931618479494869
-0.5109117215595163   -0.09692372004393977   0.003931618479494869
-0.7453834114909778   -0.18634585287274444   -0.18634585287274444
-0.7453834114909778   -0.18634585287274444   -0.18634585287274444
-0.7453834114909778   -0.18634585287274444   -0.18634585287274444
-0.7453834114909778   -0.18634585287274444   -0.18634585287274444
-0.2995919010262474   0.0020298124849981586   -0.00029196558691182636
-0.2995919010262474   0.0020298124849981586   -0.00029196558691182636
-0.2995919010262474   0.0020298124849981586   -0.00029196558691182636
-0.2995919010262474   0.0020298124849981586   -0.00029196558691182636
-0.3254753981868282   -0.08136884954670705   -0.08136884954670705
-0.3254753981868282   -0.08136884954670705   -0.08136884954670705
-0.3254753981868282   -0.08136884954670705   -0.08136884954670705
-0.3254753981868282   -0.08136884954670705   -0.08136884954670705
-0.6902906364170623   -0.066531517217423   -0.02286510065317095
-0.6902906364170623   -0.066531517217423   -0.02286510065317095
-0.6902906364170623   -0.066531517217423   -0.02286510065317095
-0.6902906364170623   -0.066531517217423   -0.02286510065317095
-0.5034479876228848   -0.08152402460218205   -0.026283591737180815
-0.5034479876228848   -0.08152402460218205   -0.026283591737180815
-0.5034479876228848   -0.08152402460218205   -0.026283591737180815
-0.5034479876228848   -0.08152402460218205   -0.026283591737180815
-0.747123680936604   -0.186780920234151   -0.186780920234151
-0.747123680936604   -0.186780920234151   -0.186780920234151
-0.747123680936604   -0.186780920234151   -0.186780920234151
-0.747123680936604   -0.186780920234151   -0.186780920234151
-0.287361956924727   0.020160950212581033   0.007668557004513795
-0.287361956924727   0.020160950212581033   0.007668557004513795
-0.287361956924727   0.020160950212581033   0.007668557004513795
-0.287361956924727   0.020160950212581033   0.007668557004513795
-0.31832159923858444   -0.07958039980964611   -0.07958039980964611
-0.31832159923858444   -0.07958039980964611   -0.07958039980964611
-0.31832159923858444   -0.07958039980964611   -0.07958039980964611
-0.31832159923858444   -0.07958039980964611   -0.07958039980964611
-0.684834420947544   -0.0512354068167363   -0.014482849865332208
-0.684834420947544   -0.0512354068167363   -0.014482849865332208
-0.684834420947544   -0.0512354068167363   -0.014482849865332208
-0.684834420947544   -0.0512354068167363   -0.014482849865332208
-0.5055601333706665   -0.0720435705245565   -0.05850521593460335
-0.5055601333706665   -0.0720435705245565   -0.05850521593460335
-0.5055601333706665   -0.0720435705245565   -0.05850521593460335
-0.5055601333706665   -0.0720435705245565   -0.05850521593460335
-0.3468742485591897   -0.08671856213979742   -0.08671856213979742
-0.3468742485591897   -0.08671856213979742   -0.08671856213979742
-0.3468742485591897   -0.08671856213979742   -0.08671856213979742
-0.3468742485591897   -0.08671856213979742   -0.08671856213979742
0.040031985448413625   0.0024274575093011256   0.0003441089203826233
0.040031985448413625   0.0024274575093011256   0.0003441089203826233
0.040031985448413625   0.0024274575093011256   0.0003441089203826233
0.040031985448413625   0.0024274575093011256   0.0003441089203826233
0.05271788764071377   0.013179471910178443   0.013179471910178443
0.05271788764071377   0.013179471910178443   0.013179471910178443
0.05271788764071377   0.013179471910178443   0.013179471910178443
0.05271788764071377   0.013179471910178443   0.013179471910178443
-0.3132795650648315   -0.054138049982678065   -0.012562423312156326
-0.3132795650648315   -0.054138049982678065   -0.012562423312156326
-0.3132795650648315   -0.054138049982678065   -0.012562423312156326
-0.3132795650648315   -0.054138049982678065   -0.012562423312156326
-0.13468330707429077   -0.03414237148567379   0.022577648180789316
-0.13468330707429077   -0.03414237148567379   0.022577648180789316
-0.13468330707429077   -0.03414237148567379   0.022577648180789316
-0.13468330707429077   -0.03414237148567379   0.022577648180789316
-0.3332660782287391   -0.08331651955718478   -0.08331651955718478
-0.3332660782287391   -0.08331651955718478   -0.08331651955718478
-0.3332660782287391   -0.08331651955718478   -0.08331651955718478
-0.3332660782287391   -0.08331651955718478   -0.08331651955718478
0.05371119254406224   0.02336473322412642   0.007960735112972362
0.05371119254406224   0.02336473322412642   0.007960735112972362
0.05371119254406224   0.02336473322412642   0.007960735112972362
0.05371119254406224   0.02336473322412642   0.007960735112972362
0.05975370016816547   0.014938425042041367   0.014938425042041367
0.05975370016816547   0.014938425042041367   0.014938425042041367
0.05975370016816547   0.014938425042041367   0.014938425042041367
0.05975370016816547   0.014938425042041367   0.014938425042041367
-0.30187773421163366   -0.03632857041371261   -0.008420808803731326
-0.30187773421163366   -0.03632857041371261   -0.008420808803731326
-0.30187773421163366   -0.03632857041371261   -0.008420808803731326
-0.30187773421163366   -0.03632857041371261   -0.008420808803731326
-0.12885630667348846   -0.021052025350193362   -0.00782665738095962
-0.12885630667348846   -0.021052025350193362   -0.00782665738095962
-0.12885630667348846   -0.021052025350193362   -0.00782665738095962
-0.12885630667348846   -0.021052025350193362   -0.00782665738095962
-0.3254753981868288   -0.0813688495467072   -0.0813688495467072
-0.3254753981868288   -0.0813688495467072   -0.0813688495467072
-0.3254753981868288   -0.0813688495467072   -0.0813688495467072
-0.3254753981868288   -0.0813688495467072   -0.0813688495467072
0.06474126779496239   0.04136860782663854   0.013446080391428363
0.06474126779496239   0.04136860782663854   0.013446080391428363
0.06474126779496239   0.04136860782663854   0.013446080391428363
0.06474126779496239   0.04136860782663854   0.013446080391428363
0.06910030332226322   0.017275075830565804   0.017275075830565804
0.06910030332226322   0.017275075830565804   0.017275075830565804
0.06910030332226322   0.017275075830565804   0.017275075830565804
0.06910030332226322   0.017275075830565804   0.017275075830565804
-0.28947498922527615   -0.015117925045532755   0.00019017549278120723
-0.28947498922527615   -0.015117925045532755   0.00019017549278120723
-0.28947498922527615   -0.015117925045532755   0.00019017549278120723
-0.28947498922527615   -0.015117925045532755   0.00019017549278120723
-0.12464698113080176   -0.008431984649365842   -0.037958957559371745
-0.12464698113080176   -0.008431984649365842   -0.037958957559371745
-0.12464698113080176   -0.008431984649365842   -0.037958957559371745
-0.12464698113080176   -0.008431984649365842   -0.037958957559371745
0.043864080180529945   0.010966020045132486   0.010966020045132486
0.043864080180529945   0.010966020045132486   0.010966020045132486
0.043864080180529945   0.010966020045132486   0.010966020045132486
0.043864080180529945   0.010966020045132486   0.010966020045132486
0.4321264272890633   0.039694441616927964   0.013531573136660334
0.4321264272890633   0.039694441616927964   0.013531573136660334
0.4321264272890633   0.039694441616927964   0.013531573136660334
0.4321264272890633   0.039694441616927964   0.013531573136660334
0.46959259759253175   0.11739814939813294   0.11739814939813294
0.46959259759253175   0.11739814939813294   0.11739814939813294
0.46959259759253175   0.11739814939813294   0.11739814939813294
0.46959259759253175   0.11739814939813294   0.11739814939813294
0.040127592885868466   -0.03039189071656987   -0.006200639237300609
0.040127592885868466   -0.03039189071656987   -0.006200639237300609
0.040127592885868466   -0.03039189071656987   -0.006200639237300609
0.040127592885868466   -0.03039189071656987   -0.006200639237300609
0.2461134404121967   0.030662186457393454   0.04462749061420133
0.2461134404121967   0.030662186457393454   0.04462749061420133
0.2461134404121967   0.030662186457393454   0.04462749061420133
0.2461134404121967   0.030662186457393454   0.04462749061420133
0.05271788764071395   0.013179471910178488   0.013179471910178488
0.05271788764071395   0.013179471910178488   0.013179471910178488
0.05271788764071395   0.013179471910178488   0.013179471910178488
0.05271788764071395   0.013179471910178488   0.013179471910178488
0.43768699469220795   0.05451147862590629   0.02075680566874066
0.43768699469220795   0.05451147862590629   0.02075680566874066
0.43768699469220795   0.05451147862590629   0.02075680566874066
0.43768699469220795   0.05451147862590629   0.02075680566874066
0.467966950856053   0.11699173771401325   0.11699173771401325
0.467966950856053   0.11699173771401325   0.11699173771401325
0.467966950856053   0.11699173771401325   0.11699173771401325
0.467966950856053   0.11699173771401325   0.11699173771401325
0.051225500454035185   -0.012962332113925706   0.00019818362735652632
0.051225500454035185   -0.012962332113925706   0.00019818362735652632
0.051225500454035185   -0.012962332113925706   0.00019818362735652632
0.051225500454035185   -0.012962332113925706   0.00019818362735652632
0.2446898275060659   0.04038789569414029   0.011520355218463597
0.2446898275060659   0.04038789569414029   0.011520355218463597
0.2446898275060659   0.04038789569414029   0.011520355218463597
0.2446898275060659   0.04038789569414029   0.011520355218463597
0.05975370016816552   0.01493842504204138   0.01493842504204138
0.05975370016816552   0.01493842504204138   0.01493842504204138
0.05975370016816552   0.01493842504204138   0.01493842504204138
0.05975370016816552   0.01493842504204138   0.01493842504204138
0.44031125688855577   0.06996348630467931   0.025741519285861037
0.44031125688855577   0.06996348630467931   0.025741519285861037
0.44031125688855577   0.06996348630467931   0.025741519285861037
0.44031125688855577   0.06996348630467931   0.025741519285861037
0.47740052516228787   0.11935013129057197   0.11935013129057197
0.47740052516228787   0.11935013129057197   0.11935013129057197
0.47740052516228787   0.11935013129057197   0.11935013129057197
0.47740052516228787   0.11935013129057197   0.11935013129057197
0.06567668839519646   0.010060528399708113   0.007371548626089089
0.06567668839519646   0.010060528399708113   0.007371548626089089
0.06567668839519646   0.010060528399708113   0.007371548626089089
0.06567668839519646   0.010060528399708113   0.007371548626089089
0.2488616669469144   0.05488639452442294   -0.019175066783370526
0.2488616669469144   0.05488639452442294   -0.019175066783370526
0.2488616669469144   0.05488639452442294   -0.019175066783370526
0.2488616669469144   0.05488639452442294   -0.019175066783370526
0.4683124714870507   0.11707811787176267   0.11707811787176267
0.4683124714870507   0.11707811787176267   0.11707811787176267
0.4683124714870507   0.11707811787176267   0.11707811787176267
0.4683124714870507   0.11707811787176267   0.11707811787176267
0.9737455867254825   0.07434820523238247   0.025964669048429118
0.9737455867254825   0.07434820523238247   0.025964669048429118
0.9737455867254825   0.07434820523238247   0.025964669048429118
0.9737455867254825   0.07434820523238247   0.025964669048429118
0.9957614043252933   0.2489403510813233   0.2489403510813233
0.9957614043252933   0.2489403510813233   0.2489403510813233
0.9957614043252933   0.2489403510813233   0.2489403510813233
0.9957614043252933   0.2489403510813233   0.2489403510813233
0.4175147338522546   -0.023552805025860712   -0.0020402148792591883
0.4175147338522546   -0.023552805025860712   -0.0020402148792591883
0.4175147338522546   -0.023552805025860712   -0.0020402148792591883
0.4175147338522546   -0.023552805025860712   -0.0020402148792591883
0.6941506940156232   0.09838026148265439   0.07820698801768797
0.6941506940156232   0.09838026148265439   0.07820698801768797
0.6941506940156232   0.09838026148265439   0.07820698801768797
0.6941506940156232   0.09838026148265439   0.07820698801768797
0.46959259759253136   0.11739814939813284   0.11739814939813284
0.46959259759253136   0.11739814939813284   0.11739814939813284
0.46959259759253136   0.11739814939813284   0.11739814939813284
0.46959259759253136   0.11739814939813284   0.11739814939813284
0.9229668090993338   0.08727266517165003   0.04663506086121437
0.9229668090993338   0.08727266517165003   0.04663506086121437
0.9229668090993338   0.08727266517165003   0.04663506086121437
0.9229668090993338   0.08727266517165003   0.04663506086121437
0.9664749861312965   0.2416187465328241   0.2416187465328241
0.9664749861312965   0.2416187465328241   0.2416187465328241
0.9664749861312965   0.2416187465328241   0.2416187465328241
0.9664749861312965   0.2416187465328241   0.2416187465328241
0.41933932834953236   -0.012783011483000734   0.0036283743784241394
0.41933932834953236   -0.012783011483000734   0.0036283743784241394
0.41933932834953236   -0.012783011483000734   0.0036283743784241394
0.41933932834953236   -0.012783011483000734   0.0036283743784241394
0.6739940430013276   0.10134055231995909   0.037477599308067384
0.6739940430013276   0.10134055231995909   0.037477599308067384
0.6739940430013276   0.10134055231995909   0.037477599308067384
0.6739940430013276   0.10134055231995909   0.037477599308067384
0.467966950856053   0.11699173771401325   0.11699173771401325
0.467966950856053   0.11699173771401325   0.11699173771401325
0.467966950856053   0.11699173771401325   0.11699173771401325
0.467966950856053   0.11699173771401325   0.11699173771401325
0.8936750832998496   0.08767171701088682   0.03156626189754194
0.8936750832998496   0.08767171701088682   0.03156626189754194
0.8936750832998496   0.08767171701088682   0.03156626189754194
0.8936750832998496   0.08767171701088682   0.03156626189754194
0.9226062692763456   0.2306515673190864   0.2306515673190864
0.9226062692763456   0.2306515673190864   0.2306515673190864
0.9226062692763456   0.2306515673190864   0.2306515673190864
0.9226062692763456   0.2306515673190864   0.2306515673190864
0.4352486191484236   0.014337031695773148   0.013603700816053471
0.4352486191484236   0.014337031695773148   0.013603700816053471
0.4352486191484236   0.014337031695773148   0.013603700816053471
0.4352486191484236   0.014337031695773148   0.013603700816053471
0.6457745179737557   0.11002280443098525   -0.009939959860103723
0.6457745179737557   0.11002280443098525   -0.009939959860103723
0.6457745179737557   0.11002280443098525   -0.009939959860103723
0.6457745179737557   0.11002280443098525   -0.009939959860103723
-0.9421968368676383   -0.06752896754306775   0.011101947634038462
-0.9421968368676383   -0.06752896754306775   0.011101947634038462
-0.9421968368676383   -0.06752896754306775   0.011101947634038462
-0.9421968368676383   -0.06752896754306775   0.011101947634038462
-0.6002102244006863   -0.014315733736556577   -0.004055228513497187
-0.6002102244006863   -0.014315733736556577   -0.004055228513497187
-0.6002102244006863   -0.014315733736556577   -0.004055228513497187
-0.6002102244006863   -0.014315733736556577   -0.004055228513497187
-0.6038818437016252   0.02452300484031089   0.012924476533782203
-0.6038818437016252   0.02452300484031089   0.012924476533782203
-0.6038818437016252   0.02452300484031089   0.012924476533782203
-0.6038818437016252   0.02452300484031089   0.012924476533782203
-0.9560251803163258   -0.06546319942616638   -0.011539312502846226
-0.9560251803163258   -0.06546319942616638   -0.011539312502846226
-0.9560251803163258   -0.06546319942616638   -0.011539312502846226
-0.9560251803163258   -0.06546319942616638   -0.011539312502846226
-0.7451083697568796   -0.025594837207984805   -0.003207981380500914
-0.7451083697568796   -0.025594837207984805   -0.003207981380500914
-0.7451083697568796   -0.025594837207984805   -0.003207981380500914
-0.7451083697568796   -0.025594837207984805   -0.003207981380500914
-0.9488509409643575   -0.04606831079402188   0.004936995624850615
-0.9488509409643575   -0.04606831079402188   0.004936995624850615
-0.9488509409643575   -0.04606831079402188   0.004936995624850615
-0.9488509409643575   -0.04606831079402188   0.004936995624850615
-0.6120354069510371   0.004148792310724708   -0.00746912718368134
-0.6120354069510371   0.004148792310724708   -0.00746912718368134
-0.6120354069510371   0.004148792310724708   -0.00746912718368134
-0.6120354069510371   0.004148792310724708   -0.00746912718368134
-0.6043638900654822   0.03502704395954573   0.014631960852538359
-0.6043638900654822   0.03502704395954573   0.014631960852538359
-0.6043638900654822   0.03502704395954573   0.014631960852538359
-0.6043638900654822   0.03502704395954573   0.014631960852538359
-0.9614868064605252   -0.057573407306140745   -0.015209219999668983
-0.9614868064605252   -0.057573407306140745   -0.015209219999668983
-0.9614868064605252   -0.057573407306140745   -0.015209219999668983
-0.9614868064605252   -0.057573407306140745   -0.015209219999668983
-0.7657348577341333   -0.017038037729843192   -0.007384702095718322
-0.7657348577341333   -0.017038037729843192   -0.007384702095718322
-0.7657348577341333   -0.017038037729843192   -0.007384702095718322
-0.7657348577341333   -0.017038037729843192   -0.007384702095718322
-0.9439744587178407   -0.02738803304992593   0.04216714445753868
-0.9439744587178407   -0.02738803304992593   0.04216714445753868
-0.9439744587178407   -0.02738803304992593   0.04216714445753868
-0.9439744587178407   -0.02738803304992593   0.04216714445753868
-0.6146415065690662   0.012076400942432425   -0.013805478648264084
-0.6146415065690662   0.012076400942432425   -0.013805478648264084
-0.6146415065690662   0.012076400942432425   -0.013805478648264084
-0.6146415065690662   0.012076400942432425   -0.013805478648264084
-0.5931035364743302   0.06115412770336312   0.026341233933330196
-0.5931035364743302   0.06115412770336312   0.026341233933330196
-0.5931035364743302   0.06115412770336312   0.026341233933330196
-0.5931035364743302   0.06115412770336312   0.026341233933330196
-0.9344157146080037   -0.04624739772926101   -0.024764807682056397
-0.9344157146080037   -0.04624739772926101   -0.024764807682056397
-0.9344157146080037   -0.04624739772926101   -0.024764807682056397
-0.9344157146080037   -0.04624739772926101   -0.024764807682056397
-0.7360789567174969   0.007087502525394418   0.016394102389038802
-0.7360789567174969   0.007087502525394418   0.016394102389038802
-0.7360789567174969   0.007087502525394418   0.016394102389038802
-0.7360789567174969   0.007087502525394418   0.016394102389038802
-0.6149806820127394   -0.08168613184484681   -0.01053711846547217
-0.6149806820127394   -0.08168613184484681   -0.01053711846547217
-0.6149806820127394   -0.08168613184484681   -0.01053711846547217
-0.6149806820127394   -0.08168613184484681   -0.01053711846547217
-0.28393453630611504   -0.006619128081203546   0.002940378631794298
-0.28393453630611504   -0.006619128081203546   0.002940378631794298
-0.28393453630611504   -0.006619128081203546   0.002940378631794298
-0.28393453630611504   -0.006619128081203546   0.002940378631794298
-0.2878309998884785   0.005324339347775306   0.004419767589204957
-0.2878309998884785   0.005324339347775306   0.004419767589204957
-0.2878309998884785   0.005324339347775306   0.004419767589204957
-0.2878309998884785   0.005324339347775306   0.004419767589204957
-0.6270216520069287   -0.059747660720824936   -0.01850389943159933
-0.6270216520069287   -0.059747660720824936   -0.01850389943159933
-0.6270216520069287   -0.059747660720824936   -0.01850389943159933
-0.6270216520069287   -0.059747660720824936   -0.01850389943159933
-0.4534522872679443   -0.03696459126329654   -0.01052044088978421
-0.4534522872679443   -0.03696459126329654   -0.01052044088978421
-0.4534522872679443   -0.03696459126329654   -0.01052044088978421
-0.4534522872679443   -0.03696459126329654   -0.01052044088978421
-0.6263831788956714   -0.06523490740894376   -0.009824287187197394
-0.6263831788956714   -0.06523490740894376   -0.009824287187197394
-0.6263831788956714   -0.06523490740894376   -0.009824287187197394
-0.6263831788956714   -0.06523490740894376   -0.009824287187197394
-0.2873572057268417   0.011923853308787216   0.00018922443637447994
-0.2873572057268417   0.011923853308787216   0.00018922443637447994
-0.2873572057268417   0.011923853308787216   0.00018922443637447994
-0.2873572057268417   0.011923853308787216   0.00018922443637447994
-0.28653385720904473   0.01997457801116706   0.0059085962817625876
-0.28653385720904473   0.01997457801116706   0.0059085962817625876
-0.28653385720904473   0.01997457801116706   0.0059085962817625876
-0.28653385720904473   0.01997457801116706   0.0059085962817625876
-0.6270345683623345   -0.04366305728674312   -0.020031329385434584
-0.6270345683623345   -0.04366305728674312   -0.020031329385434584
-0.6270345683623345   -0.04366305728674312   -0.020031329385434584
-0.6270345683623345   -0.04366305728674312   -0.020031329385434584
-0.45235840980596326   -0.02052119934421956   -0.005010905922365631
-0.45235840980596326   -0.02052119934421956   -0.005010905922365631
-0.45235840980596326   -0.02052119934421956   -0.005010905922365631
-0.45235840980596326   -0.02052119934421956   -0.005010905922365631
-0.6245422272854024   -0.049212792931633956   -0.0020198883558836637
-0.6245422272854024   -0.049212792931633956   -0.0020198883558836637
-0.6245422272854024   -0.049212792931633956   -0.0020198883558836637
-0.6245422272854024   -0.049212792931633956   -0.0020198883558836637
-0.28695789426632107   0.02759261767571372   -0.0038296286691638613
-0.28695789426632107   0.02759261767571372   -0.0038296286691638613
-0.28695789426632107   0.02759261767571372   -0.0038296286691638613
-0.28695789426632107   0.02759261767571372   -0.0038296286691638613
-0.2815328362116299   0.03466866492128791   0.01173592408887459
-0.2815328362116299   0.03466866492128791   0.01173592408887459
-0.2815328362116299   0.03466866492128791   0.01173592408887459
-0.2815328362116299   0.03466866492128791   0.01173592408887459
-0.62008232259599   -0.025074705774556033   -0.02232386319704635
-0.62008232259599   -0.025074705774556033   -0.02232386319704635
-0.62008232259599   -0.025074705774556033   -0.02232386319704635
-0.62008232259599   -0.025074705774556033   -0.02232386319704635
-0.4502371706150456   -0.004956215871154204   0.0022492858458121184
-0.4502371706150456   -0.004956215871154204   0.0022492858458121184
-0.4502371706150456   -0.004956215871154204   0.0022492858458121184
-0.4502371706150456   -0.004956215871154204   0.0022492858458121184
-0.2993116131477904   -0.0680190922713112   -0.01254504138647492
-0.2993116131477904   -0.0680190922713112   -0.01254504138647492
-0.2993116131477904   -0.0680190922713112   -0.01254504138647492
-0.2993116131477904   -0.0680190922713112   -0.01254504138647492
0.029840045024660967   0.00677058252975232   0.011658571922236653
0.029840045024660967   0.00677058252975232   0.011658571922236653
0.029840045024660967   0.00677058252975232   0.011658571922236653
0.029840045024660967   0.00677058252975232   0.011658571922236653
0.028643338438217238   0.016953326024645388   0.0009715532214121976
0.028643338438217238   0.016953326024645388   0.0009715532214121976
0.028643338438217238   0.016953326024645388   0.0009715532214121976
0.028643338438217238   0.016953326024645388   0.0009715532214121976
-0.3003791366150242   -0.0449765507350035   -0.00802002596074732
-0.3003791366150242   -0.0449765507350035   -0.00802002596074732
-0.3003791366150242   -0.0449765507350035   -0.00802002596074732
-0.3003791366150242   -0.0449765507350035   -0.00802002596074732
-0.13661422988146482   -0.022635692255894645   -0.004387081125260865
-0.13661422988146482   -0.022635692255894645   -0.004387081125260865
-0.13661422988146482   -0.022635692255894645   -0.004387081125260865
-0.13661422988146482   -0.022635692255894645   -0.004387081125260865
-0.3024634681359552   -0.05178832732879391   -0.011629906971611892
-0.3024634681359552   -0.05178832732879391   -0.011629906971611892
-0.3024634681359552   -0.05178832732879391   -0.011629906971611892
-0.3024634681359552   -0.05178832732879391   -0.011629906971611892
0.03186790335173049   0.024905336011018027   0.009142367802605626
0.03186790335173049   0.024905336011018027   0.009142367802605626
0.03186790335173049   0.024905336011018027   0.009142367802605626
0.03186790335173049   0.024905336011018027   0.009142367802605626
0.031208595687498043   0.03305240744398609   0.005397750585631458
0.031208595687498043   0.03305240744398609   0.005397750585631458
0.031208595687498043   0.03305240744398609   0.005397750585631458
0.031208595687498043   0.03305240744398609   0.005397750585631458
-0.29917829961138487   -0.027316060597068315   -0.010022977121705447
-0.29917829961138487   -0.027316060597068315   -0.010022977121705447
-0.29917829961138487   -0.027316060597068315   -0.010022977121705447
-0.29917829961138487   -0.027316060597068315   -0.010022977121705447
-0.13426793260137135   -0.005541504168467399   0.0015534360548913528
-0.13426793260137135   -0.005541504168467399   0.0015534360548913528
-0.13426793260137135   -0.005541504168467399   0.0015534360548913528
-0.13426793260137135   -0.005541504168467399   0.0015534360548913528
-0.300000575481727   -0.03546588360090178   -0.005984533469582878
-0.300000575481727   -0.03546588360090178   -0.005984533469582878
-0.300000575481727   -0.03546588360090178   -0.005984533469582878
-0.300000575481727   -0.03546588360090178   -0.005984533469582878
0.03325997153396994   0.04243133042394957   0.006275706838027288
0.03325997153396994   0.04243133042394957   0.006275706838027288
0.03325997153396994   0.04243133042394957   0.006275706838027288
0.03325997153396994   0.04243133042394957   0.006275706838027288
0.03216610931652514   0.05094138019828532   0.008845603170070365
0.03216610931652514   0.05094138019828532   0.008845603170070365
0.03216610931652514   0.05094138019828532   0.008845603170070365
0.03216610931652514   0.05094138019828532   0.008845603170070365
-0.2950353900046035   -0.008453773835619925   -0.01265440611908718
-0.2950353900046035   -0.008453773835619925   -0.01265440611908718
-0.2950353900046035   -0.008453773835619925   -0.01265440611908718
-0.2950353900046035   -0.008453773835619925   -0.01265440611908718
-0.13068579717931011   0.012334257726823745   0.008057395475395012
-0.13068579717931011   0.012334257726823745   0.008057395475395012
-0.13068579717931011   0.012334257726823745   0.008057395475395012
-0.13068579717931011   0.012334257726823745   0.008057395475395012
0.013064421777132164   -0.04992838872493428   -0.01552057306072075
0.013064421777132164   -0.04992838872493428   -0.01552057306072075
0.013064421777132164   -0.04992838872493428   -0.01552057306072075
0.013064421777132164   -0.04992838872493428   -0.01552057306072075
0.3540935322122444   0.024302885199866543   0.021472962697300722
0.3540935322122444   0.024302885199866543   0.021472962697300722
0.3540935322122444   0.024302885199866543   0.021472962697300722
0.3540935322122444   0.024302885199866543   0.021472962697300722
0.35386352232699886   0.03289942060759261   -0.0034800120576195716
0.35386352232699886   0.03289942060759261   -0.0034800120576195716
0.35386352232699886   0.03289942060759261   -0.0034800120576195716
0.35386352232699886   0.03289942060759261   -0.0034800120576195716
0.01954503319745566   -0.029843416673829684   0.002276769716079192
0.01954503319745566   -0.029843416673829684   0.002276769716079192
0.01954503319745566   -0.029843416673829684   0.002276769716079192
0.01954503319745566   -0.029843416673829684   0.002276769716079192
0.182845929810583   -0.004376796938992025   0.00031259216182014105
0.182845929810583   -0.004376796938992025   0.00031259216182014105
0.182845929810583   -0.004376796938992025   0.00031259216182014105
0.182845929810583   -0.004376796938992025   0.00031259216182014105
0.015444921908076182   -0.03641811478799795   -0.011649088616649723
0.015444921908076182   -0.03641811478799795   -0.011649088616649723
0.015444921908076182   -0.03641811478799795   -0.011649088616649723
0.015444921908076182   -0.03641811478799795   -0.011649088616649723
0.3600268466527542   0.041537331758136765   0.01869869842061292
0.3600268466527542   0.041537331758136765   0.01869869842061292
0.3600268466527542   0.041537331758136765   0.01869869842061292
0.3600268466527542   0.041537331758136765   0.01869869842061292
0.3569460856914382   0.048836889413296544   0.003473706026064759
0.3569460856914382   0.048836889413296544   0.003473706026064759
0.3569460856914382   0.048836889413296544   0.003473706026064759
0.3569460856914382   0.048836889413296544   0.003473706026064759
0.020526214186737234   -0.014045593534658219   -0.0009161559395282747
0.020526214186737234   -0.014045593534658219   -0.0009161559395282747
0.020526214186737234   -0.014045593534658219   -0.0009161559395282747
0.020526214186737234   -0.014045593534658219   -0.0009161559395282747
0.18556620072331348   0.010848062317783645   0.007615401661197894
0.18556620072331348   0.010848062317783645   0.007615401661197894
0.18556620072331348   0.010848062317783645   0.007615401661197894
0.18556620072331348   0.010848062317783645   0.007615401661197894
0.017514247962000646   -0.02145711288114798   -0.00856446771672129
0.017514247962000646   -0.02145711288114798   -0.00856446771672129
0.017514247962000646   -0.02145711288114798   -0.00856446771672129
0.017514247962000646   -0.02145711288114798   -0.00856446771672129
0.3614533644064171   0.05774372125002934   0.017103267764229622
0.3614533644064171   0.05774372125002934   0.017103267764229622
0.3614533644064171   0.05774372125002934   0.017103267764229622
0.3614533644064171   0.05774372125002934   0.017103267764229622
0.35144555731921884   0.06722409258490246   0.00742050062803838
0.35144555731921884   0.06722409258490246   0.00742050062803838
0.35144555731921884   0.06722409258490246   0.00742050062803838
0.35144555731921884   0.06722409258490246   0.00742050062803838
0.020573097871157117   0.005474883434033986   -0.0036529572925183933
0.020573097871157117   0.005474883434033986   -0.0036529572925183933
0.020573097871157117   0.005474883434033986   -0.0036529572925183933
0.020573097871157117   0.005474883434033986   -0.0036529572925183933
0.18858368893390906   0.028244919466272004   0.014389833215452067
0.18858368893390906   0.028244919466272004   0.014389833215452067
0.18858368893390906   0.028244919466272004   0.014389833215452067
0.18858368893390906   0.028244919466272004   0.014389833215452067
0.3259241677678628   -0.0661860060281462   -0.028884968296594454
0.3259241677678628   -0.0661860060281462   -0.028884968296594454
0.3259241677678628   -0.0661860060281462   -0.028884968296594454
0.3259241677678628   -0.0661860060281462   -0.028884968296594454
0.6722820613900907   0.04441929299175364   0.021146058605341227
0.6722820613900907   0.04441929299175364   0.021146058605341227
0.6722820613900907   0.04441929299175364   0.021146058605341227
0.6722820613900907   0.04441929299175364   0.021146058605341227
0.6801892558351729   0.020694681990992517   -0.043477301777911384
0.6801892558351729   0.020694681990992517   -0.043477301777911384
0.6801892558351729   0.020694681990992517   -0.043477301777911384
0.6801892558351729   0.020694681990992517   -0.043477301777911384
0.3478794171794145   -0.013225566532261035   0.012724449344309226
0.3478794171794145   -0.013225566532261035   0.012724449344309226
0.3478794171794145   -0.013225566532261035   0.012724449344309226
0.3478794171794145   -0.013225566532261035   0.012724449344309226
0.4813376166443449   -0.008663955918947364   -0.01223366324401812
0.4813376166443449   -0.008663955918947364   -0.01223366324401812
0.4813376166443449   -0.008663955918947364   -0.01223366324401812
0.4813376166443449   -0.008663955918947364   -0.01223366324401812
0.33544110129240945   -0.043415023238810344   -0.01927767338416218
0.33544110129240945   -0.043415023238810344   -0.01927767338416218
0.33544110129240945   -0.043415023238810344   -0.01927767338416218
0.33544110129240945   -0.043415023238810344   -0.01927767338416218
0.6988548710211507   0.057111437996515274   0.013434018146454542
0.6988548710211507   0.057111437996515274   0.013434018146454542
0.6988548710211507   0.057111437996515274   0.013434018146454542
0.6988548710211507   0.057111437996515274   0.013434018146454542
0.6881143248589028   0.03821699910307111   -0.010146569200587922
0.6881143248589028   0.03821699910307111   -0.010146569200587922
0.6881143248589028   0.03821699910307111   -0.010146569200587922
0.6881143248589028   0.03821699910307111   -0.010146569200587922
0.34675457733740056   -0.005319770447284558   0.006672824116457733
0.34675457733740056   -0.005319770447284558   0.006672824116457733
0.34675457733740056   -0.005319770447284558   0.006672824116457733
0.34675457733740056   -0.005319770447284558   0.006672824116457733
0.5070066107975931   0.012690021266903093   0.00838006976195423
0.5070066107975931   0.012690021266903093   0.00838006976195423
0.5070066107975931   0.012690021266903093   0.00838006976195423
0.5070066107975931   0.012690021266903093   0.00838006976195423
0.33673496806468994   -0.03314879746210754   -0.015596195232269398
0.33673496806468994   -0.03314879746210754   -0.015596195232269398
0.33673496806468994   -0.03314879746210754   -0.015596195232269398
0.33673496806468994   -0.03314879746210754   -0.015596195232269398
0.6973374724229308   0.06524956440921215   0.00893660331341107
0.6973374724229308   0.06524956440921215   0.00893660331341107
0.6973374724229308   0.06524956440921215   0.00893660331341107
0.6973374724229308   0.06524956440921215   0.00893660331341107
0.6874527293248383   0.058973544904080744   -0.015417843318822094
0.6874527293248383   0.058973544904080744   -0.015417843318822094
0.6874527293248383   0.058973544904080744   -0.015417843318822094
0.6874527293248383   0.058973544904080744   -0.015417843318822094
0.3398364358528745   0.012806540064750634   0.0037924458164653504
0.3398364358528745   0.012806540064750634   0.0037924458164653504
0.3398364358528745   0.012806540064750634   0.0037924458164653504
0.3398364358528745   0.012806540064750634   0.0037924458164653504
0.4943818839966301   0.022410164162236207   0.006365521905200625
0.4943818839966301   0.022410164162236207   0.006365521905200625
0.4943818839966301   0.022410164162236207   0.006365521905200625
0.4943818839966301   0.022410164162236207   0.006365521905200625
-0.7378155600587326   -0.03331948424863011   0.03853135458417965
-0.7378155600587326   -0.03331948424863011   0.03853135458417965
-0.7378155600587326   -0.03331948424863011   0.03853135458417965
-0.7378155600587326   -0.03331948424863011   0.03853135458417965
-0.4908460740054444   -0.019003149078997097   -0.010025700448377299
-0.4908460740054444   -0.019003149078997097   -0.010025700448377299
-0.4908460740054444   -0.019003149078997097   -0.010025700448377299
-0.4908460740054444   -0.019003149078997097   -0.010025700448377299
-0.4728420920041835   0.039934989249431535   0.032268542563001
-0.4728420920041835   0.039934989249431535   0.032268542563001
-0.4728420920041835   0.039934989249431535   0.032268542563001
-0.4728420920041835   0.039934989249431535   0.032268542563001
-0.7411048309131046   -0.053035400443271985   -0.01567554150850102
-0.7411048309131046   -0.053035400443271985   -0.01567554150850102
-0.7411048309131046   -0.053035400443271985   -0.01567554150850102
-0.7411048309131046   -0.053035400443271985   -0.01567554150850102
-0.5859138716907771   -0.009052159497374188   -0.001328112232316627
-0.5859138716907771   -0.009052159497374188   -0.001328112232316627
-0.5859138716907771   -0.009052159497374188   -0.001328112232316627
-0.5859138716907771   -0.009052159497374188   -0.001328112232316627
-0.7202216800554632   -0.007378062005114844   0.04308287434154879
-0.7202216800554632   -0.007378062005114844   0.04308287434154879
-0.7202216800554632   -0.007378062005114844   0.04308287434154879
-0.7202216800554632   -0.007378062005114844   0.04308287434154879
-0.4904416363481078   -0.002438742675008543   -0.013355447232180628
-0.4904416363481078   -0.002438742675008543   -0.013355447232180628
-0.4904416363481078   -0.002438742675008543   -0.013355447232180628
-0.4904416363481078   -0.002438742675008543   -0.013355447232180628
-0.470790804150879   0.049580879311003884   0.029866210776405937
-0.470790804150879   0.049580879311003884   0.029866210776405937
-0.470790804150879   0.049580879311003884   0.029866210776405937
-0.470790804150879   0.049580879311003884   0.029866210776405937
-0.7293555977853412   -0.044278208683596665   -0.021423215442805253
-0.7293555977853412   -0.044278208683596665   -0.021423215442805253
-0.7293555977853412   -0.044278208683596665   -0.021423215442805253
-0.7293555977853412   -0.044278208683596665   -0.021423215442805253
-0.5869367178087062   0.002277355767970529   0.0066437133218568145
-0.5869367178087062   0.002277355767970529   0.0066437133218568145
-0.5869367178087062   0.002277355767970529   0.0066437133218568145
-0.5869367178087062   0.002277355767970529   0.0066437133218568145
-0.7099243441858191   0.001726581602480376   0.02972826226872862
-0.7099243441858191   0.001726581602480376   0.02972826226872862
-0.7099243441858191   0.001726581602480376   0.02972826226872862
-0.7099243441858191   0.001726581602480376   0.02972826226872862
-0.489141413455584   0.00465673331974524   -0.016962689755856866
-0.489141413455584   0.00465673331974524   -0.016962689755856866
-0.489141413455584   0.00465673331974524   -0.016962689755856866
-0.489141413455584   0.00465673331974524   -0.016962689755856866
-0.4711353134573623   0.05610181249416307   0.023700842284422624
-0.4711353134573623   0.05610181249416307   0.023700842284422624
-0.4711353134573623   0.05610181249416307   0.023700842284422624
-0.4711353134573623   0.05610181249416307   0.023700842284422624
-0.7141782649857447   -0.03490404180796833   -0.027284645878371636
-0.7141782649857447   -0.03490404180796833   -0.027284645878371636
-0.7141782649857447   -0.03490404180796833   -0.027284645878371636
-0.7141782649857447   -0.03490404180796833   -0.027284645878371636
-0.5698779220490124   0.01245591604561061   0.01403634425999535
-0.5698779220490124   0.01245591604561061   0.01403634425999535
-0.5698779220490124   0.01245591604561061   0.01403634425999535
-0.5698779220490124   0.01245591604561061   0.01403634425999535
-0.49214765273118505   -0.04663097976982658   0.011094236613749066
-0.49214765273118505   -0.04663097976982658   0.011094236613749066
-0.49214765273118505   -0.04663097976982658   0.011094236613749066
-0.49214765273118505   -0.04663097976982658   0.011094236613749066
-0.24933128911380453   -0.009215363878483797   0.00043956872580741893
-0.24933128911380453   -0.009215363878483797   0.00043956872580741893
-0.24933128911380453   -0.009215363878483797   0.00043956872580741893
-0.24933128911380453   -0.009215363878483797   0.00043956872580741893
-0.24210789156114743   0.024439351972975906   0.01751740359162371
-0.24210789156114743   0.024439351972975906   0.01751740359162371
-0.24210789156114743   0.024439351972975906   0.01751740359162371
-0.24210789156114743   0.024439351972975906   0.01751740359162371
-0.4999274563179305   -0.045984952217689654   -0.017238337538613036
-0.4999274563179305   -0.045984952217689654   -0.017238337538613036
-0.4999274563179305   -0.045984952217689654   -0.017238337538613036
-0.4999274563179305   -0.045984952217689654   -0.017238337538613036
-0.3695892864256085   -0.01813951072213013   -0.007606966265874992
-0.3695892864256085   -0.01813951072213013   -0.007606966265874992
-0.3695892864256085   -0.01813951072213013   -0.007606966265874992
-0.3695892864256085   -0.01813951072213013   -0.007606966265874992
-0.4904626522653934   -0.026595778987434954   0.010696509493815287
-0.4904626522653934   -0.026595778987434954   0.010696509493815287
-0.4904626522653934   -0.026595778987434954   0.010696509493815287
-0.4904626522653934   -0.026595778987434954   0.010696509493815287
-0.2496639833935434   0.006958890962862285   -0.0027825945602404645
-0.2496639833935434   0.006958890962862285   -0.0027825945602404645
-0.2496639833935434   0.006958890962862285   -0.0027825945602404645
-0.2496639833935434   0.006958890962862285   -0.0027825945602404645
-0.2412326545933955   0.04053069181707551   0.015135502364721384
-0.2412326545933955   0.04053069181707551   0.015135502364721384
-0.2412326545933955   0.04053069181707551   0.015135502364721384
-0.2412326545933955   0.04053069181707551   0.015135502364721384
-0.49695080101686606   -0.03098613550966281   -0.02036675873286313
-0.49695080101686606   -0.03098613550966281   -0.02036675873286313
-0.49695080101686606   -0.03098613550966281   -0.02036675873286313
-0.49695080101686606   -0.03098613550966281   -0.02036675873286313
-0.36543602921680846   -0.001895435754791966   -9.18178343936038e-05
-0.36543602921680846   -0.001895435754791966   -9.18178343936038e-05
-0.36543602921680846   -0.001895435754791966   -9.18178343936038e-05
-0.36543602921680846   -0.001895435754791966   -9.18178343936038e-05
-0.48729533998154745   -0.010270052955571415   0.007194463889638705
-0.48729533998154745   -0.010270052955571415   0.007194463889638705
-0.48729533998154745   -0.010270052955571415   0.007194463889638705
-0.48729533998154745   -0.010270052955571415   0.007194463889638705
-0.24933464945965708   0.021368075432041514   -0.006211855581550525
-0.24933464945965708   0.021368075432041514   -0.006211855581550525
-0.24933464945965708   0.021368075432041514   -0.006211855581550525
-0.24933464945965708   0.021368075432041514   -0.006211855581550525
-0.24105549810991647   0.05746030954944038   0.011324388936862197
-0.24105549810991647   0.05746030954944038   0.011324388936862197
-0.24105549810991647   0.05746030954944038   0.011324388936862197
-0.24105549810991647   0.05746030954944038   0.011324388936862197
-0.49443188359853396   -0.014773387899065307   -0.021906808028209348
-0.49443188359853396   -0.014773387899065307   -0.021906808028209348
-0.49443188359853396   -0.014773387899065307   -0.021906808028209348
-0.49443188359853396   -0.014773387899065307   -0.021906808028209348
-0.36554394577377325   0.013038472364281295   0.005669619582331611
-0.36554394577377325   0.013038472364281295   0.005669619582331611
-0.36554394577377325   0.013038472364281295   0.005669619582331611
-0.36554394577377325   0.013038472364281295   0.005669619582331611
-0.25855070824540133   -0.05351155055903366   -0.001361340251628984
-0.25855070824540133   -0.05351155055903366   -0.001361340251628984
-0.25855070824540133   -0.05351155055903366   -0.001361340251628984
-0.25855070824540133   -0.05351155055903366   -0.001361340251628984
-0.009995137711194181   0.002384403311983253   0.011032454676743565
-0.009995137711194181   0.002384403311983253   0.011032454676743565
-0.009995137711194181   0.002384403311983253   0.011032454676743565
-0.009995137711194181   0.002384403311983253   0.011032454676743565
-0.01083709456878555   0.015593404547826118   0.005287708407162111
-0.01083709456878555   0.015593404547826118   0.005287708407162111
-0.01083709456878555   0.015593404547826118   0.005287708407162111
-0.01083709456878555   0.015593404547826118   0.005287708407162111
-0.25861787607759573   -0.034182075938658046   -0.006411091078985674
-0.25861787607759573   -0.034182075938658046   -0.006411091078985674
-0.25861787607759573   -0.034182075938658046   -0.006411091078985674
-0.25861787607759573   -0.034182075938658046   -0.006411091078985674
-0.13491890643729626   -0.01685356601593141   -0.004282989890778615
-0.13491890643729626   -0.01685356601593141   -0.004282989890778615
-0.13491890643729626   -0.01685356601593141   -0.004282989890778615
-0.13491890643729626   -0.01685356601593141   -0.004282989890778615
-0.25833827611003707   -0.03566950573152188   -0.0035256614483264084
-0.25833827611003707   -0.03566950573152188   -0.0035256614483264084
-0.25833827611003707   -0.03566950573152188   -0.0035256614483264084
-0.25833827611003707   -0.03566950573152188   -0.0035256614483264084
-0.009695820923540783   0.018501707953493752   0.008085773227718317
-0.009695820923540783   0.018501707953493752   0.008085773227718317
-0.009695820923540783   0.018501707953493752   0.008085773227718317
-0.009695820923540783   0.018501707953493752   0.008085773227718317
-0.009548052491908168   0.03311479805989932   0.002501069043654154
-0.009548052491908168   0.03311479805989932   0.002501069043654154
-0.009548052491908168   0.03311479805989932   0.002501069043654154
-0.009548052491908168   0.03311479805989932   0.002501069043654154
-0.25785600778109763   -0.01803149510532511   -0.009419076651388787
-0.25785600778109763   -0.01803149510532511   -0.009419076651388787
-0.25785600778109763   -0.01803149510532511   -0.009419076651388787
-0.25785600778109763   -0.01803149510532511   -0.009419076651388787
-0.1335040294444274   -0.0006674798106085164   0.0017947752519067326
-0.1335040294444274   -0.0006674798106085164   0.0017947752519067326
-0.1335040294444274   -0.0006674798106085164   0.0017947752519067326
-0.1335040294444274   -0.0006674798106085164   0.0017947752519067326
-0.2574710978668089   -0.0183960243840547   -0.007129997801215298
-0.2574710978668089   -0.0183960243840547   -0.007129997801215298
-0.2574710978668089   -0.0183960243840547   -0.007129997801215298
-0.2574710978668089   -0.0183960243840547   -0.007129997801215298
-0.008760600522440667   0.03465168922238584   0.004901437728505153
-0.008760600522440667   0.03465168922238584   0.004901437728505153
-0.008760600522440667   0.03465168922238584   0.004901437728505153
-0.008760600522440667   0.03465168922238584   0.004901437728505153
-0.009187259039943033   0.05115284636335476   -0.0004694360888742692
-0.009187259039943033   0.05115284636335476   -0.0004694360888742692
-0.009187259039943033   0.05115284636335476   -0.0004694360888742692
-0.009187259039943033   0.05115284636335476   -0.0004694360888742692
-0.25762831213207366   -0.0016126403517003132   -0.012466731272782207
-0.25762831213207366   -0.0016126403517003132   -0.012466731272782207
-0.25762831213207366   -0.0016126403517003132   -0.012466731272782207
-0.25762831213207366   -0.0016126403517003132   -0.012466731272782207
-0.13238050187237257   0.015534594249143524   0.007370146969029136
-0.13238050187237257   0.015534594249143524   0.007370146969029136
-0.13238050187237257   0.015534594249143524   0.007370146969029136
-0.13238050187237257   0.015534594249143524   0.007370146969029136
-0.02699666794623526   -0.05877325500715436   -0.012817538179324118
-0.02699666794623526   -0.05877325500715436   -0.012817538179324118
-0.02699666794623526   -0.05877325500715436   -0.012817538179324118
-0.02699666794623526   -0.05877325500715436   -0.012817538179324118
0.22825017034711387   0.01593009036814414   0.02098952303241422
0.22825017034711387   0.01593009036814414   0.02098952303241422
0.22825017034711387   0.01593009036814414   0.02098952303241422
0.22825017034711387   0.01593009036814414   0.02098952303241422
0.2207518585972532   0.008261879843520684   -0.0084035730969665
0.2207518585972532   0.008261879843520684   -0.0084035730969665
0.2207518585972532   0.008261879843520684   -0.0084035730969665
0.2207518585972532   0.008261879843520684   -0.0084035730969665
-0.018366947649699723   -0.021374470396857033   0.0046063179472744
-0.018366947649699723   -0.021374470396857033   0.0046063179472744
-0.018366947649699723   -0.021374470396857033   0.0046063179472744
-0.018366947649699723   -0.021374470396857033   0.0046063179472744
0.09946964446630754   -0.013764462903397775   -0.0024435753881166655
0.09946964446630754   -0.013764462903397775   -0.0024435753881166655
0.09946964446630754   -0.013764462903397775   -0.0024435753881166655
0.09946964446630754   -0.013764462903397775   -0.0024435753881166655
-0.026798146101559256   -0.04279352951552047   -0.01613061519335983
-0.026798146101559256   -0.04279352951552047   -0.01613061519335983
-0.026798146101559256   -0.04279352951552047   -0.01613061519335983
-0.026798146101559256   -0.04279352951552047   -0.01613061519335983
0.23079990536931805   0.031297787282389175   0.018800753324487635
0.23079990536931805   0.031297787282389175   0.018800753324487635
0.23079990536931805   0.031297787282389175   0.018800753324487635
0.23079990536931805   0.031297787282389175   0.018800753324487635
0.22450407751105553   0.02457348538149988   -0.011798624683054187
0.22450407751105553   0.02457348538149988   -0.011798624683054187
0.22450407751105553   0.02457348538149988   -0.011798624683054187
0.22450407751105553   0.02457348538149988   -0.011798624683054187
-0.017773382686821413   -0.006900585962813216   0.0013898020918006058
-0.017773382686821413   -0.006900585962813216   0.0013898020918006058
-0.017773382686821413   -0.006900585962813216   0.0013898020918006058
-0.017773382686821413   -0.006900585962813216   0.0013898020918006058
0.10049430704676796   0.0009045501072670534   0.003605486706477294
0.10049430704676796   0.0009045501072670534   0.003605486706477294
0.10049430704676796   0.0009045501072670534   0.003605486706477294
0.10049430704676796   0.0009045501072670534   0.003605486706477294
-0.02597640621892566   -0.027056722278493622   -0.01946917925304047
-0.02597640621892566   -0.027056722278493622   -0.01946917925304047
-0.02597640621892566   -0.027056722278493622   -0.01946917925304047
-0.02597640621892566   -0.027056722278493622   -0.01946917925304047
0.23446994687287961   0.04649246752690032   0.016111739980663398
0.23446994687287961   0.04649246752690032   0.016111739980663398
0.23446994687287961   0.04649246752690032   0.016111739980663398
0.23446994687287961   0.04649246752690032   0.016111739980663398
0.22686584717639355   0.04499107163252995   -0.012364765605274974
0.22686584717639355   0.04499107163252995   -0.012364765605274974
0.22686584717639355   0.04499107163252995   -0.012364765605274974
0.22686584717639355   0.04499107163252995   -0.012364765605274974
-0.01769239248505981   0.009977501297827096   -0.0018197582489304243
-0.01769239248505981   0.009977501297827096   -0.0018197582489304243
-0.01769239248505981   0.009977501297827096   -0.0018197582489304243
-0.01769239248505981   0.009977501297827096   -0.0018197582489304243
0.1041439243772663   0.017222171020111435   0.010772056848640108
0.1041439243772663   0.017222171020111435   0.010772056848640108
0.1041439243772663   0.017222171020111435   0.010772056848640108
0.1041439243772663   0.017222171020111435   0.010772056848640108
0.20416453857654265   -0.05844594365206915   -0.02506260180022657
0.20416453857654265   -0.05844594365206915   -0.02506260180022657
0.20416453857654265   -0.05844594365206915   -0.02506260180022657
0.20416453857654265   -0.05844594365206915   -0.02506260180022657
0.4502698488247465   0.033474374668256784   0.023511342124901018
0.4502698488247465   0.033474374668256784   0.023511342124901018
0.4502698488247465   0.033474374668256784   0.023511342124901018
0.4502698488247465   0.033474374668256784   0.023511342124901018
0.44679821742888376   -0.0026600105294574405   -0.03336657089114208
0.44679821742888376   -0.0026600105294574405   -0.03336657089114208
0.44679821742888376   -0.0026600105294574405   -0.03336657089114208
0.44679821742888376   -0.0026600105294574405   -0.03336657089114208
0.2230178711507529   -0.004640563004550388   0.015828932518603116
0.2230178711507529   -0.004640563004550388   0.015828932518603116
0.2230178711507529   -0.004640563004550388   0.015828932518603116
0.2230178711507529   -0.004640563004550388   0.015828932518603116
0.3149834804584456   -0.01153544173560915   -0.010435732587673
0.3149834804584456   -0.01153544173560915   -0.010435732587673
0.3149834804584456   -0.01153544173560915   -0.010435732587673
0.3149834804584456   -0.01153544173560915   -0.010435732587673
0.20448897552588807   -0.05061647204490176   -0.030839636565368006
0.20448897552588807   -0.05061647204490176   -0.030839636565368006
0.20448897552588807   -0.05061647204490176   -0.030839636565368006
0.20448897552588807   -0.05061647204490176   -0.030839636565368006
0.4666545063337067   0.044643291790852364   0.01861157131266302
0.4666545063337067   0.044643291790852364   0.01861157131266302
0.4666545063337067   0.044643291790852364   0.01861157131266302
0.4666545063337067   0.044643291790852364   0.01861157131266302
0.45806319712391014   0.006643820666944272   -0.04481784009890776
0.45806319712391014   0.006643820666944272   -0.04481784009890776
0.45806319712391014   0.006643820666944272   -0.04481784009890776
0.45806319712391014   0.006643820666944272   -0.04481784009890776
0.22480838865969793   0.0024612699296449464   0.011835146512014765
0.22480838865969793   0.0024612699296449464   0.011835146512014765
0.22480838865969793   0.0024612699296449464   0.011835146512014765
0.22480838865969793   0.0024612699296449464   0.011835146512014765
0.32950108871367184   -0.0014523619670611526   -0.0031262870789930085
0.32950108871367184   -0.0014523619670611526   -0.0031262870789930085
0.32950108871367184   -0.0014523619670611526   -0.0031262870789930085
0.32950108871367184   -0.0014523619670611526   -0.0031262870789930085
0.20695972816120825   -0.041335568596643925   -0.033611317454146805
0.20695972816120825   -0.041335568596643925   -0.033611317454146805
0.20695972816120825   -0.041335568596643925   -0.033611317454146805
0.20695972816120825   -0.041335568596643925   -0.033611317454146805
0.478848402724318   0.05337720429515164   0.012374804274928142
0.478848402724318   0.05337720429515164   0.012374804274928142
0.478848402724318   0.05337720429515164   0.012374804274928142
0.478848402724318   0.05337720429515164   0.012374804274928142
0.4759335245711417   0.030821509184742878   -0.0422297973018406
0.4759335245711417   0.030821509184742878   -0.0422297973018406
0.4759335245711417   0.030821509184742878   -0.0422297973018406
0.4759335245711417   0.030821509184742878   -0.0422297973018406
0.22568676600905763   0.01806190824004867   0.008668991950528665
0.22568676600905763   0.01806190824004867   0.008668991950528665
0.22568676600905763   0.01806190824004867   0.008668991950528665
0.22568676600905763   0.01806190824004867   0.008668991950528665
0.33220827525061347   0.010039761254056104   0.0049993560560721816
0.33220827525061347   0.010039761254056104   0.0049993560560721816
0.33220827525061347   0.010039761254056104   0.0049993560560721816
0.33220827525061347   0.010039761254056104   0.0049993560560721816
-0.5250681718466874   -0.01689026508216966   0.03476081737700288
-0.5250681718466874   -0.01689026508216966   0.03476081737700288
-0.5250681718466874   -0.01689026508216966   0.03476081737700288
-0.5250681718466874   -0.01689026508216966   0.03476081737700288
-0.36844291811816365   -0.024886425501030658   -0.01306348043759756
-0.36844291811816365   -0.024886425501030658   -0.01306348043759756
-0.36844291811816365   -0.024886425501030658   -0.01306348043759756
-0.36844291811816365   -0.024886425501030658   -0.01306348043759756
-0.34661716809315757   0.034918106804576604   0.029604331910794812
-0.34661716809315757   0.034918106804576604   0.029604331910794812
-0.34661716809315757   0.034918106804576604   0.029604331910794812
-0.34661716809315757   0.034918106804576604   0.029604331910794812
-0.5250966991230146   -0.0432839587982891   -0.019122622673063926
-0.5250966991230146   -0.0432839587982891   -0.019122622673063926
-0.5250966991230146   -0.0432839587982891   -0.019122622673063926
-0.5250966991230146   -0.0432839587982891   -0.019122622673063926
-0.4232858194040948   -0.006683889380824148   -0.0011536421175444497
-0.4232858194040948   -0.006683889380824148   -0.0011536421175444497
-0.4232858194040948   -0.006683889380824148   -0.0011536421175444497
-0.4232858194040948   -0.006683889380824148   -0.0011536421175444497
-0.5052325865063734   0.0038807942184541644   0.033033187393398486
-0.5052325865063734   0.0038807942184541644   0.033033187393398486
-0.5052325865063734   0.0038807942184541644   0.033033187393398486
-0.5052325865063734   0.0038807942184541644   0.033033187393398486
-0.36486003562729225   -0.010625401129658624   -0.016066497825641513
-0.36486003562729225   -0.010625401129658624   -0.016066497825641513
-0.36486003562729225   -0.010625401129658624   -0.016066497825641513
-0.36486003562729225   -0.010625401129658624   -0.016066497825641513
-0.34334287419942766   0.04220769777985264   0.024993593288527648
-0.34334287419942766   0.04220769777985264   0.024993593288527648
-0.34334287419942766   0.04220769777985264   0.024993593288527648
-0.34334287419942766   0.04220769777985264   0.024993593288527648
-0.5125314240058492   -0.035152579822120056   -0.024140262591819773
-0.5125314240058492   -0.035152579822120056   -0.024140262591819773
-0.5125314240058492   -0.035152579822120056   -0.024140262591819773
-0.5125314240058492   -0.035152579822120056   -0.024140262591819773
-0.4202285169095918   0.002916871639300919   0.004296211733892854
-0.4202285169095918   0.002916871639300919   0.004296211733892854
-0.4202285169095918   0.002916871639300919   0.004296211733892854
-0.4202285169095918   0.002916871639300919   0.004296211733892854
-0.492856125736067   0.012602548834844546   0.026481100100126477
-0.492856125736067   0.012602548834844546   0.026481100100126477
-0.492856125736067   0.012602548834844546   0.026481100100126477
-0.492856125736067   0.012602548834844546   0.026481100100126477
-0.36155721933029744   -0.004086477738199215   -0.019783956847767344
-0.36155721933029744   -0.004086477738199215   -0.019783956847767344
-0.36155721933029744   -0.004086477738199215   -0.019783956847767344
-0.36155721933029744   -0.004086477738199215   -0.019783956847767344
-0.34153446523433073   0.049382414544664244   0.021503836133377224
-0.34153446523433073   0.049382414544664244   0.021503836133377224
-0.34153446523433073   0.049382414544664244   0.021503836133377224
-0.34153446523433073   0.049382414544664244   0.021503836133377224
-0.49574124289061927   -0.02436793617781649   -0.02888211363951334
-0.49574124289061927   -0.02436793617781649   -0.02888211363951334
-0.49574124289061927   -0.02436793617781649   -0.02888211363951334
-0.49574124289061927   -0.02436793617781649   -0.02888211363951334
-0.40438933447901615   0.011945301503169595   0.011899449842824643
-0.40438933447901615   0.011945301503169595   0.011899449842824643
-0.40438933447901615   0.011945301503169595   0.011899449842824643
-0.40438933447901615   0.011945301503169595   0.011899449842824643
-0.36414017315392283   -0.029626908879295463   0.01319072776186735
-0.36414017315392283   -0.029626908879295463   0.01319072776186735
-0.36414017315392283   -0.029626908879295463   0.01319072776186735
-0.36414017315392283   -0.029626908879295463   0.01319072776186735
-0.21213313470494954   -0.016119256410238113   -0.002112527584550321
-0.21213313470494954   -0.016119256410238113   -0.002112527584550321
-0.21213313470494954   -0.016119256410238113   -0.002112527584550321
-0.21213313470494954   -0.016119256410238113   -0.002112527584550321
-0.20133053736016995   0.020373601512532598   0.01595751215473762
-0.20133053736016995   0.020373601512532598   0.01595751215473762
-0.20133053736016995   0.020373601512532598   0.01595751215473762
-0.20133053736016995   0.020373601512532598   0.01595751215473762
-0.3696665351655362   -0.03532789824971294   -0.015396498396808712
-0.3696665351655362   -0.03532789824971294   -0.015396498396808712
-0.3696665351655362   -0.03532789824971294   -0.015396498396808712
-0.3696665351655362   -0.03532789824971294   -0.015396498396808712
-0.28569372182644925   -0.013864173123179294   -0.005927559433721894
-0.28569372182644925   -0.013864173123179294   -0.005927559433721894
-0.28569372182644925   -0.013864173123179294   -0.005927559433721894
-0.28569372182644925   -0.013864173123179294   -0.005927559433721894
-0.35983827450524003   -0.0123633891803646   0.010780295835321724
-0.35983827450524003   -0.0123633891803646   0.010780295835321724
-0.35983827450524003   -0.0123633891803646   0.010780295835321724
-0.35983827450524003   -0.0123633891803646   0.010780295835321724
-0.2098965241791656   -0.0013286337155168568   -0.005170186712191185
-0.2098965241791656   -0.0013286337155168568   -0.005170186712191185
-0.2098965241791656   -0.0013286337155168568   -0.005170186712191185
-0.2098965241791656   -0.0013286337155168568   -0.005170186712191185
-0.19877365721632392   0.035336857805775425   0.013071064043785871
-0.19877365721632392   0.035336857805775425   0.013071064043785871
-0.19877365721632392   0.035336857805775425   0.013071064043785871
-0.19877365721632392   0.035336857805775425   0.013071064043785871
-0.3646605697445917   -0.021238051861891837   -0.018149134795548257
-0.3646605697445917   -0.021238051861891837   -0.018149134795548257
-0.3646605697445917   -0.021238051861891837   -0.018149134795548257
-0.3646605697445917   -0.021238051861891837   -0.018149134795548257
-0.28020067110349545   0.0008059501480274858   0.0003771682794508971
-0.28020067110349545   0.0008059501480274858   0.0003771682794508971
-0.28020067110349545   0.0008059501480274858   0.0003771682794508971
-0.28020067110349545   0.0008059501480274858   0.0003771682794508971
-0.3540891408168948   0.0036279498942608235   0.009842008086783718
-0.3540891408168948   0.0036279498942608235   0.009842008086783718
-0.3540891408168948   0.0036279498942608235   0.009842008086783718
-0.3540891408168948   0.0036279498942608235   0.009842008086783718
-0.2077776753686729   0.012038266824970993   -0.008650435737152974
-0.2077776753686729   0.012038266824970993   -0.008650435737152974
-0.2077776753686729   0.012038266824970993   -0.008650435737152974
-0.2077776753686729   0.012038266824970993   -0.008650435737152974
-0.1963020867764759   0.051310564004921295   0.010383154669661675
-0.1963020867764759   0.051310564004921295   0.010383154669661675
-0.1963020867764759   0.051310564004921295   0.010383154669661675
-0.1963020867764759   0.051310564004921295   0.010383154669661675
-0.36092532654694365   -0.006023144284640597   -0.020044911600384872
-0.36092532654694365   -0.006023144284640597   -0.020044911600384872
-0.36092532654694365   -0.006023144284640597   -0.020044911600384872
-0.36092532654694365   -0.006023144284640597   -0.020044911600384872
-0.27805749598825263   0.014649959091541813   0.0063959444868292754
-0.27805749598825263   0.014649959091541813   0.0063959444868292754
-0.27805749598825263   0.014649959091541813   0.0063959444868292754
-0.27805749598825263   0.014649959091541813   0.0063959444868292754
-0.21656146455022982   -0.04100836636284246   0.0006349331416506333
-0.21656146455022982   -0.04100836636284246   0.0006349331416506333
-0.21656146455022982   -0.04100836636284246   0.0006349331416506333
-0.21656146455022982   -0.04100836636284246   0.0006349331416506333
-0.05734242403149746   -0.00501264872520402   0.008807550811709775
-0.05734242403149746   -0.00501264872520402   0.008807550811709775
-0.05734242403149746   -0.00501264872520402   0.008807550811709775
-0.05734242403149746   -0.00501264872520402   0.008807550811709775
-0.05597981234089272   0.008228627960584524   0.003004364680524111
-0.05597981234089272   0.008228627960584524   0.003004364680524111
-0.05597981234089272   0.008228627960584524   0.003004364680524111
-0.05597981234089272   0.008228627960584524   0.003004364680524111
-0.2141905762174264   -0.023890763345013697   -0.004078317274000809
-0.2141905762174264   -0.023890763345013697   -0.004078317274000809
-0.2141905762174264   -0.023890763345013697   -0.004078317274000809
-0.2141905762174264   -0.023890763345013697   -0.004078317274000809
-0.13625528928910513   -0.014755011692195842   -0.004224866493311179
-0.13625528928910513   -0.014755011692195842   -0.004224866493311179
-0.13625528928910513   -0.014755011692195842   -0.004224866493311179
-0.13625528928910513   -0.014755011692195842   -0.004224866493311179
-0.21383469415442782   -0.024317629499193038   -0.001872040804828599
-0.21383469415442782   -0.024317629499193038   -0.001872040804828599
-0.21383469415442782   -0.024317629499193038   -0.001872040804828599
-0.21383469415442782   -0.024317629499193038   -0.001872040804828599
-0.05507004266620563   0.009921145852450804   0.005860695162093265
-0.05507004266620563   0.009921145852450804   0.005860695162093265
-0.05507004266620563   0.009921145852450804   0.005860695162093265
-0.05507004266620563   0.009921145852450804   0.005860695162093265
-0.05288965119476054   0.024994713186224156   0.0007456082200204463
-0.05288965119476054   0.024994713186224156   0.0007456082200204463
-0.05288965119476054   0.024994713186224156   0.0007456082200204463
-0.05288965119476054   0.024994713186224156   0.0007456082200204463
-0.21162936921090927   -0.008849674289940643   -0.007020963833424874
-0.21162936921090927   -0.008849674289940643   -0.007020963833424874
-0.21162936921090927   -0.008849674289940643   -0.007020963833424874
-0.21162936921090927   -0.008849674289940643   -0.007020963833424874
-0.13295318169251275   0.0002958051323576037   0.0017238915187515079
-0.13295318169251275   0.0002958051323576037   0.0017238915187515079
-0.13295318169251275   0.0002958051323576037   0.0017238915187515079
-0.13295318169251275   0.0002958051323576037   0.0017238915187515079
-0.2108377737055   -0.0076054708993263595   -0.00430718969699268
-0.2108377737055   -0.0076054708993263595   -0.00430718969699268
-0.2108377737055   -0.0076054708993263595   -0.00430718969699268
-0.2108377737055   -0.0076054708993263595   -0.00430718969699268
-0.05251248482773968   0.024919271668040022   0.002706881573308841
-0.05251248482773968   0.024919271668040022   0.002706881573308841
-0.05251248482773968   0.024919271668040022   0.002706881573308841
-0.05251248482773968   0.024919271668040022   0.002706881573308841
-0.050112708960644216   0.04200412726710362   -0.0018984963501920016
-0.050112708960644216   0.04200412726710362   -0.0018984963501920016
-0.050112708960644216   0.04200412726710362   -0.0018984963501920016
-0.050112708960644216   0.04200412726710362   -0.0018984963501920016
-0.209389948080937   0.006362463164065475   -0.010108051011786709
-0.209389948080937   0.006362463164065475   -0.010108051011786709
-0.209389948080937   0.006362463164065475   -0.010108051011786709
-0.209389948080937   0.006362463164065475   -0.010108051011786709
-0.12993931840174872   0.015419097147209886   0.0074550939502489415
-0.12993931840174872   0.015419097147209886   0.0074550939502489415
-0.12993931840174872   0.015419097147209886   0.0074550939502489415
-0.12993931840174872   0.015419097147209886   0.0074550939502489415
-0.0704913512628805   -0.0503383878120163   -0.011611346258393612
-0.0704913512628805   -0.0503383878120163   -0.011611346258393612
-0.0704913512628805   -0.0503383878120163   -0.011611346258393612
-0.0704913512628805   -0.0503383878120163   -0.011611346258393612
0.09518592875793476   0.0074223148291845675   0.01908693109667954
0.09518592875793476   0.0074223148291845675   0.01908693109667954
0.09518592875793476   0.0074223148291845675   0.01908693109667954
0.09518592875793476   0.0074223148291845675   0.01908693109667954
0.08829729782943616   -0.0031253112494112195   -0.010812131794632394
0.08829729782943616   -0.0031253112494112195   -0.010812131794632394
0.08829729782943616   -0.0031253112494112195   -0.010812131794632394
0.08829729782943616   -0.0031253112494112195   -0.010812131794632394
-0.05912030339055488   -0.011603306076784788   0.007133843469582138
-0.05912030339055488   -0.011603306076784788   0.007133843469582138
-0.05912030339055488   -0.011603306076784788   0.007133843469582138
-0.05912030339055488   -0.011603306076784788   0.007133843469582138
0.012871500728996756   -0.014008842027103053   -0.0030160436565346473
0.012871500728996756   -0.014008842027103053   -0.0030160436565346473
0.012871500728996756   -0.014008842027103053   -0.0030160436565346473
0.012871500728996756   -0.014008842027103053   -0.0030160436565346473
-0.06811205336419501   -0.03510866468690961   -0.014319547788493203
-0.06811205336419501   -0.03510866468690961   -0.014319547788493203
-0.06811205336419501   -0.03510866468690961   -0.014319547788493203
-0.06811205336419501   -0.03510866468690961   -0.014319547788493203
0.0987942678932493   0.02188526745088671   0.016662139824135436
0.0987942678932493   0.02188526745088671   0.016662139824135436
0.0987942678932493   0.02188526745088671   0.016662139824135436
0.0987942678932493   0.02188526745088671   0.016662139824135436
0.09406355880290722   0.012737111695539493   -0.012258651106164474
0.09406355880290722   0.012737111695539493   -0.012258651106164474
0.09406355880290722   0.012737111695539493   -0.012258651106164474
0.09406355880290722   0.012737111695539493   -0.012258651106164474
-0.05689189823397937   0.0018474927767513655   0.003881593433398631
-0.05689189823397937   0.0018474927767513655   0.003881593433398631
-0.05689189823397937   0.0018474927767513655   0.003881593433398631
-0.05689189823397937   0.0018474927767513655   0.003881593433398631
0.01594916325077755   -0.00033962231937259557   0.0030427289516792386
0.01594916325077755   -0.00033962231937259557   0.0030427289516792386
0.01594916325077755   -0.00033962231937259557   0.0030427289516792386
0.01594916325077755   -0.00033962231937259557   0.0030427289516792386
-0.06556986437759182   -0.020224993017424867   -0.017435751490487223
-0.06556986437759182   -0.020224993017424867   -0.017435751490487223
-0.06556986437759182   -0.020224993017424867   -0.017435751490487223
-0.06556986437759182   -0.020224993017424867   -0.017435751490487223
0.10404761136401029   0.03611568390720638   0.014283039487684049
0.10404761136401029   0.03611568390720638   0.014283039487684049
0.10404761136401029   0.03611568390720638   0.014283039487684049
0.10404761136401029   0.03611568390720638   0.014283039487684049
0.09871359135918717   0.03078650499059536   -0.014180723629336086
0.09871359135918717   0.03078650499059536   -0.014180723629336086
0.09871359135918717   0.03078650499059536   -0.014180723629336086
0.09871359135918717   0.03078650499059536   -0.014180723629336086
-0.05451202293299225   0.017321617863767586   0.0007874431914038386
-0.05451202293299225   0.017321617863767586   0.0007874431914038386
-0.05451202293299225   0.017321617863767586   0.0007874431914038386
-0.05451202293299225   0.017321617863767586   0.0007874431914038386
0.020668082193691446   0.014488113216051805   0.009303015398830102
0.020668082193691446   0.014488113216051805   0.009303015398830102
0.020668082193691446   0.014488113216051805   0.009303015398830102
0.020668082193691446   0.014488113216051805   0.009303015398830102
0.07511331268298274   -0.05085830656237949   -0.022995527886516542
0.07511331268298274   -0.05085830656237949   -0.022995527886516542
0.07511331268298274   -0.05085830656237949   -0.022995527886516542
0.07511331268298274   -0.05085830656237949   -0.022995527886516542
0.23005715267846152   0.022814103096209883   0.024857175547435537
0.23005715267846152   0.022814103096209883   0.024857175547435537
0.23005715267846152   0.022814103096209883   0.024857175547435537
0.23005715267846152   0.022814103096209883   0.024857175547435537
0.22767823014196642   -0.012931926061551642   -0.030288241757616692
0.22767823014196642   -0.012931926061551642   -0.030288241757616692
0.22767823014196642   -0.012931926061551642   -0.030288241757616692
0.22767823014196642   -0.012931926061551642   -0.030288241757616692
0.09567059510867004   0.004358034959280117   0.018571008392845707
0.09567059510867004   0.004358034959280117   0.018571008392845707
0.09567059510867004   0.004358034959280117   0.018571008392845707
0.09567059510867004   0.004358034959280117   0.018571008392845707
0.1489242268598643   -0.010653392206170877   -0.007997651521279478
0.1489242268598643   -0.010653392206170877   -0.007997651521279478
0.1489242268598643   -0.010653392206170877   -0.007997651521279478
0.1489242268598643   -0.010653392206170877   -0.007997651521279478
0.07730845466908448   -0.04227047047813758   -0.026611188367664435
0.07730845466908448   -0.04227047047813758   -0.026611188367664435
0.07730845466908448   -0.04227047047813758   -0.026611188367664435
0.07730845466908448   -0.04227047047813758   -0.026611188367664435
0.24757493800272073   0.03523114679703483   0.021032224687568535
0.24757493800272073   0.03523114679703483   0.021032224687568535
0.24757493800272073   0.03523114679703483   0.021032224687568535
0.24757493800272073   0.03523114679703483   0.021032224687568535
0.24043221468556653   -0.004055524211053554   -0.03637265021734638
0.24043221468556653   -0.004055524211053554   -0.03637265021734638
0.24043221468556653   -0.004055524211053554   -0.03637265021734638
0.24043221468556653   -0.004055524211053554   -0.03637265021734638
0.09904195548945893   0.01086318347411138   0.014507260548022302
0.09904195548945893   0.01086318347411138   0.014507260548022302
0.09904195548945893   0.01086318347411138   0.014507260548022302
0.09904195548945893   0.01086318347411138   0.014507260548022302
0.1617295334223029   -0.0016814395052059533   -0.0008799783104949926
0.1617295334223029   -0.0016814395052059533   -0.0008799783104949926
0.1617295334223029   -0.0016814395052059533   -0.0008799783104949926
0.1617295334223029   -0.0016814395052059533   -0.0008799783104949926
0.08081202409337189   -0.0348840623980696   -0.030895150560231937
0.08081202409337189   -0.0348840623980696   -0.030895150560231937
0.08081202409337189   -0.0348840623980696   -0.030895150560231937
0.08081202409337189   -0.0348840623980696   -0.030895150560231937
0.2602653539939391   0.04329492957341287   0.015442592540049663
0.2602653539939391   0.04329492957341287   0.015442592540049663
0.2602653539939391   0.04329492957341287   0.015442592540049663
0.2602653539939391   0.04329492957341287   0.015442592540049663
0.26006023326802924   0.0154074470902755   -0.038976781057305024
0.26006023326802924   0.0154074470902755   -0.038976781057305024
0.26006023326802924   0.0154074470902755   -0.038976781057305024
0.26006023326802924   0.0154074470902755   -0.038976781057305024
0.10248935268365636   0.023946947511193587   0.011537640472410704
0.10248935268365636   0.023946947511193587   0.011537640472410704
0.10248935268365636   0.023946947511193587   0.011537640472410704
0.10248935268365636   0.023946947511193587   0.011537640472410704
0.1682419307853995   0.008170318554769369   0.005278627016233114
0.1682419307853995   0.008170318554769369   0.005278627016233114
0.1682419307853995   0.008170318554769369   0.005278627016233114
0.1682419307853995   0.008170318554769369   0.005278627016233114
-0.3127244600937027   -0.004925327531384686   0.031023551386179127
-0.3127244600937027   -0.004925327531384686   0.031023551386179127
-0.3127244600937027   -0.004925327531384686   0.031023551386179127
-0.3127244600937027   -0.004925327531384686   0.031023551386179127
-0.2453042038515534   -0.031364974454953704   -0.015242445617759014
-0.2453042038515534   -0.031364974454953704   -0.015242445617759014
-0.2453042038515534   -0.031364974454953704   -0.015242445617759014
-0.2453042038515534   -0.031364974454953704   -0.015242445617759014
-0.22198776730047284   0.026461790693813894   0.026497192964909325
-0.22198776730047284   0.026461790693813894   0.026497192964909325
-0.22198776730047284   0.026461790693813894   0.026497192964909325
-0.22198776730047284   0.026461790693813894   0.026497192964909325
-0.31147163102431424   -0.033981323415331395   -0.020789370101069772
-0.31147163102431424   -0.033981323415331395   -0.020789370101069772
-0.31147163102431424   -0.033981323415331395   -0.020789370101069772
-0.31147163102431424   -0.033981323415331395   -0.020789370101069772
-0.26249279574079426   -0.007154388153993878   -0.004079652183624898
-0.26249279574079426   -0.007154388153993878   -0.004079652183624898
-0.26249279574079426   -0.007154388153993878   -0.004079652183624898
-0.26249279574079426   -0.007154388153993878   -0.004079652183624898
-0.2919759793192876   0.013088518915679567   0.029619046093052468
-0.2919759793192876   0.013088518915679567   0.029619046093052468
-0.2919759793192876   0.013088518915679567   0.029619046093052468
-0.2919759793192876   0.013088518915679567   0.029619046093052468
-0.24011644945296043   -0.019241082084657697   -0.018443345019055084
-0.24011644945296043   -0.019241082084657697   -0.018443345019055084
-0.24011644945296043   -0.019241082084657697   -0.018443345019055084
-0.24011644945296043   -0.019241082084657697   -0.018443345019055084
-0.21655398375136112   0.033348874273163284   0.02238956763010889
-0.21655398375136112   0.033348874273163284   0.02238956763010889
-0.21655398375136112   0.033348874273163284   0.02238956763010889
-0.21655398375136112   0.033348874273163284   0.02238956763010889
-0.2970999687740406   -0.026173751314226265   -0.025938130056461232
-0.2970999687740406   -0.026173751314226265   -0.025938130056461232
-0.2970999687740406   -0.026173751314226265   -0.025938130056461232
-0.2970999687740406   -0.026173751314226265   -0.025938130056461232
-0.2549778587370716   0.0018443741064128535   0.0016836328637721398
-0.2549778587370716   0.0018443741064128535   0.0016836328637721398
-0.2549778587370716   0.0018443741064128535   0.0016836328637721398
-0.2549778587370716   0.0018443741064128535   0.0016836328637721398
-0.27760802509111765   0.0214414332399794   0.023906403803945982
-0.27760802509111765   0.0214414332399794   0.023906403803945982
-0.27760802509111765   0.0214414332399794   0.023906403803945982
-0.27760802509111765   0.0214414332399794   0.023906403803945982
-0.23475670181280683   -0.012977084659565118   -0.022298063744389317
-0.23475670181280683   -0.012977084659565118   -0.022298063744389317
-0.23475670181280683   -0.012977084659565118   -0.022298063744389317
-0.23475670181280683   -0.012977084659565118   -0.022298063744389317
-0.2121750830964203   0.04198299135234954   0.01930636421711783
-0.2121750830964203   0.04198299135234954   0.01930636421711783
-0.2121750830964203   0.04198299135234954   0.01930636421711783
-0.2121750830964203   0.04198299135234954   0.01930636421711783
-0.2778024840892271   -0.013662848290585852   -0.030003196422792446
-0.2778024840892271   -0.013662848290585852   -0.030003196422792446
-0.2778024840892271   -0.013662848290585852   -0.030003196422792446
-0.2778024840892271   -0.013662848290585852   -0.030003196422792446
-0.23986487932646583   0.010749600408647857   0.008807880124999355
-0.23986487932646583   0.010749600408647857   0.008807880124999355
-0.23986487932646583   0.010749600408647857   0.008807880124999355
-0.23986487932646583   0.010749600408647857   0.008807880124999355
-0.23655517083726124   -0.017628007600033968   0.014765752598782073
-0.23655517083726124   -0.017628007600033968   0.014765752598782073
-0.23655517083726124   -0.017628007600033968   0.014765752598782073
-0.23655517083726124   -0.017628007600033968   0.014765752598782073
-0.17489208321124958   -0.023763837072124462   -0.004505098639364007
-0.17489208321124958   -0.023763837072124462   -0.004505098639364007
-0.17489208321124958   -0.023763837072124462   -0.004505098639364007
-0.17489208321124958   -0.023763837072124462   -0.004505098639364007
-0.1619455852930057   0.012005581375135979   0.013549949854913073
-0.1619455852930057   0.012005581375135979   0.013549949854913073
-0.1619455852930057   0.012005581375135979   0.013549949854913073
-0.1619455852930057   0.012005581375135979   0.013549949854913073
-0.24017892633528015   -0.02504368024316191   -0.012953131272145816
-0.24017892633528015   -0.02504368024316191   -0.012953131272145816
-0.24017892633528015   -0.02504368024316191   -0.012953131272145816
-0.24017892633528015   -0.02504368024316191   -0.012953131272145816
-0.20286133568872264   -0.012515386750444127   -0.005536971033318358
-0.20286133568872264   -0.012515386750444127   -0.005536971033318358
-0.20286133568872264   -0.012515386750444127   -0.005536971033318358
-0.20286133568872264   -0.012515386750444127   -0.005536971033318358
-0.23044526615010194   -0.0018917057376252877   0.012563195148203015
-0.23044526615010194   -0.0018917057376252877   0.012563195148203015
-0.23044526615010194   -0.0018917057376252877   0.012563195148203015
-0.23044526615010194   -0.0018917057376252877   0.012563195148203015
-0.17057713612861924   -0.010044283780836789   -0.007557939167181125
-0.17057713612861924   -0.010044283780836789   -0.007557939167181125
-0.17057713612861924   -0.010044283780836789   -0.007557939167181125
-0.17057713612861924   -0.010044283780836789   -0.007557939167181125
-0.15726805134022898   0.026035964268571597   0.010828427452413828
-0.15726805134022898   0.026035964268571597   0.010828427452413828
-0.15726805134022898   0.026035964268571597   0.010828427452413828
-0.15726805134022898   0.026035964268571597   0.010828427452413828
-0.2331226187295132   -0.01159030877504185   -0.01551442421244247
-0.2331226187295132   -0.01159030877504185   -0.01551442421244247
-0.2331226187295132   -0.01159030877504185   -0.01551442421244247
-0.2331226187295132   -0.01159030877504185   -0.01551442421244247
-0.19606122361847866   0.0009766110977675949   0.0005052477795874383
-0.19606122361847866   0.0009766110977675949   0.0005052477795874383
-0.19606122361847866   0.0009766110977675949   0.0005052477795874383
-0.19606122361847866   0.0009766110977675949   0.0005052477795874383
-0.22281611580999836   0.013038518505128077   0.01138926310495793
-0.22281611580999836   0.013038518505128077   0.01138926310495793
-0.22281611580999836   0.013038518505128077   0.01138926310495793
-0.22281611580999836   0.013038518505128077   0.01138926310495793
-0.16630241706667578   0.0026792741814712917   -0.010986711092721823
-0.16630241706667578   0.0026792741814712917   -0.010986711092721823
-0.16630241706667578   0.0026792741814712917   -0.010986711092721823
-0.16630241706667578   0.0026792741814712917   -0.010986711092721823
-0.15260404833111615   0.04129731347882783   0.008236099001129739
-0.15260404833111615   0.04129731347882783   0.008236099001129739
-0.15260404833111615   0.04129731347882783   0.008236099001129739
-0.15260404833111615   0.04129731347882783   0.008236099001129739
-0.22732349701238988   0.0031360765350133477   -0.017588790545390042
-0.22732349701238988   0.0031360765350133477   -0.017588790545390042
-0.22732349701238988   0.0031360765350133477   -0.017588790545390042
-0.22732349701238988   0.0031360765350133477   -0.017588790545390042
-0.19115518655141758   0.01424173820746042   0.006429327562456736
-0.19115518655141758   0.01424173820746042   0.006429327562456736
-0.19115518655141758   0.01424173820746042   0.006429327562456736
-0.19115518655141758   0.01424173820746042   0.006429327562456736
-0.1746446965884902   -0.029700844932069502   0.0026688423343750756
-0.1746446965884902   -0.029700844932069502   0.0026688423343750756
-0.1746446965884902   -0.029700844932069502   0.0026688423343750756
-0.1746446965884902   -0.029700844932069502   0.0026688423343750756
-0.10533829411089209   -0.012711724533973838   0.006378552043660632
-0.10533829411089209   -0.012711724533973838   0.006378552043660632
-0.10533829411089209   -0.012711724533973838   0.006378552043660632
-0.10533829411089209   -0.012711724533973838   0.006378552043660632
-0.10188477885142301   -0.000451685935895587   0.0008112724055863519
-0.10188477885142301   -0.000451685935895587   0.0008112724055863519
-0.10188477885142301   -0.000451685935895587   0.0008112724055863519
-0.10188477885142301   -0.000451685935895587   0.0008112724055863519
-0.1700466560204356   -0.013472147183603428   -0.0014776752234970016
-0.1700466560204356   -0.013472147183603428   -0.0014776752234970016
-0.1700466560204356   -0.013472147183603428   -0.0014776752234970016
-0.1700466560204356   -0.013472147183603428   -0.0014776752234970016
-0.13820065761780562   -0.013421182039883944   -0.004043468609397956
-0.13820065761780562   -0.013421182039883944   -0.004043468609397956
-0.13820065761780562   -0.013421182039883944   -0.004043468609397956
-0.13820065761780562   -0.013421182039883944   -0.004043468609397956
-0.16983025164890053   -0.014147162571993575   0.0002793620225662874
-0.16983025164890053   -0.014147162571993575   0.0002793620225662874
-0.16983025164890053   -0.014147162571993575   0.0002793620225662874
-0.16983025164890053   -0.014147162571993575   0.0002793620225662874
-0.10100421243975885   0.0013203002356946998   0.003442118292316906
-0.10100421243975885   0.0013203002356946998   0.003442118292316906
-0.10100421243975885   0.0013203002356946998   0.003442118292316906
-0.10100421243975885   0.0013203002356946998   0.003442118292316906
-0.09679352249566779   0.015237543567640382   -0.001420721260761251
-0.09679352249566779   0.015237543567640382   -0.001420721260761251
-0.09679352249566779   0.015237543567640382   -0.001420721260761251
-0.09679352249566779   0.015237543567640382   -0.001420721260761251
-0.1653592577819399   0.00076155521175722   -0.004353195699326457
-0.1653592577819399   0.00076155521175722   -0.004353195699326457
-0.1653592577819399   0.00076155521175722   -0.004353195699326457
-0.1653592577819399   0.00076155521175722   -0.004353195699326457
-0.13282468408513848   0.0006679082290683876   0.0018240915606827371
-0.13282468408513848   0.0006679082290683876   0.0018240915606827371
-0.13282468408513848   0.0006679082290683876   0.0018240915606827371
-0.13282468408513848   0.0006679082290683876   0.0018240915606827371
-0.16477385567977454   0.0014939126563518548   -0.002158542633097135
-0.16477385567977454   0.0014939126563518548   -0.002158542633097135
-0.16477385567977454   0.0014939126563518548   -0.002158542633097135
-0.16477385567977454   0.0014939126563518548   -0.002158542633097135
-0.09638626660781612   0.015497844113062327   0.00035525763307525486
-0.09638626660781612   0.015497844113062327   0.00035525763307525486
-0.09638626660781612   0.015497844113062327   0.00035525763307525486
-0.09638626660781612   0.015497844113062327   0.00035525763307525486
-0.09198311167784465   0.031074188563519543   -0.003956260417616439
-0.09198311167784465   0.031074188563519543   -0.003956260417616439
-0.09198311167784465   0.031074188563519543   -0.003956260417616439
-0.09198311167784465   0.031074188563519543   -0.003956260417616439
-0.16097732860201336   0.015103799467962871   -0.007436788342491214
-0.16097732860201336   0.015103799467962871   -0.007436788342491214
-0.16097732860201336   0.015103799467962871   -0.007436788342491214
-0.16097732860201336   0.015103799467962871   -0.007436788342491214
-0.12774615037918724   0.014808110568582479   0.007454623151805447
-0.12774615037918724   0.014808110568582479   0.007454623151805447
-0.12774615037918724   0.014808110568582479   0.007454623151805447
-0.12774615037918724   0.014808110568582479   0.007454623151805447
-0.11401120284166794   -0.04014503411575894   -0.009552682028435306
-0.11401120284166794   -0.04014503411575894   -0.009552682028435306
-0.11401120284166794   -0.04014503411575894   -0.009552682028435306
-0.11401120284166794   -0.04014503411575894   -0.009552682028435306
-0.03797694268979632   -0.0009824371376771497   0.016705068526978836
-0.03797694268979632   -0.0009824371376771497   0.016705068526978836
-0.03797694268979632   -0.0009824371376771497   0.016705068526978836
-0.03797694268979632   -0.0009824371376771497   0.016705068526978836
-0.04285874374676746   -0.012269850120795097   -0.012460436394256836
-0.04285874374676746   -0.012269850120795097   -0.012460436394256836
-0.04285874374676746   -0.012269850120795097   -0.012460436394256836
-0.04285874374676746   -0.012269850120795097   -0.012460436394256836
-0.10033803742540344   -0.0015230455731378226   0.009616339172925564
-0.10033803742540344   -0.0015230455731378226   0.009616339172925564
-0.10033803742540344   -0.0015230455731378226   0.009616339172925564
-0.10033803742540344   -0.0015230455731378226   0.009616339172925564
-0.07375575542252344   -0.01313486244636759   -0.0029212670942865074
-0.07375575542252344   -0.01313486244636759   -0.0029212670942865074
-0.07375575542252344   -0.01313486244636759   -0.0029212670942865074
-0.07375575542252344   -0.01313486244636759   -0.0029212670942865074
-0.1094839789303304   -0.025525077219688257   -0.012111336705159691
-0.1094839789303304   -0.025525077219688257   -0.012111336705159691
-0.1094839789303304   -0.025525077219688257   -0.012111336705159691
-0.1094839789303304   -0.025525077219688257   -0.012111336705159691
-0.03248526076400807   0.012959723003587612   0.014177405395157366
-0.03248526076400807   0.012959723003587612   0.014177405395157366
-0.03248526076400807   0.012959723003587612   0.014177405395157366
-0.03248526076400807   0.012959723003587612   0.014177405395157366
-0.0353616396079148   0.0025708403979475096   -0.014031927086685223
-0.0353616396079148   0.0025708403979475096   -0.014031927086685223
-0.0353616396079148   0.0025708403979475096   -0.014031927086685223
-0.0353616396079148   0.0025708403979475096   -0.014031927086685223
-0.0960208722043594   0.011254456225968757   0.006425617537451609
-0.0960208722043594   0.011254456225968757   0.006425617537451609
-0.0960208722043594   0.011254456225968757   0.006425617537451609
-0.0960208722043594   0.011254456225968757   0.006425617537451609
-0.06801404509538567   5.34685448914593e-06   0.0030646914914105893
-0.06801404509538567   5.34685448914593e-06   0.0030646914914105893
-0.06801404509538567   5.34685448914593e-06   0.0030646914914105893
-0.06801404509538567   5.34685448914593e-06   0.0030646914914105893
-0.10487568607946013   -0.011536985501201214   -0.015057010110883498
-0.10487568607946013   -0.011536985501201214   -0.015057010110883498
-0.10487568607946013   -0.011536985501201214   -0.015057010110883498
-0.10487568607946013   -0.011536985501201214   -0.015057010110883498
-0.02536356915273291   0.02650553870519695   0.012023726881973795
-0.02536356915273291   0.02650553870519695   0.012023726881973795
-0.02536356915273291   0.02650553870519695   0.012023726881973795
-0.02536356915273291   0.02650553870519695   0.012023726881973795
-0.029024518634115128   0.019115338986026856   -0.015731455496176938
-0.029024518634115128   0.019115338986026856   -0.015731455496176938
-0.029024518634115128   0.019115338986026856   -0.015731455496176938
-0.029024518634115128   0.019115338986026856   -0.015731455496176938
-0.09160061902023217   0.025681310921655657   0.003349080512310707
-0.09160061902023217   0.025681310921655657   0.003349080512310707
-0.09160061902023217   0.025681310921655657   0.003349080512310707
-0.09160061902023217   0.025681310921655657   0.003349080512310707
-0.062096322512464004   0.013662175981831219   0.00903746367760904
-0.062096322512464004   0.013662175981831219   0.00903746367760904
-0.062096322512464004   0.013662175981831219   0.00903746367760904
-0.062096322512464004   0.013662175981831219   0.00903746367760904
-0.05391371001120526   -0.043119787995631376   -0.020841417222111653
-0.05391371001120526   -0.043119787995631376   -0.020841417222111653
-0.05391371001120526   -0.043119787995631376   -0.020841417222111653
-0.05391371001120526   -0.043119787995631376   -0.020841417222111653
0.012016975722116574   0.012336525695534997   0.025608199057259574
0.012016975722116574   0.012336525695534997   0.025608199057259574
0.012016975722116574   0.012336525695534997   0.025608199057259574
0.012016975722116574   0.012336525695534997   0.025608199057259574
0.012022889056577547   -0.021612716134316843   -0.02763504102304661
0.012022889056577547   -0.021612716134316843   -0.02763504102304661
0.012022889056577547   -0.021612716134316843   -0.02763504102304661
0.012022889056577547   -0.021612716134316843   -0.02763504102304661
-0.031043465401506303   0.013381544832567944   0.020964560378685857
-0.031043465401506303   0.013381544832567944   0.020964560378685857
-0.031043465401506303   0.013381544832567944   0.020964560378685857
-0.031043465401506303   0.013381544832567944   0.020964560378685857
-0.015585680945398297   -0.009289195755093422   -0.004769607329710651
-0.015585680945398297   -0.009289195755093422   -0.004769607329710651
-0.015585680945398297   -0.009289195755093422   -0.004769607329710651
-0.015585680945398297   -0.009289195755093422   -0.004769607329710651
-0.04933744410020619   -0.033152110181261324   -0.02397167810098527
-0.04933744410020619   -0.033152110181261324   -0.02397167810098527
-0.04933744410020619   -0.033152110181261324   -0.02397167810098527
-0.04933744410020619   -0.033152110181261324   -0.02397167810098527
0.03162720293620813   0.026231274060441682   0.022542538180347783
0.03162720293620813   0.026231274060441682   0.022542538180347783
0.03162720293620813   0.026231274060441682   0.022542538180347783
0.03162720293620813   0.026231274060441682   0.022542538180347783
0.02646049881159565   -0.01312701924279007   -0.03286229635862166
0.02646049881159565   -0.01312701924279007   -0.03286229635862166
0.02646049881159565   -0.01312701924279007   -0.03286229635862166
0.02646049881159565   -0.01312701924279007   -0.03286229635862166
-0.02579508221667213   0.019540169802973656   0.01683153046450195
-0.02579508221667213   0.019540169802973656   0.01683153046450195
-0.02579508221667213   0.019540169802973656   0.01683153046450195
-0.02579508221667213   0.019540169802973656   0.01683153046450195
-0.0037990499036735454   -0.0005394654534444393   0.0016962682646397332
-0.0037990499036735454   -0.0005394654534444393   0.0016962682646397332
-0.0037990499036735454   -0.0005394654534444393   0.0016962682646397332
-0.0037990499036735454   -0.0005394654534444393   0.0016962682646397332
-0.04385388010572524   -0.02616824465840547   -0.02775404451938543
-0.04385388010572524   -0.02616824465840547   -0.02775404451938543
-0.04385388010572524   -0.02616824465840547   -0.02775404451938543
-0.04385388010572524   -0.02616824465840547   -0.02775404451938543
0.045834221151236115   0.03389631966917753   0.016982976427613056
0.045834221151236115   0.03389631966917753   0.016982976427613056
0.045834221151236115   0.03389631966917753   0.016982976427613056
0.045834221151236115   0.03389631966917753   0.016982976427613056
0.04677104125055811   0.0034507353598228945   -0.03522510885134452
0.04677104125055811   0.0034507353598228945   -0.03522510885134452
0.04677104125055811   0.0034507353598228945   -0.03522510885134452
0.04677104125055811   0.0034507353598228945   -0.03522510885134452
-0.020898494049523243   0.030331976876027678   0.013682029536781682
-0.020898494049523243   0.030331976876027678   0.013682029536781682
-0.020898494049523243   0.030331976876027678   0.013682029536781682
-0.020898494049523243   0.030331976876027678   0.013682029536781682
0.006958347877395227   0.008619169630916933   0.008046338848781847
0.006958347877395227   0.008619169630916933   0.008046338848781847
0.006958347877395227   0.008619169630916933   0.008046338848781847
0.006958347877395227   0.008619169630916933   0.008046338848781847
-0.10144218169891897   0.006310912488062603   0.029274966944688084
-0.10144218169891897   0.006310912488062603   0.029274966944688084
-0.10144218169891897   0.006310912488062603   0.029274966944688084
-0.10144218169891897   0.006310912488062603   0.029274966944688084
-0.12317662982692894   -0.03803326011008515   -0.017132312740990523
-0.12317662982692894   -0.03803326011008515   -0.017132312740990523
-0.12317662982692894   -0.03803326011008515   -0.017132312740990523
-0.12317662982692894   -0.03803326011008515   -0.017132312740990523
-0.09834395591478598   0.017590213957194567   0.02394064165202412
-0.09834395591478598   0.017590213957194567   0.02394064165202412
-0.09834395591478598   0.017590213957194567   0.02394064165202412
-0.09834395591478598   0.017590213957194567   0.02394064165202412
-0.09858089212739507   -0.024669739411394616   -0.022133021157102056
-0.09858089212739507   -0.024669739411394616   -0.022133021157102056
-0.09858089212739507   -0.024669739411394616   -0.022133021157102056
-0.09858089212739507   -0.024669739411394616   -0.022133021157102056
-0.10280439983649577   -0.007893226298608037   -0.008125653357383357
-0.10280439983649577   -0.007893226298608037   -0.008125653357383357
-0.10280439983649577   -0.007893226298608037   -0.008125653357383357
-0.10280439983649577   -0.007893226298608037   -0.008125653357383357
-0.07935940813440108   0.022049939218467825   0.027254720178005495
-0.07935940813440108   0.022049939218467825   0.027254720178005495
-0.07935940813440108   0.022049939218467825   0.027254720178005495
-0.07935940813440108   0.022049939218467825   0.027254720178005495
-0.11634297477944881   -0.027906999544336706   -0.020557239169758764
-0.11634297477944881   -0.027906999544336706   -0.020557239169758764
-0.11634297477944881   -0.027906999544336706   -0.020557239169758764
-0.11634297477944881   -0.027906999544336706   -0.020557239169758764
-0.09081039384243056   0.024296881445192174   0.020125458809020867
-0.09081039384243056   0.024296881445192174   0.020125458809020867
-0.09081039384243056   0.024296881445192174   0.020125458809020867
-0.09081039384243056   0.024296881445192174   0.020125458809020867
-0.08222332123762605   -0.01709033146812554   -0.02752668460812259
-0.08222332123762605   -0.01709033146812554   -0.02752668460812259
-0.08222332123762605   -0.01709033146812554   -0.02752668460812259
-0.08222332123762605   -0.01709033146812554   -0.02752668460812259
-0.09074154940642315   0.000657223200998553   -0.001802556140451419
-0.09074154940642315   0.000657223200998553   -0.001802556140451419
-0.09074154940642315   0.000657223200998553   -0.001802556140451419
-0.09074154940642315   0.000657223200998553   -0.001802556140451419
-0.06290998155123935   0.03020150717730277   0.021748175178382633
-0.06290998155123935   0.03020150717730277   0.021748175178382633
-0.06290998155123935   0.03020150717730277   0.021748175178382633
-0.06290998155123935   0.03020150717730277   0.021748175178382633
-0.10897650722605753   -0.021847730897473848   -0.024560495766448
-0.10897650722605753   -0.021847730897473848   -0.024560495766448
-0.10897650722605753   -0.021847730897473848   -0.024560495766448
-0.10897650722605753   -0.021847730897473848   -0.024560495766448
-0.08393651855646643   0.03458673132112826   0.017378736103017444
-0.08393651855646643   0.03458673132112826   0.017378736103017444
-0.08393651855646643   0.03458673132112826   0.017378736103017444
-0.08393651855646643   0.03458673132112826   0.017378736103017444
-0.060379887090765784   -0.0026874699168072565   -0.03099589922738784
-0.060379887090765784   -0.0026874699168072565   -0.03099589922738784
-0.060379887090765784   -0.0026874699168072565   -0.03099589922738784
-0.060379887090765784   -0.0026874699168072565   -0.03099589922738784
-0.07629211457622055   0.009622389764399799   0.004945371483235329
-0.07629211457622055   0.009622389764399799   0.004945371483235329
-0.07629211457622055   0.009622389764399799   0.004945371483235329
-0.07629211457622055   0.009622389764399799   0.004945371483235329
-0.11010196435703139   -0.006552702228104999   0.01676045672651513
-0.11010196435703139   -0.006552702228104999   0.01676045672651513
-0.11010196435703139   -0.006552702228104999   0.01676045672651513
-0.11010196435703139   -0.006552702228104999   0.01676045672651513
-0.13840304574708237   -0.031034994423840733   -0.006689865588702467
-0.13840304574708237   -0.031034994423840733   -0.006689865588702467
-0.13840304574708237   -0.031034994423840733   -0.006689865588702467
-0.13840304574708237   -0.031034994423840733   -0.006689865588702467
-0.12362760719287806   0.0030805444119736992   0.011116672861130116
-0.12362760719287806   0.0030805444119736992   0.011116672861130116
-0.12362760719287806   0.0030805444119736992   0.011116672861130116
-0.12362760719287806   0.0030805444119736992   0.011116672861130116
-0.1115450099319041   -0.014395898113669417   -0.010078516362702407
-0.1115450099319041   -0.014395898113669417   -0.010078516362702407
-0.1115450099319041   -0.014395898113669417   -0.010078516362702407
-0.1115450099319041   -0.014395898113669417   -0.010078516362702407
-0.12103361009455935   -0.01127319177067269   -0.005658773534665674
-0.12103361009455935   -0.01127319177067269   -0.005658773534665674
-0.12103361009455935   -0.01127319177067269   -0.005658773534665674
-0.12103361009455935   -0.01127319177067269   -0.005658773534665674
-0.10210822654992377   0.008085822045870095   0.014623680387657809
-0.10210822654992377   0.008085822045870095   0.014623680387657809
-0.10210822654992377   0.008085822045870095   0.014623680387657809
-0.10210822654992377   0.008085822045870095   0.014623680387657809
-0.13210486019969137   -0.018441645372399285   -0.009747402388564452
-0.13210486019969137   -0.018441645372399285   -0.009747402388564452
-0.13210486019969137   -0.018441645372399285   -0.009747402388564452
-0.13210486019969137   -0.018441645372399285   -0.009747402388564452
-0.11691125900431314   0.016449652724225116   0.008474023558692286
-0.11691125900431314   0.016449652724225116   0.008474023558692286
-0.11691125900431314   0.016449652724225116   0.008474023558692286
-0.11691125900431314   0.016449652724225116   0.008474023558692286
-0.10250785953102054   -0.001546809981274301   -0.012518178207460626
-0.10250785953102054   -0.001546809981274301   -0.012518178207460626
-0.10250785953102054   -0.001546809981274301   -0.012518178207460626
-0.10250785953102054   -0.001546809981274301   -0.012518178207460626
-0.1129841673419578   0.001169688567421983   0.00016684575877313427
-0.1129841673419578   0.001169688567421983   0.00016684575877313427
-0.1129841673419578   0.001169688567421983   0.00016684575877313427
-0.1129841673419578   0.001169688567421983   0.00016684575877313427
-0.09260934839157176   0.022250619697280292   0.013176947811226787
-0.09260934839157176   0.022250619697280292   0.013176947811226787
-0.09260934839157176   0.022250619697280292   0.013176947811226787
-0.09260934839157176   0.022250619697280292   0.013176947811226787
-0.12578629053484505   -0.006324297345413267   -0.013127184024330909
-0.12578629053484505   -0.006324297345413267   -0.013127184024330909
-0.12578629053484505   -0.006324297345413267   -0.013127184024330909
-0.12578629053484505   -0.006324297345413267   -0.013127184024330909
-0.11015931082437438   0.03127904473498261   0.0059618642664407175
-0.11015931082437438   0.03127904473498261   0.0059618642664407175
-0.11015931082437438   0.03127904473498261   0.0059618642664407175
-0.11015931082437438   0.03127904473498261   0.0059618642664407175
-0.09473898178982709   0.012747163130876194   -0.014794011873531904
-0.09473898178982709   0.012747163130876194   -0.014794011873531904
-0.09473898178982709   0.012747163130876194   -0.014794011873531904
-0.09473898178982709   0.012747163130876194   -0.014794011873531904
-0.105370651331454   0.014055869903563792   0.006109048524151154
-0.105370651331454   0.014055869903563792   0.006109048524151154
-0.105370651331454   0.014055869903563792   0.006109048524151154
-0.105370651331454   0.014055869903563792   0.006109048524151154
-0.13364610713375277   -0.018697525780381304   0.004757358834483984
-0.13364610713375277   -0.018697525780381304   0.004757358834483984
-0.13364610713375277   -0.018697525780381304   0.004757358834483984
-0.13364610713375277   -0.018697525780381304   0.004757358834483984
-0.15349303761532118   -0.0197881937524104   0.004024586407032276
-0.15349303761532118   -0.0197881937524104   0.004024586407032276
-0.15349303761532118   -0.0197881937524104   0.004024586407032276
-0.15349303761532118   -0.0197881937524104   0.004024586407032276
-0.14814544039086308   -0.009087995285518007   -0.0014581313626424019
-0.14814544039086308   -0.009087995285518007   -0.0014581313626424019
-0.14814544039086308   -0.009087995285518007   -0.0014581313626424019
-0.14814544039086308   -0.009087995285518007   -0.0014581313626424019
-0.1267169874250595   -0.002586690706894681   0.0013370068190913156
-0.1267169874250595   -0.002586690706894681   0.0013370068190913156
-0.1267169874250595   -0.002586690706894681   0.0013370068190913156
-0.1267169874250595   -0.002586690706894681   0.0013370068190913156
-0.1407116221800419   -0.011830300216569271   -0.0037743291089957377
-0.1407116221800419   -0.011830300216569271   -0.0037743291089957377
-0.1407116221800419   -0.011830300216569271   -0.0037743291089957377
-0.1407116221800419   -0.011830300216569271   -0.0037743291089957377
-0.1267969829750282   -0.004047174881128372   0.0023975132434785737
-0.1267969829750282   -0.004047174881128372   0.0023975132434785737
-0.1267969829750282   -0.004047174881128372   0.0023975132434785737
-0.1267969829750282   -0.004047174881128372   0.0023975132434785737
-0.14715833926466226   -0.006720405535053792   0.0011097845178985478
-0.14715833926466226   -0.006720405535053792   0.0011097845178985478
-0.14715833926466226   -0.006720405535053792   0.0011097845178985478
-0.14715833926466226   -0.006720405535053792   0.0011097845178985478
-0.14107952084903785   0.005750771927986828   -0.003686849051080474
-0.14107952084903785   0.005750771927986828   -0.003686849051080474
-0.14107952084903785   0.005750771927986828   -0.003686849051080474
-0.14107952084903785   0.005750771927986828   -0.003686849051080474
-0.12002296236529725   0.010839877687668864   -0.0014747182096719914
-0.12002296236529725   0.010839877687668864   -0.0014747182096719914
-0.12002296236529725   0.010839877687668864   -0.0014747182096719914
-0.12002296236529725   0.010839877687668864   -0.0014747182096719914
-0.13332296816955364   0.0014188776661413945   0.001986027306862089
-0.13332296816955364   0.0014188776661413945   0.001986027306862089
-0.13332296816955364   0.0014188776661413945   0.001986027306862089
-0.13332296816955364   0.0014188776661413945   0.001986027306862089
-0.11976167045868212   0.010738363015406843   -6.674400433617257e-05
-0.11976167045868212   0.010738363015406843   -6.674400433617257e-05
-0.11976167045868212   0.010738363015406843   -6.674400433617257e-05
-0.11976167045868212   0.010738363015406843   -6.674400433617257e-05
-0.14054796195610658   0.0066451373997949426   -0.001923420058232237
-0.14054796195610658   0.0066451373997949426   -0.001923420058232237
-0.14054796195610658   0.0066451373997949426   -0.001923420058232237
-0.14054796195610658   0.0066451373997949426   -0.001923420058232237
-0.13431257731412993   0.02068561742487271   -0.0061924498458254314
-0.13431257731412993   0.02068561742487271   -0.0061924498458254314
-0.13431257731412993   0.02068561742487271   -0.0061924498458254314
-0.13431257731412993   0.02068561742487271   -0.0061924498458254314
-0.11365765666904568   0.024321481300130187   -0.00457230152206234
-0.11365765666904568   0.024321481300130187   -0.00457230152206234
-0.11365765666904568   0.024321481300130187   -0.00457230152206234
-0.11365765666904568   0.024321481300130187   -0.00457230152206234
-0.1262845839383308   0.014693728443601548   0.007475805747781556
-0.1262845839383308   0.014693728443601548   0.007475805747781556
-0.1262845839383308   0.014693728443601548   0.007475805747781556
-0.1262845839383308   0.014693728443601548   0.007475805747781556
-0.15780576975485003   -0.029795558220573892   -0.007531709822451164
-0.15780576975485003   -0.029795558220573892   -0.007531709822451164
-0.15780576975485003   -0.029795558220573892   -0.007531709822451164
-0.15780576975485003   -0.029795558220573892   -0.007531709822451164
-0.16997536088264917   -0.008765786682598791   0.014243093251556926
-0.16997536088264917   -0.008765786682598791   0.014243093251556926
-0.16997536088264917   -0.008765786682598791   0.014243093251556926
-0.16997536088264917   -0.008765786682598791   0.014243093251556926
-0.1728334899934019   -0.02079099439850416   -0.014227952385907683
-0.1728334899934019   -0.02079099439850416   -0.014227952385907683
-0.1728334899934019   -0.02079099439850416   -0.014227952385907683
-0.1728334899934019   -0.02079099439850416   -0.014227952385907683
-0.14184387361732245   0.008874707718690533   0.012086999500852208
-0.14184387361732245   0.008874707718690533   0.012086999500852208
-0.14184387361732245   0.008874707718690533   0.012086999500852208
-0.14184387361732245   0.008874707718690533   0.012086999500852208
-0.15992944655768238   -0.01181507344791368   -0.0023798825941669724
-0.15992944655768238   -0.01181507344791368   -0.0023798825941669724
-0.15992944655768238   -0.01181507344791368   -0.0023798825941669724
-0.15992944655768238   -0.01181507344791368   -0.0023798825941669724
-0.15115129595400945   -0.015603371671851073   -0.009972032792042368
-0.15115129595400945   -0.015603371671851073   -0.009972032792042368
-0.15115129595400945   -0.015603371671851073   -0.009972032792042368
-0.15115129595400945   -0.015603371671851073   -0.009972032792042368
-0.16257538632818724   0.004637766320563626   0.011633805221097806
-0.16257538632818724   0.004637766320563626   0.011633805221097806
-0.16257538632818724   0.004637766320563626   0.011633805221097806
-0.16257538632818724   0.004637766320563626   0.011633805221097806
-0.16351797674333615   -0.006723234030837091   -0.01596572920759319
-0.16351797674333615   -0.006723234030837091   -0.01596572920759319
-0.16351797674333615   -0.006723234030837091   -0.01596572920759319
-0.16351797674333615   -0.006723234030837091   -0.01596572920759319
-0.1355001371225155   0.020979446213483   0.008981395296035264
-0.1355001371225155   0.020979446213483   0.008981395296035264
-0.1355001371225155   0.020979446213483   0.008981395296035264
-0.1355001371225155   0.020979446213483   0.008981395296035264
-0.15149549451847935   0.0009572556050211831   0.00357260001561068
-0.15149549451847935   0.0009572556050211831   0.00357260001561068
-0.15149549451847935   0.0009572556050211831   0.00357260001561068
-0.15149549451847935   0.0009572556050211831   0.00357260001561068
-0.1445174367795276   -0.0022959262930548827   -0.012829730482490677
-0.1445174367795276   -0.0022959262930548827   -0.012829730482490677
-0.1445174367795276   -0.0022959262930548827   -0.012829730482490677
-0.1445174367795276   -0.0022959262930548827   -0.012829730482490677
-0.1535400347718685   0.017512780790155787   0.009687965828752186
-0.1535400347718685   0.017512780790155787   0.009687965828752186
-0.1535400347718685   0.017512780790155787   0.009687965828752186
-0.1535400347718685   0.017512780790155787   0.009687965828752186
-0.15537429895496183   0.008750889029526365   -0.01752934901360611
-0.15537429895496183   0.008750889029526365   -0.01752934901360611
-0.15537429895496183   0.008750889029526365   -0.01752934901360611
-0.15537429895496183   0.008750889029526365   -0.01752934901360611
-0.1291395304187039   0.03444096940574007   0.0059174326504371315
-0.1291395304187039   0.03444096940574007   0.0059174326504371315
-0.1291395304187039   0.03444096940574007   0.0059174326504371315
-0.1291395304187039   0.03444096940574007   0.0059174326504371315
-0.14438424155903115   0.013595392322933317   0.009251634117101412
-0.14438424155903115   0.013595392322933317   0.009251634117101412
-0.14438424155903115   0.013595392322933317   0.009251634117101412
-0.14438424155903115   0.013595392322933317   0.009251634117101412
-0.1819374593204521   -0.035368865207035444   -0.018964320413023983
-0.1819374593204521   -0.035368865207035444   -0.018964320413023983
-0.1819374593204521   -0.035368865207035444   -0.018964320413023983
-0.1819374593204521   -0.035368865207035444   -0.018964320413023983
-0.20298732099361874   0.002317747594634767   0.02579062844403237
-0.20298732099361874   0.002317747594634767   0.02579062844403237
-0.20298732099361874   0.002317747594634767   0.02579062844403237
-0.20298732099361874   0.002317747594634767   0.02579062844403237
-0.20052158893070512   -0.029771203907805088   -0.025321059793972783
-0.20052158893070512   -0.029771203907805088   -0.025321059793972783
-0.20052158893070512   -0.029771203907805088   -0.025321059793972783
-0.20052158893070512   -0.029771203907805088   -0.025321059793972783
-0.1567372914529053   0.022348484536703343   0.023113561381365933
-0.1567372914529053   0.022348484536703343   0.023113561381365933
-0.1567372914529053   0.022348484536703343   0.023113561381365933
-0.1567372914529053   0.022348484536703343   0.023113561381365933
-0.17807305647291027   -0.007734102928715507   -0.0010383210071744416
-0.17807305647291027   -0.007734102928715507   -0.0010383210071744416
-0.17807305647291027   -0.007734102928715507   -0.0010383210071744416
-0.17807305647291027   -0.007734102928715507   -0.0010383210071744416
-0.1749552677115842   -0.02393274565020981   -0.021695089725117345
-0.1749552677115842   -0.02393274565020981   -0.021695089725117345
-0.1749552677115842   -0.02393274565020981   -0.021695089725117345
-0.1749552677115842   -0.02393274565020981   -0.021695089725117345
-0.18129953794413137   0.017514101007001973   0.02350389022408517
-0.18129953794413137   0.017514101007001973   0.02350389022408517
-0.18129953794413137   0.017514101007001973   0.02350389022408517
-0.18129953794413137   0.017514101007001973   0.02350389022408517
-0.18431923849159546   -0.021572467217053765   -0.030207498360711835
-0.18431923849159546   -0.021572467217053765   -0.030207498360711835
-0.18431923849159546   -0.021572467217053765   -0.030207498360711835
-0.18431923849159546   -0.021572467217053765   -0.030207498360711835
-0.14956885255415578   0.02812424916306524   0.018932408544404415
-0.14956885255415578   0.02812424916306524   0.018932408544404415
-0.14956885255415578   0.02812424916306524   0.018932408544404415
-0.14956885255415578   0.02812424916306524   0.018932408544404415
-0.16722684816255007   0.0008522052850620451   0.00465551680786176
-0.16722684816255007   0.0008522052850620451   0.00465551680786176
-0.16722684816255007   0.0008522052850620451   0.00465551680786176
-0.16722684816255007   0.0008522052850620451   0.00465551680786176
-0.16744236757158593   -0.0171814806973716   -0.025129436682310522
-0.16744236757158593   -0.0171814806973716   -0.025129436682310522
-0.16744236757158593   -0.0171814806973716   -0.025129436682310522
-0.16744236757158593   -0.0171814806973716   -0.025129436682310522
-0.165391857096779   0.024787129020769204   0.018069812375547473
-0.165391857096779   0.024787129020769204   0.018069812375547473
-0.165391857096779   0.024787129020769204   0.018069812375547473
-0.165391857096779   0.024787129020769204   0.018069812375547473
-0.16296810337709744   -0.00742677227002226   -0.0330421068658938
-0.16296810337709744   -0.00742677227002226   -0.0330421068658938
-0.16296810337709744   -0.00742677227002226   -0.0330421068658938
-0.16296810337709744   -0.00742677227002226   -0.0330421068658938
-0.14316602555014654   0.03666891293744274   0.015593994102553969
-0.14316602555014654   0.03666891293744274   0.015593994102553969
-0.14316602555014654   0.03666891293744274   0.015593994102553969
-0.14316602555014654   0.03666891293744274   0.015593994102553969
-0.15214504444492868   0.009399247089835638   0.011278245391635699
-0.15214504444492868   0.009399247089835638   0.011278245391635699
-0.15214504444492868   0.009399247089835638   0.011278245391635699
-0.15214504444492868   0.009399247089835638   0.011278245391635699
0.11042156726810291   0.017742839143723568   0.02814998643302118
0.11042156726810291   0.017742839143723568   0.02814998643302118
0.11042156726810291   0.017742839143723568   0.02814998643302118
0.11042156726810291   0.017742839143723568   0.02814998643302118
-0.0019445360598038895   -0.04512636469038447   -0.018494843774507216
-0.0019445360598038895   -0.04512636469038447   -0.018494843774507216
-0.0019445360598038895   -0.04512636469038447   -0.018494843774507216
-0.0019445360598038895   -0.04512636469038447   -0.018494843774507216
0.024363563252971593   0.008689824453646302   0.021720342787735873
0.024363563252971593   0.008689824453646302   0.021720342787735873
0.024363563252971593   0.008689824453646302   0.021720342787735873
0.024363563252971593   0.008689824453646302   0.021720342787735873
0.11487635814567262   -0.015441793856598642   -0.023199457301883993
0.11487635814567262   -0.015441793856598642   -0.023199457301883993
0.11487635814567262   -0.015441793856598642   -0.023199457301883993
0.11487635814567262   -0.015441793856598642   -0.023199457301883993
0.05642195474740586   -0.008627316128180577   -0.013480758677949362
0.05642195474740586   -0.008627316128180577   -0.013480758677949362
0.05642195474740586   -0.008627316128180577   -0.013480758677949362
0.05642195474740586   -0.008627316128180577   -0.013480758677949362
0.13395208963555896   0.03134245202567136   0.025394954265273793
0.13395208963555896   0.03134245202567136   0.025394954265273793
0.13395208963555896   0.03134245202567136   0.025394954265273793
0.13395208963555896   0.03134245202567136   0.025394954265273793
0.006479372551113562   -0.03690288064059605   -0.022107905627311936
0.006479372551113562   -0.03690288064059605   -0.022107905627311936
0.006479372551113562   -0.03690288064059605   -0.022107905627311936
0.006479372551113562   -0.03690288064059605   -0.022107905627311936
0.0338175448898534   0.015244199597488198   0.018105104592466663
0.0338175448898534   0.015244199597488198   0.018105104592466663
0.0338175448898534   0.015244199597488198   0.018105104592466663
0.0338175448898534   0.015244199597488198   0.018105104592466663
0.1331826108468383   -0.008042410041803463   -0.0289687847853633
0.1331826108468383   -0.008042410041803463   -0.0289687847853633
0.1331826108468383   -0.008042410041803463   -0.0289687847853633
0.1331826108468383   -0.008042410041803463   -0.0289687847853633
0.07296359577846337   -0.0004777140899685974   -0.006397736645645977
0.07296359577846337   -0.0004777140899685974   -0.006397736645645977
0.07296359577846337   -0.0004777140899685974   -0.006397736645645977
0.07296359577846337   -0.0004777140899685974   -0.006397736645645977
0.15244906697895558   0.039344750219582086   0.01997633561383392
0.15244906697895558   0.039344750219582086   0.01997633561383392
0.15244906697895558   0.039344750219582086   0.01997633561383392
0.15244906697895558   0.039344750219582086   0.01997633561383392
0.015708486307284268   -0.0309855631143498   -0.026210425608540984
0.015708486307284268   -0.0309855631143498   -0.026210425608540984
0.015708486307284268   -0.0309855631143498   -0.026210425608540984
0.015708486307284268   -0.0309855631143498   -0.026210425608540984
0.04298422633741088   0.027317470874430975   0.015664691300626647
0.04298422633741088   0.027317470874430975   0.015664691300626647
0.04298422633741088   0.027317470874430975   0.015664691300626647
0.04298422633741088   0.027317470874430975   0.015664691300626647
0.1575055445923427   0.008506756228664817   -0.031930023859692735
0.1575055445923427   0.008506756228664817   -0.031930023859692735
0.1575055445923427   0.008506756228664817   -0.031930023859692735
0.1575055445923427   0.008506756228664817   -0.031930023859692735
0.08674167456740198   0.00868597689312555   0.0002739328979458888
0.08674167456740198   0.00868597689312555   0.0002739328979458888
0.08674167456740198   0.00868597689312555   0.0002739328979458888
0.08674167456740198   0.00868597689312555   0.0002739328979458888
0.015614465450673977   0.004951033959125464   0.019222765128372184
0.015614465450673977   0.004951033959125464   0.019222765128372184
0.015614465450673977   0.004951033959125464   0.019222765128372184
0.015614465450673977   0.004951033959125464   0.019222765128372184
-0.10321819796795459   -0.03836557193704712   -0.008494621791594275
-0.10321819796795459   -0.03836557193704712   -0.008494621791594275
-0.10321819796795459   -0.03836557193704712   -0.008494621791594275
-0.10321819796795459   -0.03836557193704712   -0.008494621791594275
-0.08669786194162886   -0.005665761699627724   0.008725017717230834
-0.08669786194162886   -0.005665761699627724   0.008725017717230834
-0.08669786194162886   -0.005665761699627724   0.008725017717230834
-0.08669786194162886   -0.005665761699627724   0.008725017717230834
0.016120429633956112   -0.004124102630014089   -0.0066813982236811394
0.016120429633956112   -0.004124102630014089   -0.0066813982236811394
0.016120429633956112   -0.004124102630014089   -0.0066813982236811394
0.016120429633956112   -0.004124102630014089   -0.0066813982236811394
-0.04041214985968873   -0.009819543808489291   -0.006450603495567466
-0.04041214985968873   -0.009819543808489291   -0.006450603495567466
-0.04041214985968873   -0.009819543808489291   -0.006450603495567466
-0.04041214985968873   -0.009819543808489291   -0.006450603495567466
0.02537435612750857   0.01841375391130584   0.017050377702761223
0.02537435612750857   0.01841375391130584   0.017050377702761223
0.02537435612750857   0.01841375391130584   0.017050377702761223
0.02537435612750857   0.01841375391130584   0.017050377702761223
-0.09507879435631093   -0.02733062416207728   -0.011514781893730024
-0.09507879435631093   -0.02733062416207728   -0.011514781893730024
-0.09507879435631093   -0.02733062416207728   -0.011514781893730024
-0.09507879435631093   -0.02733062416207728   -0.011514781893730024
-0.07808784896400721   0.007072597458573894   0.006158848424767021
-0.07808784896400721   0.007072597458573894   0.006158848424767021
-0.07808784896400721   0.007072597458573894   0.006158848424767021
-0.07808784896400721   0.007072597458573894   0.006158848424767021
0.02692367992272793   0.007932039482664494   -0.009052060128336955
0.02692367992272793   0.007932039482664494   -0.009052060128336955
0.02692367992272793   0.007932039482664494   -0.009052060128336955
0.02692367992272793   0.007932039482664494   -0.009052060128336955
-0.03128028784972603   0.001393003554403474   -0.000810332279029791
-0.03128028784972603   0.001393003554403474   -0.000810332279029791
-0.03128028784972603   0.001393003554403474   -0.000810332279029791
-0.03128028784972603   0.001393003554403474   -0.000810332279029791
0.03657041267559164   0.03182934060439123   0.01528430251425485
0.03657041267559164   0.03182934060439123   0.01528430251425485
0.03657041267559164   0.03182934060439123   0.01528430251425485
0.03657041267559164   0.03182934060439123   0.01528430251425485
-0.08689218940544081   -0.01598231135172274   -0.014807944972104373
-0.08689218940544081   -0.01598231135172274   -0.014807944972104373
-0.08689218940544081   -0.01598231135172274   -0.014807944972104373
-0.08689218940544081   -0.01598231135172274   -0.014807944972104373
-0.06942180867598895   0.021511994262140455   0.0037129706689512498
-0.06942180867598895   0.021511994262140455   0.0037129706689512498
-0.06942180867598895   0.021511994262140455   0.0037129706689512498
-0.06942180867598895   0.021511994262140455   0.0037129706689512498
0.036406031222771223   0.021637492170360793   -0.011546305568501471
0.036406031222771223   0.021637492170360793   -0.011546305568501471
0.036406031222771223   0.021637492170360793   -0.011546305568501471
0.036406031222771223   0.021637492170360793   -0.011546305568501471
-0.021145711190839855   0.013807590748938692   0.005215806652228674
-0.021145711190839855   0.013807590748938692   0.005215806652228674
-0.021145711190839855   0.013807590748938692   0.005215806652228674
-0.021145711190839855   0.013807590748938692   0.005215806652228674
-0.09391149943171483   -0.00728511967215071   0.0069584186247090415
-0.09391149943171483   -0.00728511967215071   0.0069584186247090415
-0.09391149943171483   -0.00728511967215071   0.0069584186247090415
-0.09391149943171483   -0.00728511967215071   0.0069584186247090415
-0.20263066508109465   -0.02745705557661099   0.0017160365944236602
-0.20263066508109465   -0.02745705557661099   0.0017160365944236602
-0.20263066508109465   -0.02745705557661099   0.0017160365944236602
-0.20263066508109465   -0.02745705557661099   0.0017160365944236602
-0.19512990818792467   -0.017297610431965885   -0.003804671043399521
-0.19512990818792467   -0.017297610431965885   -0.003804671043399521
-0.19512990818792467   -0.017297610431965885   -0.003804671043399521
-0.19512990818792467   -0.017297610431965885   -0.003804671043399521
-0.08501751304284204   0.0072019757755829375   0.004259024735954246
-0.08501751304284204   0.0072019757755829375   0.004259024735954246
-0.08501751304284204   0.0072019757755829375   0.004259024735954246
-0.08501751304284204   0.0072019757755829375   0.004259024735954246
-0.14438161821119397   -0.010302859276858058   -0.003781139401131753
-0.14438161821119397   -0.010302859276858058   -0.003781139401131753
-0.14438161821119397   -0.010302859276858058   -0.003781139401131753
-0.14438161821119397   -0.010302859276858058   -0.003781139401131753
-0.08510768012234612   0.006391502010527732   0.004618663103490005
-0.08510768012234612   0.006391502010527732   0.004618663103490005
-0.08510768012234612   0.006391502010527732   0.004618663103490005
-0.08510768012234612   0.006391502010527732   0.004618663103490005
-0.19428589062645785   -0.01573328618494805   -0.0011489074830848788
-0.19428589062645785   -0.01573328618494805   -0.0011489074830848788
-0.19428589062645785   -0.01573328618494805   -0.0011489074830848788
-0.19428589062645785   -0.01573328618494805   -0.0011489074830848788
-0.1860672703626616   -0.003270442071674713   -0.0059820090090255025
-0.1860672703626616   -0.003270442071674713   -0.0059820090090255025
-0.1860672703626616   -0.003270442071674713   -0.0059820090090255025
-0.1860672703626616   -0.003270442071674713   -0.0059820090090255025
-0.07649450150547847   0.019608318055944717   0.001589865120040869
-0.07649450150547847   0.019608318055944717   0.001589865120040869
-0.07649450150547847   0.019608318055944717   0.001589865120040869
-0.07649450150547847   0.019608318055944717   0.001589865120040869
-0.13501792194584694   0.002005619533794592   0.0019102264816008435
-0.13501792194584694   0.002005619533794592   0.0019102264816008435
-0.13501792194584694   0.002005619533794592   0.0019102264816008435
-0.13501792194584694   0.002005619533794592   0.0019102264816008435
-0.07625061255786636   0.02031068072824889   0.0021069471857972626
-0.07625061255786636   0.02031068072824889   0.0021069471857972626
-0.07625061255786636   0.02031068072824889   0.0021069471857972626
-0.07625061255786636   0.02031068072824889   0.0021069471857972626
-0.18570491930138736   -0.0033665647350928016   -0.004074131039237825
-0.18570491930138736   -0.0033665647350928016   -0.004074131039237825
-0.18570491930138736   -0.0033665647350928016   -0.004074131039237825
-0.18570491930138736   -0.0033665647350928016   -0.004074131039237825
-0.1773682691820386   0.010802622192988026   -0.008455984544780212
-0.1773682691820386   0.010802622192988026   -0.008455984544780212
-0.1773682691820386   0.010802622192988026   -0.008455984544780212
-0.1773682691820386   0.010802622192988026   -0.008455984544780212
-0.06835538896719053   0.032050988407661324   -0.0014939249325775037
-0.06835538896719053   0.032050988407661324   -0.0014939249325775037
-0.06835538896719053   0.032050988407661324   -0.0014939249325775037
-0.06835538896719053   0.032050988407661324   -0.0014939249325775037
-0.12615165340967982   0.014283700453967874   0.0072303283888638156
-0.12615165340967982   0.014283700453967874   0.0072303283888638156
-0.12615165340967982   0.014283700453967874   0.0072303283888638156
-0.12615165340967982   0.014283700453967874   0.0072303283888638156
-0.20246342933734296   -0.019244155897114583   -0.005660684366312915
-0.20246342933734296   -0.019244155897114583   -0.005660684366312915
-0.20246342933734296   -0.019244155897114583   -0.005660684366312915
-0.20246342933734296   -0.019244155897114583   -0.005660684366312915
-0.30129482839926924   -0.01719497234553006   0.011718620347672052
-0.30129482839926924   -0.01719497234553006   0.011718620347672052
-0.30129482839926924   -0.01719497234553006   0.011718620347672052
-0.30129482839926924   -0.01719497234553006   0.011718620347672052
-0.3016224311841761   -0.028713579572183776   -0.016075879386665652
-0.3016224311841761   -0.028713579572183776   -0.016075879386665652
-0.3016224311841761   -0.028713579572183776   -0.016075879386665652
-0.3016224311841761   -0.028713579572183776   -0.016075879386665652
-0.18439915174744403   0.01808145862546704   0.014470042101569196
-0.18439915174744403   0.01808145862546704   0.014470042101569196
-0.18439915174744403   0.01808145862546704   0.014470042101569196
-0.18439915174744403   0.01808145862546704   0.014470042101569196
-0.2460501300610969   -0.010586367364271619   -0.0016120976464030871
-0.2460501300610969   -0.010586367364271619   -0.0016120976464030871
-0.2460501300610969   -0.010586367364271619   -0.0016120976464030871
-0.2460501300610969   -0.010586367364271619   -0.0016120976464030871
-0.19359060876432865   -0.005477663401967717   -0.007928120955417511
-0.19359060876432865   -0.005477663401967717   -0.007928120955417511
-0.19359060876432865   -0.005477663401967717   -0.007928120955417511
-0.19359060876432865   -0.005477663401967717   -0.007928120955417511
-0.2918012145590118   -0.004524697936471145   0.008841322103446087
-0.2918012145590118   -0.004524697936471145   0.008841322103446087
-0.2918012145590118   -0.004524697936471145   0.008841322103446087
-0.2918012145590118   -0.004524697936471145   0.008841322103446087
-0.2902194138767541   -0.01533874886158066   -0.017890303325044432
-0.2902194138767541   -0.01533874886158066   -0.017890303325044432
-0.2902194138767541   -0.01533874886158066   -0.017890303325044432
-0.2902194138767541   -0.01533874886158066   -0.017890303325044432
-0.1760398113775798   0.029364898534188916   0.011519945310518323
-0.1760398113775798   0.029364898534188916   0.011519945310518323
-0.1760398113775798   0.029364898534188916   0.011519945310518323
-0.1760398113775798   0.029364898534188916   0.011519945310518323
-0.23476419439664092   0.001827540961609607   0.0042614384465711076
-0.23476419439664092   0.001827540961609607   0.0042614384465711076
-0.23476419439664092   0.001827540961609607   0.0042614384465711076
-0.23476419439664092   0.001827540961609607   0.0042614384465711076
-0.18492410587618793   0.007159206394895749   -0.010695835043228534
-0.18492410587618793   0.007159206394895749   -0.010695835043228534
-0.18492410587618793   0.007159206394895749   -0.010695835043228534
-0.18492410587618793   0.007159206394895749   -0.010695835043228534
-0.28062840196248273   0.0075736606933758804   0.00715234669135606
-0.28062840196248273   0.0075736606933758804   0.00715234669135606
-0.28062840196248273   0.0075736606933758804   0.00715234669135606
-0.28062840196248273   0.0075736606933758804   0.00715234669135606
-0.28002534878195745   -0.000772928565893144   -0.01926623884447539
-0.28002534878195745   -0.000772928565893144   -0.01926623884447539
-0.28002534878195745   -0.000772928565893144   -0.01926623884447539
-0.28002534878195745   -0.000772928565893144   -0.01926623884447539
-0.16776926948436047   0.041796103554510355   0.008545532582088185
-0.16776926948436047   0.041796103554510355   0.008545532582088185
-0.16776926948436047   0.041796103554510355   0.008545532582088185
-0.16776926948436047   0.041796103554510355   0.008545532582088185
-0.22639663857463976   0.013375633247656456   0.009516659416374772
-0.22639663857463976   0.013375633247656456   0.009516659416374772
-0.22639663857463976   0.013375633247656456   0.009516659416374772
-0.22639663857463976   0.013375633247656456   0.009516659416374772
-0.30918050642489775   -0.02754996967135638   -0.017354772454644313
-0.30918050642489775   -0.02754996967135638   -0.017354772454644313
-0.30918050642489775   -0.02754996967135638   -0.017354772454644313
-0.30918050642489775   -0.02754996967135638   -0.017354772454644313
-0.41400872929453086   -0.007611566781031365   0.02561082031404777
-0.41400872929453086   -0.007611566781031365   0.02561082031404777
-0.41400872929453086   -0.007611566781031365   0.02561082031404777
-0.41400872929453086   -0.007611566781031365   0.02561082031404777
-0.4085773088178711   -0.037292098896363444   -0.02324933841901755
-0.4085773088178711   -0.037292098896363444   -0.02324933841901755
-0.4085773088178711   -0.037292098896363444   -0.02324933841901755
-0.4085773088178711   -0.037292098896363444   -0.02324933841901755
-0.2814885198371854   0.030634351039090957   0.025245746737012822
-0.2814885198371854   0.030634351039090957   0.025245746737012822
-0.2814885198371854   0.030634351039090957   0.025245746737012822
-0.2814885198371854   0.030634351039090957   0.025245746737012822
-0.33805750203325896   -0.006035492783492483   0.002915547337411069
-0.33805750203325896   -0.006035492783492483   0.002915547337411069
-0.33805750203325896   -0.006035492783492483   0.002915547337411069
-0.33805750203325896   -0.006035492783492483   0.002915547337411069
-0.29954544383221926   -0.014763968879368573   -0.01964055331969504
-0.29954544383221926   -0.014763968879368573   -0.01964055331969504
-0.29954544383221926   -0.014763968879368573   -0.01964055331969504
-0.29954544383221926   -0.014763968879368573   -0.01964055331969504
-0.38994425185832776   0.008682353986602193   0.023941493495726572
-0.38994425185832776   0.008682353986602193   0.023941493495726572
-0.38994425185832776   0.008682353986602193   0.023941493495726572
-0.38994425185832776   0.008682353986602193   0.023941493495726572
-0.3904130281577435   -0.0293702013234831   -0.027695668284734267
-0.3904130281577435   -0.0293702013234831   -0.027695668284734267
-0.3904130281577435   -0.0293702013234831   -0.027695668284734267
-0.3904130281577435   -0.0293702013234831   -0.027695668284734267
-0.2722389789541384   0.03584534467894711   0.02082777774750424
-0.2722389789541384   0.03584534467894711   0.02082777774750424
-0.2722389789541384   0.03584534467894711   0.02082777774750424
-0.2722389789541384   0.03584534467894711   0.02082777774750424
-0.32793090807003367   0.0022959182407516626   0.007644187671021534
-0.32793090807003367   0.0022959182407516626   0.007644187671021534
-0.32793090807003367   0.0022959182407516626   0.007644187671021534
-0.32793090807003367   0.0022959182407516626   0.007644187671021534
-0.28976373865766925   -0.008242787487301284   -0.022707888603899374
-0.28976373865766925   -0.008242787487301284   -0.022707888603899374
-0.28976373865766925   -0.008242787487301284   -0.022707888603899374
-0.28976373865766925   -0.008242787487301284   -0.022707888603899374
-0.3721881189687541   0.015418080328223213   0.01864059600850047
-0.3721881189687541   0.015418080328223213   0.01864059600850047
-0.3721881189687541   0.015418080328223213   0.01864059600850047
-0.3721881189687541   0.015418080328223213   0.01864059600850047
-0.3679527396782629   -0.017590819476741584   -0.030917953840251266
-0.3679527396782629   -0.017590819476741584   -0.030917953840251266
-0.3679527396782629   -0.017590819476741584   -0.030917953840251266
-0.3679527396782629   -0.017590819476741584   -0.030917953840251266
-0.2641377194741696   0.04205269006518951   0.017346289063381416
-0.2641377194741696   0.04205269006518951   0.017346289063381416
-0.2641377194741696   0.04205269006518951   0.017346289063381416
-0.2641377194741696   0.04205269006518951   0.017346289063381416
-0.30851956486455767   0.010070157454831696   0.014341573228756566
-0.30851956486455767   0.010070157454831696   0.014341573228756566
-0.30851956486455767   0.010070157454831696   0.014341573228756566
-0.30851956486455767   0.010070157454831696   0.014341573228756566
0.32543680990962703   0.029634449607133843   0.02792788174365339
0.32543680990962703   0.029634449607133843   0.02792788174365339
0.32543680990962703   0.029634449607133843   0.02792788174365339
0.32543680990962703   0.029634449607133843   0.02792788174365339
0.11882719037955577   -0.05348615787036042   -0.018367428965460085
0.11882719037955577   -0.05348615787036042   -0.018367428965460085
0.11882719037955577   -0.05348615787036042   -0.018367428965460085
0.11882719037955577   -0.05348615787036042   -0.018367428965460085
0.14623514685369107   -0.0005175744847546043   0.020062850849317748
0.14623514685369107   -0.0005175744847546043   0.020062850849317748
0.14623514685369107   -0.0005175744847546043   0.020062850849317748
0.14623514685369107   -0.0005175744847546043   0.020062850849317748
0.33105305613011526   -0.00696322563682171   -0.023470991293174173
0.33105305613011526   -0.00696322563682171   -0.023470991293174173
0.33105305613011526   -0.00696322563682171   -0.023470991293174173
0.33105305613011526   -0.00696322563682171   -0.023470991293174173
0.21622273300941822   -0.009537259932552222   -0.020732226587775057
0.21622273300941822   -0.009537259932552222   -0.020732226587775057
0.21622273300941822   -0.009537259932552222   -0.020732226587775057
0.21622273300941822   -0.009537259932552222   -0.020732226587775057
0.3502182219702038   0.041120660685644184   0.024270951584798948
0.3502182219702038   0.041120660685644184   0.024270951584798948
0.3502182219702038   0.041120660685644184   0.024270951584798948
0.3502182219702038   0.041120660685644184   0.024270951584798948
0.128441144212487   -0.04723029760833377   -0.02219443923312152
0.128441144212487   -0.04723029760833377   -0.02219443923312152
0.128441144212487   -0.04723029760833377   -0.02219443923312152
0.128441144212487   -0.04723029760833377   -0.02219443923312152
0.156919768592744   0.005803050423205218   0.0165213597937744
0.156919768592744   0.005803050423205218   0.0165213597937744
0.156919768592744   0.005803050423205218   0.0165213597937744
0.156919768592744   0.005803050423205218   0.0165213597937744
0.35071678167702147   0.00020991301227955839   -0.029499215525954078
0.35071678167702147   0.00020991301227955839   -0.029499215525954078
0.35071678167702147   0.00020991301227955839   -0.029499215525954078
0.35071678167702147   0.00020991301227955839   -0.029499215525954078
0.23682172510061084   -0.001807448184232771   -0.012598372061882841
0.23682172510061084   -0.001807448184232771   -0.012598372061882841
0.23682172510061084   -0.001807448184232771   -0.012598372061882841
0.23682172510061084   -0.001807448184232771   -0.012598372061882841
0.37007803040028736   0.048861515872074636   0.018655425230578157
0.37007803040028736   0.048861515872074636   0.018655425230578157
0.37007803040028736   0.048861515872074636   0.018655425230578157
0.37007803040028736   0.048861515872074636   0.018655425230578157
0.1390041852950927   -0.04140288701097532   -0.025850619260299666
0.1390041852950927   -0.04140288701097532   -0.025850619260299666
0.1390041852950927   -0.04140288701097532   -0.025850619260299666
0.1390041852950927   -0.04140288701097532   -0.025850619260299666
0.1675926594022842   0.019773841967976526   0.014318290026924274
0.1675926594022842   0.019773841967976526   0.014318290026924274
0.1675926594022842   0.019773841967976526   0.014318290026924274
0.1675926594022842   0.019773841967976526   0.014318290026924274
0.37657201177708755   0.018908767173959673   -0.031799536705300266
0.37657201177708755   0.018908767173959673   -0.031799536705300266
0.37657201177708755   0.018908767173959673   -0.031799536705300266
0.37657201177708755   0.018908767173959673   -0.031799536705300266
0.24936090729886407   0.007629532613364021   -0.005600941696606562
0.24936090729886407   0.007629532613364021   -0.005600941696606562
0.24936090729886407   0.007629532613364021   -0.005600941696606562
0.24936090729886407   0.007629532613364021   -0.005600941696606562
0.14102443316035354   0.01667367005047249   0.02245895701769566
0.14102443316035354   0.01667367005047249   0.02245895701769566
0.14102443316035354   0.01667367005047249   0.02245895701769566
0.14102443316035354   0.01667367005047249   0.02245895701769566
-0.06939352063680582   -0.049930662583256125   -0.00964605424209853
-0.06939352063680582   -0.049930662583256125   -0.00964605424209853
-0.06939352063680582   -0.049930662583256125   -0.00964605424209853
-0.06939352063680582   -0.049930662583256125   -0.00964605424209853
-0.050633848937895666   -0.014791256478419572   0.0067371111061432145
-0.050633848937895666   -0.014791256478419572   0.0067371111061432145
-0.050633848937895666   -0.014791256478419572   0.0067371111061432145
-0.050633848937895666   -0.014791256478419572   0.0067371111061432145
0.1419252834469463   0.000872115090625885   -0.002876155759784722
0.1419252834469463   0.000872115090625885   -0.002876155759784722
0.1419252834469463   0.000872115090625885   -0.002876155759784722
0.1419252834469463   0.000872115090625885   -0.002876155759784722
0.038870836371977774   -0.010420594123946865   -0.008783415273803542
0.038870836371977774   -0.010420594123946865   -0.008783415273803542
0.038870836371977774   -0.010420594123946865   -0.008783415273803542
0.038870836371977774   -0.010420594123946865   -0.008783415273803542
0.15201923705600812   0.028404236645301853   0.020061490730846555
0.15201923705600812   0.028404236645301853   0.020061490730846555
0.15201923705600812   0.028404236645301853   0.020061490730846555
0.15201923705600812   0.028404236645301853   0.020061490730846555
-0.05989001455853679   -0.04148559004467532   -0.012849383430807645
-0.05989001455853679   -0.04148559004467532   -0.012849383430807645
-0.05989001455853679   -0.04148559004467532   -0.012849383430807645
-0.05989001455853679   -0.04148559004467532   -0.012849383430807645
-0.04068917707120395   -0.0029315277201178392   0.004242960851683262
-0.04068917707120395   -0.0029315277201178392   0.004242960851683262
-0.04068917707120395   -0.0029315277201178392   0.004242960851683262
-0.04068917707120395   -0.0029315277201178392   0.004242960851683262
0.15367175183256834   0.011488820502951382   -0.005404494086848225
0.15367175183256834   0.011488820502951382   -0.005404494086848225
0.15367175183256834   0.011488820502951382   -0.005404494086848225
0.15367175183256834   0.011488820502951382   -0.005404494086848225
0.04846183287435722   -0.0010627406468317578   -0.0034856268987485126
0.04846183287435722   -0.0010627406468317578   -0.0034856268987485126
0.04846183287435722   -0.0010627406468317578   -0.0034856268987485126
0.04846183287435722   -0.0010627406468317578   -0.0034856268987485126
0.16417284763168075   0.040758538443712605   0.017831266967950798
0.16417284763168075   0.040758538443712605   0.017831266967950798
0.16417284763168075   0.040758538443712605   0.017831266967950798
0.16417284763168075   0.040758538443712605   0.017831266967950798
-0.05035258353960213   -0.03136355633016514   -0.01564204288026037
-0.05035258353960213   -0.03136355633016514   -0.01564204288026037
-0.05035258353960213   -0.03136355633016514   -0.01564204288026037
-0.05035258353960213   -0.03136355633016514   -0.01564204288026037
-0.030861612117547708   0.010845990799126105   0.0017638309156440164
-0.030861612117547708   0.010845990799126105   0.0017638309156440164
-0.030861612117547708   0.010845990799126105   0.0017638309156440164
-0.030861612117547708   0.010845990799126105   0.0017638309156440164
0.1640617232831854   0.024163321383244004   -0.007725869983837259
0.1640617232831854   0.024163321383244004   -0.007725869983837259
0.1640617232831854   0.024163321383244004   -0.007725869983837259
0.1640617232831854   0.024163321383244004   -0.007725869983837259
0.06038933002926963   0.010445171855854448   0.002709295828055898
0.06038933002926963   0.010445171855854448   0.002709295828055898
0.06038933002926963   0.010445171855854448   0.002709295828055898
0.06038933002926963   0.010445171855854448   0.002709295828055898
-0.054823529660225016   0.003679843166823387   0.009593394890725936
-0.054823529660225016   0.003679843166823387   0.009593394890725936
-0.054823529660225016   0.003679843166823387   0.009593394890725936
-0.054823529660225016   0.003679843166823387   0.009593394890725936
-0.25389371985806924   -0.0441732856277882   -0.0013295385934030159
-0.25389371985806924   -0.0441732856277882   -0.0013295385934030159
-0.25389371985806924   -0.0441732856277882   -0.0013295385934030159
-0.25389371985806924   -0.0441732856277882   -0.0013295385934030159
-0.24213952974224293   -0.02626364328748422   -0.005947053879980641
-0.24213952974224293   -0.02626364328748422   -0.005947053879980641
-0.24213952974224293   -0.02626364328748422   -0.005947053879980641
-0.24213952974224293   -0.02626364328748422   -0.005947053879980641
-0.04636302241509632   0.006961507769020686   0.006338479472698731
-0.04636302241509632   0.006961507769020686   0.006338479472698731
-0.04636302241509632   0.006961507769020686   0.006338479472698731
-0.04636302241509632   0.006961507769020686   0.006338479472698731
-0.14956275432987015   -0.013536164158007215   -0.005495032236669117
-0.14956275432987015   -0.013536164158007215   -0.005495032236669117
-0.14956275432987015   -0.013536164158007215   -0.005495032236669117
-0.14956275432987015   -0.013536164158007215   -0.005495032236669117
-0.044380917835237066   0.015932993248430338   0.0072775168925862735
-0.044380917835237066   0.015932993248430338   0.0072775168925862735
-0.044380917835237066   0.015932993248430338   0.0072775168925862735
-0.044380917835237066   0.015932993248430338   0.0072775168925862735
-0.24355083469726416   -0.03466432914205568   -0.004602892800515269
-0.24355083469726416   -0.03466432914205568   -0.004602892800515269
-0.24355083469726416   -0.03466432914205568   -0.004602892800515269
-0.24355083469726416   -0.03466432914205568   -0.004602892800515269
-0.23117171591894453   -0.01325102178299499   -0.008029619661191605
-0.23117171591894453   -0.01325102178299499   -0.008029619661191605
-0.23117171591894453   -0.01325102178299499   -0.008029619661191605
-0.23117171591894453   -0.01325102178299499   -0.008029619661191605
-0.03668784674534955   0.017691597183393797   0.003626487577443628
-0.03668784674534955   0.017691597183393797   0.003626487577443628
-0.03668784674534955   0.017691597183393797   0.003626487577443628
-0.03668784674534955   0.017691597183393797   0.003626487577443628
-0.13849483941211382   -0.0026536838075672912   -7.751385832113506e-05
-0.13849483941211382   -0.0026536838075672912   -7.751385832113506e-05
-0.13849483941211382   -0.0026536838075672912   -7.751385832113506e-05
-0.13849483941211382   -0.0026536838075672912   -7.751385832113506e-05
-0.03429157063269675   0.028659020226094463   0.00464044509800788
-0.03429157063269675   0.028659020226094463   0.00464044509800788
-0.03429157063269675   0.028659020226094463   0.00464044509800788
-0.03429157063269675   0.028659020226094463   0.00464044509800788
-0.2330401553108518   -0.023690608104949964   -0.006932230298772911
-0.2330401553108518   -0.023690608104949964   -0.006932230298772911
-0.2330401553108518   -0.023690608104949964   -0.006932230298772911
-0.2330401553108518   -0.023690608104949964   -0.006932230298772911
-0.2209577549913967   -0.0002718508924048277   -0.010505755408702097
-0.2209577549913967   -0.0002718508924048277   -0.010505755408702097
-0.2209577549913967   -0.0002718508924048277   -0.010505755408702097
-0.2209577549913967   -0.0002718508924048277   -0.010505755408702097
-0.02746840775965985   0.02864028330204122   0.000935560202169167
-0.02746840775965985   0.02864028330204122   0.000935560202169167
-0.02746840775965985   0.02864028330204122   0.000935560202169167
-0.02746840775965985   0.02864028330204122   0.000935560202169167
-0.12833687036359287   0.008190258594113303   0.005072974529061525
-0.12833687036359287   0.008190258594113303   0.005072974529061525
-0.12833687036359287   0.008190258594113303   0.005072974529061525
-0.12833687036359287   0.008190258594113303   0.005072974529061525
-0.24742188057349215   -0.009494027007974783   -0.0036496007903286023
-0.24742188057349215   -0.009494027007974783   -0.0036496007903286023
-0.24742188057349215   -0.009494027007974783   -0.0036496007903286023
-0.24742188057349215   -0.009494027007974783   -0.0036496007903286023
-0.4345831639307746   -0.035945452459783915   0.008128158505372978
-0.4345831639307746   -0.035945452459783915   0.008128158505372978
-0.4345831639307746   -0.035945452459783915   0.008128158505372978
-0.4345831639307746   -0.035945452459783915   0.008128158505372978
-0.4290682147166953   -0.037318515497956756   -0.017860765546298504
-0.4290682147166953   -0.037318515497956756   -0.017860765546298504
-0.4290682147166953   -0.037318515497956756   -0.017860765546298504
-0.4290682147166953   -0.037318515497956756   -0.017860765546298504
-0.2291462280313207   0.016917662074703167   0.015838149312445156
-0.2291462280313207   0.016917662074703167   0.015838149312445156
-0.2291462280313207   0.016917662074703167   0.015838149312445156
-0.2291462280313207   0.016917662074703167   0.015838149312445156
-0.3327382985240978   -0.01442051867349222   -0.0019275295793687083
-0.3327382985240978   -0.01442051867349222   -0.0019275295793687083
-0.3327382985240978   -0.01442051867349222   -0.0019275295793687083
-0.3327382985240978   -0.01442051867349222   -0.0019275295793687083
-0.2360742646669897   0.0037296277191705973   -0.005613999510367323
-0.2360742646669897   0.0037296277191705973   -0.005613999510367323
-0.2360742646669897   0.0037296277191705973   -0.005613999510367323
-0.2360742646669897   0.0037296277191705973   -0.005613999510367323
-0.42207817588923063   -0.024068478950628497   0.0038393920436967585
-0.42207817588923063   -0.024068478950628497   0.0038393920436967585
-0.42207817588923063   -0.024068478950628497   0.0038393920436967585
-0.42207817588923063   -0.024068478950628497   0.0038393920436967585
-0.41469703845465733   -0.024621996417716674   -0.019757302371932114
-0.41469703845465733   -0.024621996417716674   -0.019757302371932114
-0.41469703845465733   -0.024621996417716674   -0.019757302371932114
-0.41469703845465733   -0.024621996417716674   -0.019757302371932114
-0.21895462518683176   0.02712966440533067   0.01267514781104848
-0.21895462518683176   0.02712966440533067   0.01267514781104848
-0.21895462518683176   0.02712966440533067   0.01267514781104848
-0.21895462518683176   0.02712966440533067   0.01267514781104848
-0.3180770127838906   -0.0024020200919143003   0.0035200312302206584
-0.3180770127838906   -0.0024020200919143003   0.0035200312302206584
-0.3180770127838906   -0.0024020200919143003   0.0035200312302206584
-0.3180770127838906   -0.0024020200919143003   0.0035200312302206584
-0.22545925361243613   0.015527795868987684   -0.008246125780631483
-0.22545925361243613   0.015527795868987684   -0.008246125780631483
-0.22545925361243613   0.015527795868987684   -0.008246125780631483
-0.22545925361243613   0.015527795868987684   -0.008246125780631483
-0.40781474905784304   -0.01264246691016399   0.00267461510458648
-0.40781474905784304   -0.01264246691016399   0.00267461510458648
-0.40781474905784304   -0.01264246691016399   0.00267461510458648
-0.40781474905784304   -0.01264246691016399   0.00267461510458648
-0.40185077294852123   -0.010886120399629995   -0.020784083724452812
-0.40185077294852123   -0.010886120399629995   -0.020784083724452812
-0.40185077294852123   -0.010886120399629995   -0.020784083724452812
-0.40185077294852123   -0.010886120399629995   -0.020784083724452812
-0.20908434906532317   0.038326975631616404   0.010262447697646088
-0.20908434906532317   0.038326975631616404   0.010262447697646088
-0.20908434906532317   0.038326975631616404   0.010262447697646088
-0.20908434906532317   0.038326975631616404   0.010262447697646088
-0.30827394683236886   0.007848093495882807   0.008210456886261867
-0.30827394683236886   0.007848093495882807   0.008210456886261867
-0.30827394683236886   0.007848093495882807   0.008210456886261867
-0.30827394683236886   0.007848093495882807   0.008210456886261867
-0.43627617362440874   -0.02036974016194394   -0.01591260226063727
-0.43627617362440874   -0.02036974016194394   -0.01591260226063727
-0.43627617362440874   -0.02036974016194394   -0.01591260226063727
-0.43627617362440874   -0.02036974016194394   -0.01591260226063727
-0.6225982774309562   -0.022565022672395074   0.02752767696479718
-0.6225982774309562   -0.022565022672395074   0.02752767696479718
-0.6225982774309562   -0.022565022672395074   0.02752767696479718
-0.6225982774309562   -0.022565022672395074   0.02752767696479718
-0.6111424283564377   -0.04458781379227868   -0.02121116890058306
-0.6111424283564377   -0.04458781379227868   -0.02121116890058306
-0.6111424283564377   -0.04458781379227868   -0.02121116890058306
-0.6111424283564377   -0.04458781379227868   -0.02121116890058306
-0.40551173740599916   0.03455964267244778   0.028043462836774224
-0.40551173740599916   0.03455964267244778   0.028043462836774224
-0.40551173740599916   0.03455964267244778   0.028043462836774224
-0.40551173740599916   0.03455964267244778   0.028043462836774224
-0.4958387331702274   -0.006117891183508528   0.0059148339631226975
-0.4958387331702274   -0.006117891183508528   0.0059148339631226975
-0.4958387331702274   -0.006117891183508528   0.0059148339631226975
-0.4958387331702274   -0.006117891183508528   0.0059148339631226975
-0.42281667326936284   -0.006220619796888371   -0.017700954010706416
-0.42281667326936284   -0.006220619796888371   -0.017700954010706416
-0.42281667326936284   -0.006220619796888371   -0.017700954010706416
-0.42281667326936284   -0.006220619796888371   -0.017700954010706416
-0.5935248226970979   -0.0034948815269669475   0.02578392713079941
-0.5935248226970979   -0.0034948815269669475   0.02578392713079941
-0.5935248226970979   -0.0034948815269669475   0.02578392713079941
-0.5935248226970979   -0.0034948815269669475   0.02578392713079941
-0.5892633140811309   -0.03672587067206569   -0.025003963880567238
-0.5892633140811309   -0.03672587067206569   -0.025003963880567238
-0.5892633140811309   -0.03672587067206569   -0.025003963880567238
-0.5892633140811309   -0.03672587067206569   -0.025003963880567238
-0.3934898441250043   0.039404932226623876   0.0222517406319925
-0.3934898441250043   0.039404932226623876   0.0222517406319925
-0.3934898441250043   0.039404932226623876   0.0222517406319925
-0.3934898441250043   0.039404932226623876   0.0222517406319925
-0.48479663432872827   0.0024746160233187764   0.010404560805543243
-0.48479663432872827   0.0024746160233187764   0.010404560805543243
-0.48479663432872827   0.0024746160233187764   0.010404560805543243
-0.48479663432872827   0.0024746160233187764   0.010404560805543243
-0.40983162081151603   0.00012568220265188335   -0.020177892776594254
-0.40983162081151603   0.00012568220265188335   -0.020177892776594254
-0.40983162081151603   0.00012568220265188335   -0.020177892776594254
-0.40983162081151603   0.00012568220265188335   -0.020177892776594254
-0.5726041595470318   0.002870757199489246   0.018695180918362225
-0.5726041595470318   0.002870757199489246   0.018695180918362225
-0.5726041595470318   0.002870757199489246   0.018695180918362225
-0.5726041595470318   0.002870757199489246   0.018695180918362225
-0.5652733508636347   -0.02734969511729564   -0.02853000545957923
-0.5652733508636347   -0.02734969511729564   -0.02853000545957923
-0.5652733508636347   -0.02734969511729564   -0.02853000545957923
-0.5652733508636347   -0.02734969511729564   -0.02853000545957923
-0.3829611267030517   0.04383682845473923   0.018941198648525392
-0.3829611267030517   0.04383682845473923   0.018941198648525392
-0.3829611267030517   0.04383682845473923   0.018941198648525392
-0.3829611267030517   0.04383682845473923   0.018941198648525392
-0.46048279268346987   0.009587462754957116   0.01726117860657637
-0.46048279268346987   0.009587462754957116   0.01726117860657637
-0.46048279268346987   0.009587462754957116   0.01726117860657637
-0.46048279268346987   0.009587462754957116   0.01726117860657637
0.5428810621029216   0.04068286799286662   0.028423828627324583
0.5428810621029216   0.04068286799286662   0.028423828627324583
0.5428810621029216   0.04068286799286662   0.028423828627324583
0.5428810621029216   0.04068286799286662   0.028423828627324583
0.2389120290355221   -0.06330063037551267   -0.013205869776184171
0.2389120290355221   -0.06330063037551267   -0.013205869776184171
0.2389120290355221   -0.06330063037551267   -0.013205869776184171
0.2389120290355221   -0.06330063037551267   -0.013205869776184171
0.2659224044373675   -0.011401446492394274   0.019468556121695478
0.2659224044373675   -0.011401446492394274   0.019468556121695478
0.2659224044373675   -0.011401446492394274   0.019468556121695478
0.2659224044373675   -0.011401446492394274   0.019468556121695478
0.5486001871605367   -0.0003686745320784779   -0.020598817963565996
0.5486001871605367   -0.0003686745320784779   -0.020598817963565996
0.5486001871605367   -0.0003686745320784779   -0.020598817963565996
0.5486001871605367   -0.0003686745320784779   -0.020598817963565996
0.37573289634876966   -0.011134881076041853   -0.029161033816417044
0.37573289634876966   -0.011134881076041853   -0.029161033816417044
0.37573289634876966   -0.011134881076041853   -0.029161033816417044
0.37573289634876966   -0.011134881076041853   -0.029161033816417044
0.56750293043629   0.049775160216395636   0.023771063666722457
0.56750293043629   0.049775160216395636   0.023771063666722457
0.56750293043629   0.049775160216395636   0.023771063666722457
0.56750293043629   0.049775160216395636   0.023771063666722457
0.24884074919357177   -0.05972419320891113   -0.01761697338076433
0.24884074919357177   -0.05972419320891113   -0.01761697338076433
0.24884074919357177   -0.05972419320891113   -0.01761697338076433
0.24884074919357177   -0.05972419320891113   -0.01761697338076433
0.2763805233669355   -0.005614162834023856   0.015716663552630173
0.2763805233669355   -0.005614162834023856   0.015716663552630173
0.2763805233669355   -0.005614162834023856   0.015716663552630173
0.2763805233669355   -0.005614162834023856   0.015716663552630173
0.5670322693153775   0.006002368794709445   -0.025670700922659037
0.5670322693153775   0.006002368794709445   -0.025670700922659037
0.5670322693153775   0.006002368794709445   -0.025670700922659037
0.5670322693153775   0.006002368794709445   -0.025670700922659037
0.3989845045133358   -0.004348819564650774   -0.019875541423702677
0.3989845045133358   -0.004348819564650774   -0.019875541423702677
0.3989845045133358   -0.004348819564650774   -0.019875541423702677
0.3989845045133358   -0.004348819564650774   -0.019875541423702677
0.585815125069562   0.05664884510380837   0.01759710153916477
0.585815125069562   0.05664884510380837   0.01759710153916477
0.585815125069562   0.05664884510380837   0.01759710153916477
0.585815125069562   0.05664884510380837   0.01759710153916477
0.2591855864152915   -0.054672720340582286   -0.02119946369903168
0.2591855864152915   -0.054672720340582286   -0.02119946369903168
0.2591855864152915   -0.054672720340582286   -0.02119946369903168
0.2591855864152915   -0.054672720340582286   -0.02119946369903168
0.2858684722758861   0.009883885127489889   0.013779592563552233
0.2858684722758861   0.009883885127489889   0.013779592563552233
0.2858684722758861   0.009883885127489889   0.013779592563552233
0.2858684722758861   0.009883885127489889   0.013779592563552233
0.5897599411153664   0.024665311227482514   -0.02685899941569773
0.5897599411153664   0.024665311227482514   -0.02685899941569773
0.5897599411153664   0.024665311227482514   -0.02685899941569773
0.5897599411153664   0.024665311227482514   -0.02685899941569773
0.4074719711121431   0.004826908095611385   -0.013484648727316095
0.4074719711121431   0.004826908095611385   -0.013484648727316095
0.4074719711121431   0.004826908095611385   -0.013484648727316095
0.4074719711121431   0.004826908095611385   -0.013484648727316095
0.2642485925524088   0.023968528657961473   0.02620778877477489
0.2642485925524088   0.023968528657961473   0.02620778877477489
0.2642485925524088   0.023968528657961473   0.02620778877477489
0.2642485925524088   0.023968528657961473   0.02620778877477489
-0.03378586919750333   -0.07773825014626756   -0.007558249539359706
-0.03378586919750333   -0.07773825014626756   -0.007558249539359706
-0.03378586919750333   -0.07773825014626756   -0.007558249539359706
-0.03378586919750333   -0.07773825014626756   -0.007558249539359706
-0.010636028350410947   -0.02775687580262738   0.006540201571306191
-0.010636028350410947   -0.02775687580262738   0.006540201571306191
-0.010636028350410947   -0.02775687580262738   0.006540201571306191
-0.010636028350410947   -0.02775687580262738   0.006540201571306191
0.26191008307987296   -0.013373636888299907   0.0013791397301285493
0.26191008307987296   -0.013373636888299907   0.0013791397301285493
0.26191008307987296   -0.013373636888299907   0.0013791397301285493
0.26191008307987296   -0.013373636888299907   0.0013791397301285493
0.11716488177075424   -0.02138813204047485   -0.013777453495072712
0.11716488177075424   -0.02138813204047485   -0.013777453495072712
0.11716488177075424   -0.02138813204047485   -0.013777453495072712
0.11716488177075424   -0.02138813204047485   -0.013777453495072712
0.27551711417924135   0.032811536713980266   0.02322912162469216
0.27551711417924135   0.032811536713980266   0.02322912162469216
0.27551711417924135   0.032811536713980266   0.02322912162469216
0.27551711417924135   0.032811536713980266   0.02322912162469216
-0.023271759206758703   -0.07297074916188662   -0.011424579351173345
-0.023271759206758703   -0.07297074916188662   -0.011424579351173345
-0.023271759206758703   -0.07297074916188662   -0.011424579351173345
-0.023271759206758703   -0.07297074916188662   -0.011424579351173345
2.2268430931984308e-05   -0.017368894921668758   0.003956412191687423
2.2268430931984308e-05   -0.017368894921668758   0.003956412191687423
2.2268430931984308e-05   -0.017368894921668758   0.003956412191687423
2.2268430931984308e-05   -0.017368894921668758   0.003956412191687423
0.27285742075502456   -0.005536843261880642   -0.0019761690790678597
0.27285742075502456   -0.005536843261880642   -0.0019761690790678597
0.27285742075502456   -0.005536843261880642   -0.0019761690790678597
0.27285742075502456   -0.005536843261880642   -0.0019761690790678597
0.1263807178404009   -0.015000271071725808   -0.008908373649955592
0.1263807178404009   -0.015000271071725808   -0.008908373649955592
0.1263807178404009   -0.015000271071725808   -0.008908373649955592
0.1263807178404009   -0.015000271071725808   -0.008908373649955592
0.28719571748042816   0.04342517225592238   0.020753299030146964
0.28719571748042816   0.04342517225592238   0.020753299030146964
0.28719571748042816   0.04342517225592238   0.020753299030146964
0.28719571748042816   0.04342517225592238   0.020753299030146964
-0.013728032219985474   -0.06574291436498567   -0.016421071619582953
-0.013728032219985474   -0.06574291436498567   -0.016421071619582953
-0.013728032219985474   -0.06574291436498567   -0.016421071619582953
-0.013728032219985474   -0.06574291436498567   -0.016421071619582953
0.00839546078204869   -0.005154897573120166   0.0013492977354785975
0.00839546078204869   -0.005154897573120166   0.0013492977354785975
0.00839546078204869   -0.005154897573120166   0.0013492977354785975
0.00839546078204869   -0.005154897573120166   0.0013492977354785975
0.28103444687333134   0.004490415181310159   -0.0049970645030454255
0.28103444687333134   0.004490415181310159   -0.0049970645030454255
0.28103444687333134   0.004490415181310159   -0.0049970645030454255
0.28103444687333134   0.004490415181310159   -0.0049970645030454255
0.13778938306823146   -0.0054263836106843225   -0.0036534701781062804
0.13778938306823146   -0.0054263836106843225   -0.0036534701781062804
0.13778938306823146   -0.0054263836106843225   -0.0036534701781062804
0.13778938306823146   -0.0054263836106843225   -0.0036534701781062804
-0.012726702382525384   0.006938243719878045   0.013061090669384389
-0.012726702382525384   0.006938243719878045   0.013061090669384389
-0.012726702382525384   0.006938243719878045   0.013061090669384389
-0.012726702382525384   0.006938243719878045   0.013061090669384389
-0.30432834900538136   -0.09729583497847911   -0.006006095498858874
-0.30432834900538136   -0.09729583497847911   -0.006006095498858874
-0.30432834900538136   -0.09729583497847911   -0.006006095498858874
-0.30432834900538136   -0.09729583497847911   -0.006006095498858874
-0.2810509035803548   -0.04253023750107418   -0.006432365712517137
-0.2810509035803548   -0.04253023750107418   -0.006432365712517137
-0.2810509035803548   -0.04253023750107418   -0.006432365712517137
-0.2810509035803548   -0.04253023750107418   -0.006432365712517137
-0.011657571021614573   -0.03228287309367573   0.005958485506336413
-0.011657571021614573   -0.03228287309367573   0.005958485506336413
-0.011657571021614573   -0.03228287309367573   0.005958485506336413
-0.011657571021614573   -0.03228287309367573   0.005958485506336413
-0.15311077441678006   -0.03907493318803788   -0.012274420339330119
-0.15311077441678006   -0.03907493318803788   -0.012274420339330119
-0.15311077441678006   -0.03907493318803788   -0.012274420339330119
-0.15311077441678006   -0.03907493318803788   -0.012274420339330119
-0.0008829500470144041   0.01691630817102469   0.010632409114636835
-0.0008829500470144041   0.01691630817102469   0.010632409114636835
-0.0008829500470144041   0.01691630817102469   0.010632409114636835
-0.0008829500470144041   0.01691630817102469   0.010632409114636835
-0.291119635274146   -0.09102352948496567   -0.008282732197581818
-0.291119635274146   -0.09102352948496567   -0.008282732197581818
-0.291119635274146   -0.09102352948496567   -0.008282732197581818
-0.291119635274146   -0.09102352948496567   -0.008282732197581818
-0.2678206025223968   -0.031005257911385992   -0.008725032119408057
-0.2678206025223968   -0.031005257911385992   -0.008725032119408057
-0.2678206025223968   -0.031005257911385992   -0.008725032119408057
-0.2678206025223968   -0.031005257911385992   -0.008725032119408057
-0.001738285004662353   -0.024742929357980226   0.0025276794500272036
-0.001738285004662353   -0.024742929357980226   0.0025276794500272036
-0.001738285004662353   -0.024742929357980226   0.0025276794500272036
-0.001738285004662353   -0.024742929357980226   0.0025276794500272036
-0.1402671459064547   -0.0307722190067476   -0.006774551095550909
-0.1402671459064547   -0.0307722190067476   -0.006774551095550909
-0.1402671459064547   -0.0307722190067476   -0.006774551095550909
-0.1402671459064547   -0.0307722190067476   -0.006774551095550909
0.00995114278288363   0.02795039614958924   0.008281492880187659
0.00995114278288363   0.02795039614958924   0.008281492880187659
0.00995114278288363   0.02795039614958924   0.008281492880187659
0.00995114278288363   0.02795039614958924   0.008281492880187659
-0.2794886583983312   -0.08367721150734386   -0.014393357903122128
-0.2794886583983312   -0.08367721150734386   -0.014393357903122128
-0.2794886583983312   -0.08367721150734386   -0.014393357903122128
-0.2794886583983312   -0.08367721150734386   -0.014393357903122128
-0.2584653052611081   -0.020002120804429348   -0.011279562828720054
-0.2584653052611081   -0.020002120804429348   -0.011279562828720054
-0.2584653052611081   -0.020002120804429348   -0.011279562828720054
-0.2584653052611081   -0.020002120804429348   -0.011279562828720054
0.0047596757159734495   -0.01867464834052057   -0.003309876827498149
0.0047596757159734495   -0.01867464834052057   -0.003309876827498149
0.0047596757159734495   -0.01867464834052057   -0.003309876827498149
0.0047596757159734495   -0.01867464834052057   -0.003309876827498149
-0.13085328329480012   -0.02300613961211642   -0.0033000932533928844
-0.13085328329480012   -0.02300613961211642   -0.0033000932533928844
-0.13085328329480012   -0.02300613961211642   -0.0033000932533928844
-0.13085328329480012   -0.02300613961211642   -0.0033000932533928844
-0.28528956680849604   -0.007778307195818283   -0.0003297122970928514
-0.28528956680849604   -0.007778307195818283   -0.0003297122970928514
-0.28528956680849604   -0.007778307195818283   -0.0003297122970928514
-0.28528956680849604   -0.007778307195818283   -0.0003297122970928514
-0.5763695107520261   -0.1046045410938084   -0.00475987709059688
-0.5763695107520261   -0.1046045410938084   -0.00475987709059688
-0.5763695107520261   -0.1046045410938084   -0.00475987709059688
-0.5763695107520261   -0.1046045410938084   -0.00475987709059688
-0.5515151490549324   -0.054518314164592296   -0.018972810860420443
-0.5515151490549324   -0.054518314164592296   -0.018972810860420443
-0.5515151490549324   -0.054518314164592296   -0.018972810860420443
-0.5515151490549324   -0.054518314164592296   -0.018972810860420443
-0.27547344020146   -0.03358278298061522   0.012507496661497999
-0.27547344020146   -0.03358278298061522   0.012507496661497999
-0.27547344020146   -0.03358278298061522   0.012507496661497999
-0.27547344020146   -0.03358278298061522   0.012507496661497999
-0.4185023413133342   -0.047115730956075096   -0.00863305246496549
-0.4185023413133342   -0.047115730956075096   -0.00863305246496549
-0.4185023413133342   -0.047115730956075096   -0.00863305246496549
-0.4185023413133342   -0.047115730956075096   -0.00863305246496549
-0.27067058721242165   0.005027463417674058   -0.002088484791599475
-0.27067058721242165   0.005027463417674058   -0.002088484791599475
-0.27067058721242165   0.005027463417674058   -0.002088484791599475
-0.27067058721242165   0.005027463417674058   -0.002088484791599475
-0.5564982889262899   -0.09330884744520246   -0.0050979769365928984
-0.5564982889262899   -0.09330884744520246   -0.0050979769365928984
-0.5564982889262899   -0.09330884744520246   -0.0050979769365928984
-0.5564982889262899   -0.09330884744520246   -0.0050979769365928984
-0.5325628656577835   -0.0425164409115073   -0.021947138302189587
-0.5325628656577835   -0.0425164409115073   -0.021947138302189587
-0.5325628656577835   -0.0425164409115073   -0.021947138302189587
-0.5325628656577835   -0.0425164409115073   -0.021947138302189587
-0.26265475198887517   -0.024596656433041136   0.010695619069857259
-0.26265475198887517   -0.024596656433041136   0.010695619069857259
-0.26265475198887517   -0.024596656433041136   0.010695619069857259
-0.26265475198887517   -0.024596656433041136   0.010695619069857259
-0.39895962494717246   -0.03559808646049267   -0.002745496680788391
-0.39895962494717246   -0.03559808646049267   -0.002745496680788391
-0.39895962494717246   -0.03559808646049267   -0.002745496680788391
-0.39895962494717246   -0.03559808646049267   -0.002745496680788391
-0.2574163043889097   0.016133782608361187   -0.003842581971720927
-0.2574163043889097   0.016133782608361187   -0.003842581971720927
-0.2574163043889097   0.016133782608361187   -0.003842581971720927
-0.2574163043889097   0.016133782608361187   -0.003842581971720927
-0.5386786277996342   -0.08412419449479468   -0.010918195428151329
-0.5386786277996342   -0.08412419449479468   -0.010918195428151329
-0.5386786277996342   -0.08412419449479468   -0.010918195428151329
-0.5386786277996342   -0.08412419449479468   -0.010918195428151329
-0.5172556039068349   -0.0298924764300499   -0.022663557769189074
-0.5172556039068349   -0.0298924764300499   -0.022663557769189074
-0.5172556039068349   -0.0298924764300499   -0.022663557769189074
-0.5172556039068349   -0.0298924764300499   -0.022663557769189074
-0.2553052348963611   -0.018883417423460357   0.003402085614048797
-0.2553052348963611   -0.018883417423460357   0.003402085614048797
-0.2553052348963611   -0.018883417423460357   0.003402085614048797
-0.2553052348963611   -0.018883417423460357   0.003402085614048797
-0.388362196374851   -0.028590262160286282   -0.0008036122816765159
-0.388362196374851   -0.028590262160286282   -0.0008036122816765159
-0.388362196374851   -0.028590262160286282   -0.0008036122816765159
-0.388362196374851   -0.028590262160286282   -0.0008036122816765159
-0.5609176470156263   -0.018462876568972192   -0.01364222293343366
-0.5609176470156263   -0.018462876568972192   -0.01364222293343366
-0.5609176470156263   -0.018462876568972192   -0.01364222293343366
-0.5609176470156263   -0.018462876568972192   -0.01364222293343366
-0.8459506947186765   -0.07135700223763984   0.03128801080291044
-0.8459506947186765   -0.07135700223763984   0.03128801080291044
-0.8459506947186765   -0.07135700223763984   0.03128801080291044
-0.8459506947186765   -0.07135700223763984   0.03128801080291044
-0.8177323547327833   -0.057177500158835076   -0.018421633992855874
-0.8177323547327833   -0.057177500158835076   -0.018421633992855874
-0.8177323547327833   -0.057177500158835076   -0.018421633992855874
-0.8177323547327833   -0.057177500158835076   -0.018421633992855874
-0.527948986509004   0.015412126439879797   0.028927561264745022
-0.527948986509004   0.015412126439879797   0.028927561264745022
-0.527948986509004   0.015412126439879797   0.028927561264745022
-0.527948986509004   0.015412126439879797   0.028927561264745022
-0.6572759429473269   -0.022205183827259722   0.0035310482721465364
-0.6572759429473269   -0.022205183827259722   0.0035310482721465364
-0.6572759429473269   -0.022205183827259722   0.0035310482721465364
-0.6572759429473269   -0.022205183827259722   0.0035310482721465364
-0.540040465444933   -0.000981947414747053   -0.015135759560266096
-0.540040465444933   -0.000981947414747053   -0.015135759560266096
-0.540040465444933   -0.000981947414747053   -0.015135759560266096
-0.540040465444933   -0.000981947414747053   -0.015135759560266096
-0.803693563065438   -0.038836113572791986   0.033430937757820134
-0.803693563065438   -0.038836113572791986   0.033430937757820134
-0.803693563065438   -0.038836113572791986   0.033430937757820134
-0.803693563065438   -0.038836113572791986   0.033430937757820134
-0.7874134862526456   -0.04821782310446476   -0.021938393895809323
-0.7874134862526456   -0.04821782310446476   -0.021938393895809323
-0.7874134862526456   -0.04821782310446476   -0.021938393895809323
-0.7874134862526456   -0.04821782310446476   -0.021938393895809323
-0.509237621084442   0.02428893127682802   0.027873712376182788
-0.509237621084442   0.02428893127682802   0.027873712376182788
-0.509237621084442   0.02428893127682802   0.027873712376182788
-0.509237621084442   0.02428893127682802   0.027873712376182788
-0.6397210262907478   -0.008952186080735891   0.013197794069315753
-0.6397210262907478   -0.008952186080735891   0.013197794069315753
-0.6397210262907478   -0.008952186080735891   0.013197794069315753
-0.6397210262907478   -0.008952186080735891   0.013197794069315753
-0.5217394411213235   0.00602947782890248   -0.016375934360295184
-0.5217394411213235   0.00602947782890248   -0.016375934360295184
-0.5217394411213235   0.00602947782890248   -0.016375934360295184
-0.5217394411213235   0.00602947782890248   -0.016375934360295184
-0.7744946853867047   -0.029541388827478088   0.023979176156915014
-0.7744946853867047   -0.029541388827478088   0.023979176156915014
-0.7744946853867047   -0.029541388827478088   0.023979176156915014
-0.7744946853867047   -0.029541388827478088   0.023979176156915014
-0.7560213630301812   -0.03987077165002584   -0.02653656554817048
-0.7560213630301812   -0.03987077165002584   -0.02653656554817048
-0.7560213630301812   -0.03987077165002584   -0.02653656554817048
-0.7560213630301812   -0.03987077165002584   -0.02653656554817048
-0.4955018070970726   0.034725785198547576   0.02148716465102947
-0.4955018070970726   0.034725785198547576   0.02148716465102947
-0.4955018070970726   0.034725785198547576   0.02148716465102947
-0.4955018070970726   0.034725785198547576   0.02148716465102947
-0.605774651155608   0.0023343270618681744   0.022994937217174778
-0.605774651155608   0.0023343270618681744   0.022994937217174778
-0.605774651155608   0.0023343270618681744   0.022994937217174778
-0.605774651155608   0.0023343270618681744   0.022994937217174778
0.7386547409271863   0.04456901197634673   0.026399630091448748
0.7386547409271863   0.04456901197634673   0.026399630091448748
0.7386547409271863   0.04456901197634673   0.026399630091448748
0.7386547409271863   0.04456901197634673   0.026399630091448748
0.35138729915994593   -0.06536535233838534   0.005521960885469551
0.35138729915994593   -0.06536535233838534   0.005521960885469551
0.35138729915994593   -0.06536535233838534   0.005521960885469551
0.35138729915994593   -0.06536535233838534   0.005521960885469551
0.37043675708142965   -0.02784349643079867   0.02019050262194013
0.37043675708142965   -0.02784349643079867   0.02019050262194013
0.37043675708142965   -0.02784349643079867   0.02019050262194013
0.37043675708142965   -0.02784349643079867   0.02019050262194013
0.7423398972492934   0.007057398511061214   -0.0061988751354005375
0.7423398972492934   0.007057398511061214   -0.0061988751354005375
0.7423398972492934   0.007057398511061214   -0.0061988751354005375
0.7423398972492934   0.007057398511061214   -0.0061988751354005375
0.5188929692679443   -0.013823508438031498   -0.0342254259368082
0.5188929692679443   -0.013823508438031498   -0.0342254259368082
0.5188929692679443   -0.013823508438031498   -0.0342254259368082
0.5188929692679443   -0.013823508438031498   -0.0342254259368082
0.7562294981612488   0.049448547373220686   0.020857980562217687
0.7562294981612488   0.049448547373220686   0.020857980562217687
0.7562294981612488   0.049448547373220686   0.020857980562217687
0.7562294981612488   0.049448547373220686   0.020857980562217687
0.3598542877130423   -0.06692751374938993   0.006362173098594805
0.3598542877130423   -0.06692751374938993   0.006362173098594805
0.3598542877130423   -0.06692751374938993   0.006362173098594805
0.3598542877130423   -0.06692751374938993   0.006362173098594805
0.37756920066446115   -0.02368895170823218   0.015335765213549152
0.37756920066446115   -0.02368895170823218   0.015335765213549152
0.37756920066446115   -0.02368895170823218   0.015335765213549152
0.37756920066446115   -0.02368895170823218   0.015335765213549152
0.7550814590412457   0.011727041622694695   -0.0022015505685772582
0.7550814590412457   0.011727041622694695   -0.0022015505685772582
0.7550814590412457   0.011727041622694695   -0.0022015505685772582
0.7550814590412457   0.011727041622694695   -0.0022015505685772582
0.5400293898656912   -0.01087675965671707   -0.023455955282573153
0.5400293898656912   -0.01087675965671707   -0.023455955282573153
0.5400293898656912   -0.01087675965671707   -0.023455955282573153
0.5400293898656912   -0.01087675965671707   -0.023455955282573153
0.7668587357093298   0.05398681428078281   0.014425060113755397
0.7668587357093298   0.05398681428078281   0.014425060113755397
0.7668587357093298   0.05398681428078281   0.014425060113755397
0.7668587357093298   0.05398681428078281   0.014425060113755397
0.36809169891714977   -0.06364894944554755   0.00790825421430745
0.36809169891714977   -0.06364894944554755   0.00790825421430745
0.36809169891714977   -0.06364894944554755   0.00790825421430745
0.36809169891714977   -0.06364894944554755   0.00790825421430745
0.3881050107407341   -0.007489668664031016   0.0140210315013669
0.3881050107407341   -0.007489668664031016   0.0140210315013669
0.3881050107407341   -0.007489668664031016   0.0140210315013669
0.3881050107407341   -0.007489668664031016   0.0140210315013669
0.7683930642154064   0.0225661119876647   -0.0006948539449244534
0.7683930642154064   0.0225661119876647   -0.0006948539449244534
0.7683930642154064   0.0225661119876647   -0.0006948539449244534
0.7683930642154064   0.0225661119876647   -0.0006948539449244534
0.5424129255346076   -0.004858049773319786   -0.017635911314719453
0.5424129255346076   -0.004858049773319786   -0.017635911314719453
0.5424129255346076   -0.004858049773319786   -0.017635911314719453
0.5424129255346076   -0.004858049773319786   -0.017635911314719453
0.37100731497084316   0.010319478429656456   0.02793720917191387
0.37100731497084316   0.010319478429656456   0.02793720917191387
0.37100731497084316   0.010319478429656456   0.02793720917191387
0.37100731497084316   0.010319478429656456   0.02793720917191387
0.017719061534415333   -0.12913667551268165   0.012896149757577961
0.017719061534415333   -0.12913667551268165   0.012896149757577961
0.017719061534415333   -0.12913667551268165   0.012896149757577961
0.017719061534415333   -0.12913667551268165   0.012896149757577961
0.042396704633720535   -0.0551114140336754   0.0122036324494035
0.042396704633720535   -0.0551114140336754   0.0122036324494035
0.042396704633720535   -0.0551114140336754   0.0122036324494035
0.042396704633720535   -0.0551114140336754   0.0122036324494035
0.3615903712139915   -0.060433807425006064   0.008548884278954332
0.3615903712139915   -0.060433807425006064   0.008548884278954332
0.3615903712139915   -0.060433807425006064   0.008548884278954332
0.3615903712139915   -0.060433807425006064   0.008548884278954332
0.19178417815415363   -0.05733115072825128   -0.02161751576523596
0.19178417815415363   -0.05733115072825128   -0.02161751576523596
0.19178417815415363   -0.05733115072825128   -0.02161751576523596
0.19178417815415363   -0.05733115072825128   -0.02161751576523596
0.3795549048180017   0.01455587374008424   0.02338187113392054
0.3795549048180017   0.01455587374008424   0.02338187113392054
0.3795549048180017   0.01455587374008424   0.02338187113392054
0.3795549048180017   0.01455587374008424   0.02338187113392054
0.02917878341129039   -0.12535448281718475   0.016357095120762104
0.02917878341129039   -0.12535448281718475   0.016357095120762104
0.02917878341129039   -0.12535448281718475   0.016357095120762104
0.02917878341129039   -0.12535448281718475   0.016357095120762104
0.052266036506355695   -0.04750464621982862   0.008776200379861137
0.052266036506355695   -0.04750464621982862   0.008776200379861137
0.052266036506355695   -0.04750464621982862   0.008776200379861137
0.052266036506355695   -0.04750464621982862   0.008776200379861137
0.3700610443236012   -0.056402496141306296   0.0105085279423235
0.3700610443236012   -0.056402496141306296   0.0105085279423235
0.3700610443236012   -0.056402496141306296   0.0105085279423235
0.3700610443236012   -0.056402496141306296   0.0105085279423235
0.20012890404843967   -0.054382212519846   -0.01081488065785139
0.20012890404843967   -0.054382212519846   -0.01081488065785139
0.20012890404843967   -0.054382212519846   -0.01081488065785139
0.20012890404843967   -0.054382212519846   -0.01081488065785139
0.38754006148404047   0.02174595185031565   0.019755165752897697
0.38754006148404047   0.02174595185031565   0.019755165752897697
0.38754006148404047   0.02174595185031565   0.019755165752897697
0.38754006148404047   0.02174595185031565   0.019755165752897697
0.03934892234066767   -0.12109119121669937   0.017777174548291717
0.03934892234066767   -0.12109119121669937   0.017777174548291717
0.03934892234066767   -0.12109119121669937   0.017777174548291717
0.03934892234066767   -0.12109119121669937   0.017777174548291717
0.06744938011658519   -0.03607769429717436   0.00574745486129344
0.06744938011658519   -0.03607769429717436   0.00574745486129344
0.06744938011658519   -0.03607769429717436   0.00574745486129344
0.06744938011658519   -0.03607769429717436   0.00574745486129344
0.3793037692569787   -0.050296085627350676   0.012821241045912424
0.3793037692569787   -0.050296085627350676   0.012821241045912424
0.3793037692569787   -0.050296085627350676   0.012821241045912424
0.3793037692569787   -0.050296085627350676   0.012821241045912424
0.21495817654677446   -0.047301282303161545   0.0017785852757046111
0.21495817654677446   -0.047301282303161545   0.0017785852757046111
0.21495817654677446   -0.047301282303161545   0.0017785852757046111
0.21495817654677446   -0.047301282303161545   0.0017785852757046111
0.03982952638708547   -0.0236672342488038   0.01797903275705081
0.03982952638708547   -0.0236672342488038   0.01797903275705081
0.03982952638708547   -0.0236672342488038   0.01797903275705081
0.03982952638708547   -0.0236672342488038   0.01797903275705081
-0.3184125541337998   -0.22102028779444363   0.018951205081613347
-0.3184125541337998   -0.22102028779444363   0.018951205081613347
-0.3184125541337998   -0.22102028779444363   0.018951205081613347
-0.3184125541337998   -0.22102028779444363   0.018951205081613347
-0.2795414151154901   -0.08684296599870324   0.001041865075074375
-0.2795414151154901   -0.08684296599870324   0.001041865075074375
-0.2795414151154901   -0.08684296599870324   0.001041865075074375
-0.2795414151154901   -0.08684296599870324   0.001041865075074375
0.020711211683938593   -0.15888096768600046   0.007545721352818849
0.020711211683938593   -0.15888096768600046   0.007545721352818849
0.020711211683938593   -0.15888096768600046   0.007545721352818849
0.020711211683938593   -0.15888096768600046   0.007545721352818849
-0.13839516397014848   -0.12346345076506034   -0.02592442095098053
-0.13839516397014848   -0.12346345076506034   -0.02592442095098053
-0.13839516397014848   -0.12346345076506034   -0.02592442095098053
-0.13839516397014848   -0.12346345076506034   -0.02592442095098053
0.050164975037287576   -0.0182694557470416   0.014203026180604915
0.050164975037287576   -0.0182694557470416   0.014203026180604915
0.050164975037287576   -0.0182694557470416   0.014203026180604915
0.050164975037287576   -0.0182694557470416   0.014203026180604915
-0.3020819783677151   -0.22054127783653782   0.02203736065178577
-0.3020819783677151   -0.22054127783653782   0.02203736065178577
-0.3020819783677151   -0.22054127783653782   0.02203736065178577
-0.3020819783677151   -0.22054127783653782   0.02203736065178577
-0.264539060690795   -0.0778760444395791   -0.0003371202718345104
-0.264539060690795   -0.0778760444395791   -0.0003371202718345104
-0.264539060690795   -0.0778760444395791   -0.0003371202718345104
-0.264539060690795   -0.0778760444395791   -0.0003371202718345104
0.031130107461438725   -0.1551886229656509   0.010780531901098546
0.031130107461438725   -0.1551886229656509   0.010780531901098546
0.031130107461438725   -0.1551886229656509   0.010780531901098546
0.031130107461438725   -0.1551886229656509   0.010780531901098546
-0.1231621521089922   -0.11905755064849882   -0.009552878373413363
-0.1231621521089922   -0.11905755064849882   -0.009552878373413363
-0.1231621521089922   -0.11905755064849882   -0.009552878373413363
-0.1231621521089922   -0.11905755064849882   -0.009552878373413363
0.05961644781882079   -0.011143997115681196   0.009167607838039195
0.05961644781882079   -0.011143997115681196   0.009167607838039195
0.05961644781882079   -0.011143997115681196   0.009167607838039195
0.05961644781882079   -0.011143997115681196   0.009167607838039195
-0.28682556035958284   -0.2157208296009537   0.026075166545605946
-0.28682556035958284   -0.2157208296009537   0.026075166545605946
-0.28682556035958284   -0.2157208296009537   0.026075166545605946
-0.28682556035958284   -0.2157208296009537   0.026075166545605946
-0.2397718718418353   -0.06756447306734746   -0.0032274529038238573
-0.2397718718418353   -0.06756447306734746   -0.0032274529038238573
-0.2397718718418353   -0.06756447306734746   -0.0032274529038238573
-0.2397718718418353   -0.06756447306734746   -0.0032274529038238573
0.04738250244768784   -0.1452222971611704   0.014557669380801733
0.04738250244768784   -0.1452222971611704   0.014557669380801733
0.04738250244768784   -0.1452222971611704   0.014557669380801733
0.04738250244768784   -0.1452222971611704   0.014557669380801733
-0.10343678735928194   -0.10948139843095038   0.007467138259509606
-0.10343678735928194   -0.10948139843095038   0.007467138259509606
-0.10343678735928194   -0.10948139843095038   0.007467138259509606
-0.10343678735928194   -0.10948139843095038   0.007467138259509606
-0.28501524238675113   -0.04366518066512653   0.0085826566875375
-0.28501524238675113   -0.04366518066512653   0.0085826566875375
-0.28501524238675113   -0.04366518066512653   0.0085826566875375
-0.28501524238675113   -0.04366518066512653   0.0085826566875375
-0.7046825460374125   -0.34290655557390715   -0.01531151231353902
-0.7046825460374125   -0.34290655557390715   -0.01531151231353902
-0.7046825460374125   -0.34290655557390715   -0.01531151231353902
-0.7046825460374125   -0.34290655557390715   -0.01531151231353902
-0.6406875531418207   -0.11298710455306855   -0.019299998260407975
-0.6406875531418207   -0.11298710455306855   -0.019299998260407975
-0.6406875531418207   -0.11298710455306855   -0.019299998260407975
-0.6406875531418207   -0.11298710455306855   -0.019299998260407975
-0.31822268906071266   -0.2853339219207171   0.006126451270975518
-0.31822268906071266   -0.2853339219207171   0.006126451270975518
-0.31822268906071266   -0.2853339219207171   0.006126451270975518
-0.31822268906071266   -0.2853339219207171   0.006126451270975518
-0.4866337269927716   -0.20290135286746447   -0.027319708656818185
-0.4866337269927716   -0.20290135286746447   -0.027319708656818185
-0.4866337269927716   -0.20290135286746447   -0.027319708656818185
-0.4866337269927716   -0.20290135286746447   -0.027319708656818185
-0.2673245759003999   -0.03283157535194864   0.008114670503770818
-0.2673245759003999   -0.03283157535194864   0.008114670503770818
-0.2673245759003999   -0.03283157535194864   0.008114670503770818
-0.2673245759003999   -0.03283157535194864   0.008114670503770818
-0.6898170075124733   -0.363720792332171   -0.01421358233456374
-0.6898170075124733   -0.363720792332171   -0.01421358233456374
-0.6898170075124733   -0.363720792332171   -0.01421358233456374
-0.6898170075124733   -0.363720792332171   -0.01421358233456374
-0.6206145350041365   -0.10227044602363465   -0.019713545867848865
-0.6206145350041365   -0.10227044602363465   -0.019713545867848865
-0.6206145350041365   -0.10227044602363465   -0.019713545867848865
-0.6206145350041365   -0.10227044602363465   -0.019713545867848865
-0.30360775435298454   -0.282830911703665   0.009274278681306071
-0.30360775435298454   -0.282830911703665   0.009274278681306071
-0.30360775435298454   -0.282830911703665   0.009274278681306071
-0.30360775435298454   -0.282830911703665   0.009274278681306071
-0.46541181522853087   -0.1971036726357436   -0.018732204436238804
-0.46541181522853087   -0.1971036726357436   -0.018732204436238804
-0.46541181522853087   -0.1971036726357436   -0.018732204436238804
-0.46541181522853087   -0.1971036726357436   -0.018732204436238804
-0.25320853465702087   -0.024298869740958347   0.002738335198416858
-0.25320853465702087   -0.024298869740958347   0.002738335198416858
-0.25320853465702087   -0.024298869740958347   0.002738335198416858
-0.25320853465702087   -0.024298869740958347   0.002738335198416858
-0.6708272370038859   -0.3606159702901212   -0.0124315316001044
-0.6708272370038859   -0.3606159702901212   -0.0124315316001044
-0.6708272370038859   -0.3606159702901212   -0.0124315316001044
-0.6708272370038859   -0.3606159702901212   -0.0124315316001044
-0.5892078402964689   -0.09081687024167043   -0.022362573076893794
-0.5892078402964689   -0.09081687024167043   -0.022362573076893794
-0.5892078402964689   -0.09081687024167043   -0.022362573076893794
-0.5892078402964689   -0.09081687024167043   -0.022362573076893794
-0.2719733467159906   -0.2533242296137176   0.021524929271771416
-0.2719733467159906   -0.2533242296137176   0.021524929271771416
-0.2719733467159906   -0.2533242296137176   0.021524929271771416
-0.2719733467159906   -0.2533242296137176   0.021524929271771416
-0.44187362781649797   -0.17809148208111159   -0.009886396989721751
-0.44187362781649797   -0.17809148208111159   -0.009886396989721751
-0.44187362781649797   -0.17809148208111159   -0.009886396989721751
-0.44187362781649797   -0.17809148208111159   -0.009886396989721751
-0.6414292394487805   -0.03758385027758328   -0.004367684666702728
-0.6414292394487805   -0.03758385027758328   -0.004367684666702728
-0.6414292394487805   -0.03758385027758328   -0.004367684666702728
-0.6414292394487805   -0.03758385027758328   -0.004367684666702728
-1.1278046813447138   -0.2232470280893898   0.011569540897764852
-1.1278046813447138   -0.2232470280893898   0.011569540897764852
-1.1278046813447138   -0.2232470280893898   0.011569540897764852
-1.1278046813447138   -0.2232470280893898   0.011569540897764852
-1.0840019675384511   -0.10624390696006433   -0.0232996247055286
-1.0840019675384511   -0.10624390696006433   -0.0232996247055286
-1.0840019675384511   -0.10624390696006433   -0.0232996247055286
-1.0840019675384511   -0.10624390696006433   -0.0232996247055286
-0.6285317284188268   -0.116673284602889   0.04516530540438177
-0.6285317284188268   -0.116673284602889   0.04516530540438177
-0.6285317284188268   -0.116673284602889   0.04516530540438177
-0.6285317284188268   -0.116673284602889   0.04516530540438177
-0.8352765171244306   -0.1291464562481967   0.011415382766547
-0.8352765171244306   -0.1291464562481967   0.011415382766547
-0.8352765171244306   -0.1291464562481967   0.011415382766547
-0.8352765171244306   -0.1291464562481967   0.011415382766547
-0.615789074580573   -0.007916954524022635   0.00012224451678646137
-0.615789074580573   -0.007916954524022635   0.00012224451678646137
-0.615789074580573   -0.007916954524022635   0.00012224451678646137
-0.615789074580573   -0.007916954524022635   0.00012224451678646137
-1.100794961015109   -0.21905057667733352   0.005542077628441555
-1.100794961015109   -0.21905057667733352   0.005542077628441555
-1.100794961015109   -0.21905057667733352   0.005542077628441555
-1.100794961015109   -0.21905057667733352   0.005542077628441555
-1.0602410089399488   -0.09740495261459528   -0.029592319225442275
-1.0602410089399488   -0.09740495261459528   -0.029592319225442275
-1.0602410089399488   -0.09740495261459528   -0.029592319225442275
-1.0602410089399488   -0.09740495261459528   -0.029592319225442275
-0.6078824913524994   -0.11103437749763208   0.05271060386433901
-0.6078824913524994   -0.11103437749763208   0.05271060386433901
-0.6078824913524994   -0.11103437749763208   0.05271060386433901
-0.6078824913524994   -0.11103437749763208   0.05271060386433901
-0.823043376439302   -0.10649525831194231   0.011101639141691787
-0.823043376439302   -0.10649525831194231   0.011101639141691787
-0.823043376439302   -0.10649525831194231   0.011101639141691787
-0.823043376439302   -0.10649525831194231   0.011101639141691787
-0.5974074623483747   -9.125431144080265e-05   -0.005857374301228638
-0.5974074623483747   -9.125431144080265e-05   -0.005857374301228638
-0.5974074623483747   -9.125431144080265e-05   -0.005857374301228638
-0.5974074623483747   -9.125431144080265e-05   -0.005857374301228638
-1.0720952837935338   -0.20972732165025082   0.02345867554227954
-1.0720952837935338   -0.20972732165025082   0.02345867554227954
-1.0720952837935338   -0.20972732165025082   0.02345867554227954
-1.0720952837935338   -0.20972732165025082   0.02345867554227954
-1.0108621251005443   -0.079292623058772   -0.03324455863211206
-1.0108621251005443   -0.079292623058772   -0.03324455863211206
-1.0108621251005443   -0.079292623058772   -0.03324455863211206
-1.0108621251005443   -0.079292623058772   -0.03324455863211206
-0.5756751935200918   -0.1035319004927944   0.058015691056119784
-0.5756751935200918   -0.1035319004927944   0.058015691056119784
-0.5756751935200918   -0.1035319004927944   0.058015691056119784
-0.5756751935200918   -0.1035319004927944   0.058015691056119784
-0.7747088838784649   -0.08151031870907192   0.023282883045402995
-0.7747088838784649   -0.08151031870907192   0.023282883045402995
-0.7747088838784649   -0.08151031870907192   0.023282883045402995
-0.7747088838784649   -0.08151031870907192   0.023282883045402995
0.8091397668883386   0.027323617550248452   0.011214342600245945
0.8091397668883386   0.027323617550248452   0.011214342600245945
0.8091397668883386   0.027323617550248452   0.011214342600245945
0.8091397668883386   0.027323617550248452   0.011214342600245945
0.4119239511511378   -0.02220155385301563   0.007922931584733416
0.4119239511511378   -0.02220155385301563   0.007922931584733416
0.4119239511511378   -0.02220155385301563   0.007922931584733416
0.4119239511511378   -0.02220155385301563   0.007922931584733416
0.3962130966008508   -0.057725154607585066   0.016015159919810576
0.3962130966008508   -0.057725154607585066   0.016015159919810576
0.3962130966008508   -0.057725154607585066   0.016015159919810576
0.3962130966008508   -0.057725154607585066   0.016015159919810576
0.8033154319439726   0.045203720197157155   0.005613825437499519
0.8033154319439726   0.045203720197157155   0.005613825437499519
0.8033154319439726   0.045203720197157155   0.005613825437499519
0.8033154319439726   0.045203720197157155   0.005613825437499519
0.5729039121346726   -0.007924686535270009   -0.021227284435815896
0.5729039121346726   -0.007924686535270009   -0.021227284435815896
0.5729039121346726   -0.007924686535270009   -0.021227284435815896
0.5729039121346726   -0.007924686535270009   -0.021227284435815896
0.7991315651819674   0.021362624574668476   0.00853558724996182
0.7991315651819674   0.021362624574668476   0.00853558724996182
0.7991315651819674   0.021362624574668476   0.00853558724996182
0.7991315651819674   0.021362624574668476   0.00853558724996182
0.3991330306945885   -0.035147991653363964   0.008037667434277924
0.3991330306945885   -0.035147991653363964   0.008037667434277924
0.3991330306945885   -0.035147991653363964   0.008037667434277924
0.3991330306945885   -0.035147991653363964   0.008037667434277924
0.38613104575021134   -0.058981380656891055   0.013206751324528386
0.38613104575021134   -0.058981380656891055   0.013206751324528386
0.38613104575021134   -0.058981380656891055   0.013206751324528386
0.38613104575021134   -0.058981380656891055   0.013206751324528386
0.7941529624027897   0.043336769419925175   0.009929192110935854
0.7941529624027897   0.043336769419925175   0.009929192110935854
0.7941529624027897   0.043336769419925175   0.009929192110935854
0.7941529624027897   0.043336769419925175   0.009929192110935854
0.57148269794955   -0.010916625126318386   -0.024384993793931713
0.57148269794955   -0.010916625126318386   -0.024384993793931713
0.57148269794955   -0.010916625126318386   -0.024384993793931713
0.57148269794955   -0.010916625126318386   -0.024384993793931713
0.7878509586469697   0.019227033506583197   0.0025289092451718995
0.7878509586469697   0.019227033506583197   0.0025289092451718995
0.7878509586469697   0.019227033506583197   0.0025289092451718995
0.7878509586469697   0.019227033506583197   0.0025289092451718995
0.39013589282729105   -0.037168801422295436   0.011418407475331453
0.39013589282729105   -0.037168801422295436   0.011418407475331453
0.39013589282729105   -0.037168801422295436   0.011418407475331453
0.39013589282729105   -0.037168801422295436   0.011418407475331453
0.37553142397066913   -0.05358546609320179   0.011408895895480477
0.37553142397066913   -0.05358546609320179   0.011408895895480477
0.37553142397066913   -0.05358546609320179   0.011408895895480477
0.37553142397066913   -0.05358546609320179   0.011408895895480477
0.7800761554982443   0.04408259837641723   0.014450242925199974
0.7800761554982443   0.04408259837641723   0.014450242925199974
0.7800761554982443   0.04408259837641723   0.014450242925199974
0.7800761554982443   0.04408259837641723   0.014450242925199974
0.5502844088771214   -0.010899983010020695   -0.03275620520688961
0.5502844088771214   -0.010899983010020695   -0.03275620520688961
0.5502844088771214   -0.010899983010020695   -0.03275620520688961
0.5502844088771214   -0.010899983010020695   -0.03275620520688961
0.40893793226923714   -0.0494282288773249   0.02021951219953988
0.40893793226923714   -0.0494282288773249   0.02021951219953988
0.40893793226923714   -0.0494282288773249   0.02021951219953988
0.40893793226923714   -0.0494282288773249   0.02021951219953988
0.07650001791375713   -0.04864086367013576   0.003968434310999261
0.07650001791375713   -0.04864086367013576   0.003968434310999261
0.07650001791375713   -0.04864086367013576   0.003968434310999261
0.07650001791375713   -0.04864086367013576   0.003968434310999261
0.049374335800796684   -0.12039154522995603   0.020976230667399356
0.049374335800796684   -0.12039154522995603   0.020976230667399356
0.049374335800796684   -0.12039154522995603   0.020976230667399356
0.049374335800796684   -0.12039154522995603   0.020976230667399356
0.41100067972663246   0.01670777739224845   0.015520143548885174
0.41100067972663246   0.01670777739224845   0.015520143548885174
0.41100067972663246   0.01670777739224845   0.015520143548885174
0.41100067972663246   0.01670777739224845   0.015520143548885174
0.23280510798526458   -0.05064687850110117   -0.0009535183104933086
0.23280510798526458   -0.05064687850110117   -0.0009535183104933086
0.23280510798526458   -0.05064687850110117   -0.0009535183104933086
0.23280510798526458   -0.05064687850110117   -0.0009535183104933086
0.39764876164885854   -0.05153186673614196   0.017000197288407834
0.39764876164885854   -0.05153186673614196   0.017000197288407834
0.39764876164885854   -0.05153186673614196   0.017000197288407834
0.39764876164885854   -0.05153186673614196   0.017000197288407834
0.05934722404146228   -0.0555309309386738   0.005980057579444108
0.05934722404146228   -0.0555309309386738   0.005980057579444108
0.05934722404146228   -0.0555309309386738   0.005980057579444108
0.05934722404146228   -0.0555309309386738   0.005980057579444108
0.03717571799331172   -0.12132894924552941   0.018761588751497443
0.03717571799331172   -0.12132894924552941   0.018761588751497443
0.03717571799331172   -0.12132894924552941   0.018761588751497443
0.03717571799331172   -0.12132894924552941   0.018761588751497443
0.40170881118740825   0.013776479991755977   0.018337717861865856
0.40170881118740825   0.013776479991755977   0.018337717861865856
0.40170881118740825   0.013776479991755977   0.018337717861865856
0.40170881118740825   0.013776479991755977   0.018337717861865856
0.21619177050058222   -0.053932636578630566   -0.011015591129730214
0.21619177050058222   -0.053932636578630566   -0.011015591129730214
0.21619177050058222   -0.053932636578630566   -0.011015591129730214
0.21619177050058222   -0.053932636578630566   -0.011015591129730214
0.38767977227562056   -0.052155546233692646   0.014124549528372408
0.38767977227562056   -0.052155546233692646   0.014124549528372408
0.38767977227562056   -0.052155546233692646   0.014124549528372408
0.38767977227562056   -0.052155546233692646   0.014124549528372408
0.04752672058569388   -0.05907495933948693   0.008262611807365684
0.04752672058569388   -0.05907495933948693   0.008262611807365684
0.04752672058569388   -0.05907495933948693   0.008262611807365684
0.04752672058569388   -0.05907495933948693   0.008262611807365684
0.023538944082999676   -0.12109022442011391   0.014615372256075211
0.023538944082999676   -0.12109022442011391   0.014615372256075211
0.023538944082999676   -0.12109022442011391   0.014615372256075211
0.023538944082999676   -0.12109022442011391   0.014615372256075211
0.3911629441005364   0.014102877030980523   0.021878153420635718
0.3911629441005364   0.014102877030980523   0.021878153420635718
0.3911629441005364   0.014102877030980523   0.021878153420635718
0.3911629441005364   0.014102877030980523   0.021878153420635718
0.2061366446073464   -0.05336946505767098   -0.01953444737911708
0.2061366446073464   -0.05336946505767098   -0.01953444737911708
0.2061366446073464   -0.05336946505767098   -0.01953444737911708
0.2061366446073464   -0.05336946505767098   -0.01953444737911708
0.059941574919878705   -0.14552719322144708   0.01806254889291755
0.059941574919878705   -0.14552719322144708   0.01806254889291755
0.059941574919878705   -0.14552719322144708   0.01806254889291755
0.059941574919878705   -0.14552719322144708   0.01806254889291755
-0.24616986546440667   -0.07505261462906032   -3.7309543308836415e-05
-0.24616986546440667   -0.07505261462906032   -3.7309543308836415e-05
-0.24616986546440667   -0.07505261462906032   -3.7309543308836415e-05
-0.24616986546440667   -0.07505261462906032   -3.7309543308836415e-05
-0.29524084598304123   -0.21877354441232233   0.02403489538818933
-0.29524084598304123   -0.21877354441232233   0.02403489538818933
-0.29524084598304123   -0.21877354441232233   0.02403489538818933
-0.29524084598304123   -0.21877354441232233   0.02403489538818933
0.0689488314353591   -0.011441005115910358   0.009898168726164735
0.0689488314353591   -0.011441005115910358   0.009898168726164735
0.0689488314353591   -0.011441005115910358   0.009898168726164735
0.0689488314353591   -0.011441005115910358   0.009898168726164735
-0.10180791925607846   -0.11110095607266617   0.0042446473069033715
-0.10180791925607846   -0.11110095607266617   0.0042446473069033715
-0.10180791925607846   -0.11110095607266617   0.0042446473069033715
-0.10180791925607846   -0.11110095607266617   0.0042446473069033715
0.0411359654338392   -0.15368882873837744   0.013081662341033327
0.0411359654338392   -0.15368882873837744   0.013081662341033327
0.0411359654338392   -0.15368882873837744   0.013081662341033327
0.0411359654338392   -0.15368882873837744   0.013081662341033327
-0.2721842990911663   -0.08128203989950057   0.0018261253347390686
-0.2721842990911663   -0.08128203989950057   0.0018261253347390686
-0.2721842990911663   -0.08128203989950057   0.0018261253347390686
-0.2721842990911663   -0.08128203989950057   0.0018261253347390686
-0.31218348844510024   -0.22206498509005743   0.019712317185604816
-0.31218348844510024   -0.22206498509005743   0.019712317185604816
-0.31218348844510024   -0.22206498509005743   0.019712317185604816
-0.31218348844510024   -0.22206498509005743   0.019712317185604816
0.057507654011814686   -0.014688341802305403   0.013780661400788268
0.057507654011814686   -0.014688341802305403   0.013780661400788268
0.057507654011814686   -0.014688341802305403   0.013780661400788268
0.057507654011814686   -0.014688341802305403   0.013780661400788268
-0.12300501226259371   -0.11772796506373032   -0.009881547489973927
-0.12300501226259371   -0.11772796506373032   -0.009881547489973927
-0.12300501226259371   -0.11772796506373032   -0.009881547489973927
-0.12300501226259371   -0.11772796506373032   -0.009881547489973927
0.028142121626060432   -0.156241162482498   0.008505820152210547
0.028142121626060432   -0.156241162482498   0.008505820152210547
0.028142121626060432   -0.156241162482498   0.008505820152210547
0.028142121626060432   -0.156241162482498   0.008505820152210547
-0.2885167913638259   -0.08621099971433976   0.002191817216257089
-0.2885167913638259   -0.08621099971433976   0.002191817216257089
-0.2885167913638259   -0.08621099971433976   0.002191817216257089
-0.2885167913638259   -0.08621099971433976   0.002191817216257089
-0.3306021052559206   -0.22045619570911104   0.01637278434470693
-0.3306021052559206   -0.22045619570911104   0.01637278434470693
-0.3306021052559206   -0.22045619570911104   0.01637278434470693
-0.3306021052559206   -0.22045619570911104   0.01637278434470693
0.044791238127929095   -0.01645324093591812   0.016239858996526493
0.044791238127929095   -0.01645324093591812   0.016239858996526493
0.044791238127929095   -0.01645324093591812   0.016239858996526493
0.044791238127929095   -0.01645324093591812   0.016239858996526493
-0.1402464212541301   -0.12019350579721252   -0.024080840983044693
-0.1402464212541301   -0.12019350579721252   -0.024080840983044693
-0.1402464212541301   -0.12019350579721252   -0.024080840983044693
-0.1402464212541301   -0.12019350579721252   -0.024080840983044693
-0.2768548591544969   -0.24998474521598307   0.02146985259316566
-0.2768548591544969   -0.24998474521598307   0.02146985259316566
-0.2768548591544969   -0.24998474521598307   0.02146985259316566
-0.2768548591544969   -0.24998474521598307   0.02146985259316566
-0.6115268709025494   -0.09330919941340646   -0.01394551569802776
-0.6115268709025494   -0.09330919941340646   -0.01394551569802776
-0.6115268709025494   -0.09330919941340646   -0.01394551569802776
-0.6115268709025494   -0.09330919941340646   -0.01394551569802776
-0.697404037123345   -0.36609414757356395   -0.01849332893065686
-0.697404037123345   -0.36609414757356395   -0.01849332893065686
-0.697404037123345   -0.36609414757356395   -0.01849332893065686
-0.697404037123345   -0.36609414757356395   -0.01849332893065686
-0.25853103751283996   -0.019742154704955064   0.00855254803182557
-0.25853103751283996   -0.019742154704955064   0.00855254803182557
-0.25853103751283996   -0.019742154704955064   0.00855254803182557
-0.25853103751283996   -0.019742154704955064   0.00855254803182557
-0.45658512570124493   -0.17495593641777502   -0.01447638099450534
-0.45658512570124493   -0.17495593641777502   -0.01447638099450534
-0.45658512570124493   -0.17495593641777502   -0.01447638099450534
-0.45658512570124493   -0.17495593641777502   -0.01447638099450534
-0.3115347575508294   -0.2837193893712869   0.007511182508212894
-0.3115347575508294   -0.2837193893712869   0.007511182508212894
-0.3115347575508294   -0.2837193893712869   0.007511182508212894
-0.3115347575508294   -0.2837193893712869   0.007511182508212894
-0.6431530271265926   -0.10086962294846957   -0.012462803571994176
-0.6431530271265926   -0.10086962294846957   -0.012462803571994176
-0.6431530271265926   -0.10086962294846957   -0.012462803571994176
-0.6431530271265926   -0.10086962294846957   -0.012462803571994176
-0.7176112708916582   -0.3717626313088001   -0.02138080280572654
-0.7176112708916582   -0.3717626313088001   -0.02138080280572654
-0.7176112708916582   -0.3717626313088001   -0.02138080280572654
-0.7176112708916582   -0.3717626313088001   -0.02138080280572654
-0.27421010309267907   -0.02513592804723774   0.012650186904889081
-0.27421010309267907   -0.02513592804723774   0.012650186904889081
-0.27421010309267907   -0.02513592804723774   0.012650186904889081
-0.27421010309267907   -0.02513592804723774   0.012650186904889081
-0.4813414640128841   -0.1940999431232697   -0.02101132807215984
-0.4813414640128841   -0.1940999431232697   -0.02101132807215984
-0.4813414640128841   -0.1940999431232697   -0.02101132807215984
-0.4813414640128841   -0.1940999431232697   -0.02101132807215984
-0.3289532198579037   -0.28916260461217047   0.002961279643697849
-0.3289532198579037   -0.28916260461217047   0.002961279643697849
-0.3289532198579037   -0.28916260461217047   0.002961279643697849
-0.3289532198579037   -0.28916260461217047   0.002961279643697849
-0.6631361226154461   -0.1080039232328861   -0.012763769500585838
-0.6631361226154461   -0.1080039232328861   -0.012763769500585838
-0.6631361226154461   -0.1080039232328861   -0.012763769500585838
-0.6631361226154461   -0.1080039232328861   -0.012763769500585838
-0.7347791662431401   -0.3550105458869666   -0.024100832567324322
-0.7347791662431401   -0.3550105458869666   -0.024100832567324322
-0.7347791662431401   -0.3550105458869666   -0.024100832567324322
-0.7347791662431401   -0.3550105458869666   -0.024100832567324322
-0.2939849011159353   -0.03278148822765303   0.011784097563172564
-0.2939849011159353   -0.03278148822765303   0.011784097563172564
-0.2939849011159353   -0.03278148822765303   0.011784097563172564
-0.2939849011159353   -0.03278148822765303   0.011784097563172564
-0.5042770831688109   -0.2005314949298856   -0.027367105544890434
-0.5042770831688109   -0.2005314949298856   -0.027367105544890434
-0.5042770831688109   -0.2005314949298856   -0.027367105544890434
-0.5042770831688109   -0.2005314949298856   -0.027367105544890434
-0.6016937231978661   -0.10996378329764891   0.051874806709621524
-0.6016937231978661   -0.10996378329764891   0.051874806709621524
-0.6016937231978661   -0.10996378329764891   0.051874806709621524
-0.6016937231978661   -0.10996378329764891   0.051874806709621524
-1.0538003292794098   -0.07818787371610125   -0.018092353319596972
-1.0538003292794098   -0.07818787371610125   -0.018092353319596972
-1.0538003292794098   -0.07818787371610125   -0.018092353319596972
-1.0538003292794098   -0.07818787371610125   -0.018092353319596972
-1.1174041092203288   -0.22064688505829355   0.014169683928861088
-1.1174041092203288   -0.22064688505829355   0.014169683928861088
-1.1174041092203288   -0.22064688505829355   0.014169683928861088
-1.1174041092203288   -0.22064688505829355   0.014169683928861088
-0.6175084094723359   0.009475537733437345   0.00541512401738331
-0.6175084094723359   0.009475537733437345   0.00541512401738331
-0.6175084094723359   0.009475537733437345   0.00541512401738331
-0.6175084094723359   0.009475537733437345   0.00541512401738331
-0.8072481788413463   -0.07746392618775312   0.016087745094499426
-0.8072481788413463   -0.07746392618775312   0.016087745094499426
-0.8072481788413463   -0.07746392618775312   0.016087745094499426
-0.8072481788413463   -0.07746392618775312   0.016087745094499426
-0.6348478304598979   -0.11777571227448178   0.045969269087488995
-0.6348478304598979   -0.11777571227448178   0.045969269087488995
-0.6348478304598979   -0.11777571227448178   0.045969269087488995
-0.6348478304598979   -0.11777571227448178   0.045969269087488995
-1.0973921766550931   -0.09072312347269965   -0.0156944148305444
-1.0973921766550931   -0.09072312347269965   -0.0156944148305444
-1.0973921766550931   -0.09072312347269965   -0.0156944148305444
-1.0973921766550931   -0.09072312347269965   -0.0156944148305444
-1.1440199195629175   -0.22985681631428562   -0.005264162008510542
-1.1440199195629175   -0.22985681631428562   -0.005264162008510542
-1.1440199195629175   -0.22985681631428562   -0.005264162008510542
-1.1440199195629175   -0.22985681631428562   -0.005264162008510542
-0.6363639772034615   0.0033534194367700887   0.009739614889679976
-0.6363639772034615   0.0033534194367700887   0.009739614889679976
-0.6363639772034615   0.0033534194367700887   0.009739614889679976
-0.6363639772034615   0.0033534194367700887   0.009739614889679976
-0.8546653781465846   -0.10206922441105244   0.006493766428607075
-0.8546653781465846   -0.10206922441105244   0.006493766428607075
-0.8546653781465846   -0.10206922441105244   0.006493766428607075
-0.8546653781465846   -0.10206922441105244   0.006493766428607075
-0.6561314517823083   -0.12364596505834854   0.03790162649056547
-0.6561314517823083   -0.12364596505834854   0.03790162649056547
-0.6561314517823083   -0.12364596505834854   0.03790162649056547
-0.6561314517823083   -0.12364596505834854   0.03790162649056547
-1.1187656993080726   -0.09737068614316718   -0.011479190905395231
-1.1187656993080726   -0.09737068614316718   -0.011479190905395231
-1.1187656993080726   -0.09737068614316718   -0.011479190905395231
-1.1187656993080726   -0.09737068614316718   -0.011479190905395231
-1.1668026871488506   -0.23340417248908002   -0.00021817529654966084
-1.1668026871488506   -0.23340417248908002   -0.00021817529654966084
-1.1668026871488506   -0.23340417248908002   -0.00021817529654966084
-1.1668026871488506   -0.23340417248908002   -0.00021817529654966084
-0.662917646275758   -0.02390374085942487   0.004099962242044168
-0.662917646275758   -0.02390374085942487   0.004099962242044168
-0.662917646275758   -0.02390374085942487   0.004099962242044168
-0.662917646275758   -0.02390374085942487   0.004099962242044168
-0.8644652395788234   -0.12309563063931594   0.010204655113307029
-0.8644652395788234   -0.12309563063931594   0.010204655113307029
-0.8644652395788234   -0.12309563063931594   0.010204655113307029
-0.8644652395788234   -0.12309563063931594   0.010204655113307029
0.7120108095227973   0.03322256550743355   -0.015043329984680269
0.7120108095227973   0.03322256550743355   -0.015043329984680269
0.7120108095227973   0.03322256550743355   -0.015043329984680269
0.7120108095227973   0.03322256550743355   -0.015043329984680269
0.3574291723405185   -0.007796735717181397   0.007228598135242913
0.3574291723405185   -0.007796735717181397   0.007228598135242913
0.3574291723405185   -0.007796735717181397   0.007228598135242913
0.3574291723405185   -0.007796735717181397   0.007228598135242913
0.33517675062480806   -0.052233354900174694   -0.01343286872996454
0.33517675062480806   -0.052233354900174694   -0.01343286872996454
0.33517675062480806   -0.052233354900174694   -0.01343286872996454
0.33517675062480806   -0.052233354900174694   -0.01343286872996454
0.7039013683134779   0.05115056322747988   0.008457273552809404
0.7039013683134779   0.05115056322747988   0.008457273552809404
0.7039013683134779   0.05115056322747988   0.008457273552809404
0.7039013683134779   0.05115056322747988   0.008457273552809404
0.4995024938672915   0.0012371312479974583   -0.019279591924106963
0.4995024938672915   0.0012371312479974583   -0.019279591924106963
0.4995024938672915   0.0012371312479974583   -0.019279591924106963
0.4995024938672915   0.0012371312479974583   -0.019279591924106963
0.6927134217491457   0.018911811552010632   -0.015243707593375615
0.6927134217491457   0.018911811552010632   -0.015243707593375615
0.6927134217491457   0.018911811552010632   -0.015243707593375615
0.6927134217491457   0.018911811552010632   -0.015243707593375615
0.3457574176392724   -0.02060188277457256   0.007838994216752597
0.3457574176392724   -0.02060188277457256   0.007838994216752597
0.3457574176392724   -0.02060188277457256   0.007838994216752597
0.3457574176392724   -0.02060188277457256   0.007838994216752597
0.3231746355005922   -0.05507251774736584   -0.011138916823321708
0.3231746355005922   -0.05507251774736584   -0.011138916823321708
0.3231746355005922   -0.05507251774736584   -0.011138916823321708
0.3231746355005922   -0.05507251774736584   -0.011138916823321708
0.6872701760946842   0.047094836221651754   0.012472093460307629
0.6872701760946842   0.047094836221651754   0.012472093460307629
0.6872701760946842   0.047094836221651754   0.012472093460307629
0.6872701760946842   0.047094836221651754   0.012472093460307629
0.49317469846210776   -0.004842150213141175   -0.02285411048713193
0.49317469846210776   -0.004842150213141175   -0.02285411048713193
0.49317469846210776   -0.004842150213141175   -0.02285411048713193
0.49317469846210776   -0.004842150213141175   -0.02285411048713193
0.6759905531390603   0.015293510104800068   -0.01212469520096026
0.6759905531390603   0.015293510104800068   -0.01212469520096026
0.6759905531390603   0.015293510104800068   -0.01212469520096026
0.6759905531390603   0.015293510104800068   -0.01212469520096026
0.33359516916500576   -0.024130280921724492   0.010021514673104755
0.33359516916500576   -0.024130280921724492   0.010021514673104755
0.33359516916500576   -0.024130280921724492   0.010021514673104755
0.33359516916500576   -0.024130280921724492   0.010021514673104755
0.31158244197436596   -0.054039476453711904   -0.007666417701536657
0.31158244197436596   -0.054039476453711904   -0.007666417701536657
0.31158244197436596   -0.054039476453711904   -0.007666417701536657
0.31158244197436596   -0.054039476453711904   -0.007666417701536657
0.6667075455473357   0.04452843589518159   0.01633139575398301
0.6667075455473357   0.04452843589518159   0.01633139575398301
0.6667075455473357   0.04452843589518159   0.01633139575398301
0.6667075455473357   0.04452843589518159   0.01633139575398301
0.46916406871102717   -0.008404876834371106   -0.029915142485772844
0.46916406871102717   -0.008404876834371106   -0.029915142485772844
0.46916406871102717   -0.008404876834371106   -0.029915142485772844
0.46916406871102717   -0.008404876834371106   -0.029915142485772844
0.35983752706601124   0.007939732089345092   0.00353390395618006
0.35983752706601124   0.007939732089345092   0.00353390395618006
0.35983752706601124   0.007939732089345092   0.00353390395618006
0.35983752706601124   0.007939732089345092   0.00353390395618006
0.032867299871451705   -0.021885042127832405   -0.0010111278648519996
0.032867299871451705   -0.021885042127832405   -0.0010111278648519996
0.032867299871451705   -0.021885042127832405   -0.0010111278648519996
0.032867299871451705   -0.021885042127832405   -0.0010111278648519996
0.01189364222101983   -0.06881520045557846   -0.012987708184636739
0.01189364222101983   -0.06881520045557846   -0.012987708184636739
0.01189364222101983   -0.06881520045557846   -0.012987708184636739
0.01189364222101983   -0.06881520045557846   -0.012987708184636739
0.36017627419320536   0.041661690468856816   0.017669703742987927
0.36017627419320536   0.041661690468856816   0.017669703742987927
0.36017627419320536   0.041661690468856816   0.017669703742987927
0.36017627419320536   0.041661690468856816   0.017669703742987927
0.1876884973189986   -0.009396642514508037   -0.007305368833361928
0.1876884973189986   -0.009396642514508037   -0.007305368833361928
0.1876884973189986   -0.009396642514508037   -0.007305368833361928
0.1876884973189986   -0.009396642514508037   -0.007305368833361928
0.34996784826847854   0.0025458627570691394   0.005743401831142553
0.34996784826847854   0.0025458627570691394   0.005743401831142553
0.34996784826847854   0.0025458627570691394   0.005743401831142553
0.34996784826847854   0.0025458627570691394   0.005743401831142553
0.022501331520594334   -0.02930010936894293   0.0005356472266002422
0.022501331520594334   -0.02930010936894293   0.0005356472266002422
0.022501331520594334   -0.02930010936894293   0.0005356472266002422
0.022501331520594334   -0.02930010936894293   0.0005356472266002422
0.00032009261980441364   -0.07199233728913385   -0.009117649974979478
0.00032009261980441364   -0.07199233728913385   -0.009117649974979478
0.00032009261980441364   -0.07199233728913385   -0.009117649974979478
0.00032009261980441364   -0.07199233728913385   -0.009117649974979478
0.3474774722130801   0.035832806087769314   0.019469942903982507
0.3474774722130801   0.035832806087769314   0.019469942903982507
0.3474774722130801   0.035832806087769314   0.019469942903982507
0.3474774722130801   0.035832806087769314   0.019469942903982507
0.17430990056759574   -0.014788566250797844   -0.010340798856174307
0.17430990056759574   -0.014788566250797844   -0.010340798856174307
0.17430990056759574   -0.014788566250797844   -0.010340798856174307
0.17430990056759574   -0.014788566250797844   -0.010340798856174307
0.3378499591764307   -0.0010248310175926811   0.008190014826100125
0.3378499591764307   -0.0010248310175926811   0.008190014826100125
0.3378499591764307   -0.0010248310175926811   0.008190014826100125
0.3378499591764307   -0.0010248310175926811   0.008190014826100125
0.009899901871728501   -0.03518240396849674   0.0019714629640038457
0.009899901871728501   -0.03518240396849674   0.0019714629640038457
0.009899901871728501   -0.03518240396849674   0.0019714629640038457
0.009899901871728501   -0.03518240396849674   0.0019714629640038457
-0.012085452259906662   -0.07217854073334025   -0.006280539040525087
-0.012085452259906662   -0.07217854073334025   -0.006280539040525087
-0.012085452259906662   -0.07217854073334025   -0.006280539040525087
-0.012085452259906662   -0.07217854073334025   -0.006280539040525087
0.3346626116494372   0.03219491238814353   0.021500041831964835
0.3346626116494372   0.03219491238814353   0.021500041831964835
0.3346626116494372   0.03219491238814353   0.021500041831964835
0.3346626116494372   0.03219491238814353   0.021500041831964835
0.16395048811599286   -0.016843545835730903   -0.012909544075986094
0.16395048811599286   -0.016843545835730903   -0.012909544075986094
0.16395048811599286   -0.016843545835730903   -0.012909544075986094
0.16395048811599286   -0.016843545835730903   -0.012909544075986094
0.033992099809640554   -0.018722661438286072   0.001450491136545884
0.033992099809640554   -0.018722661438286072   0.001450491136545884
0.033992099809640554   -0.018722661438286072   0.001450491136545884
0.033992099809640554   -0.018722661438286072   0.001450491136545884
-0.2810610822628141   -0.03236599154168647   -0.008809813399535692
-0.2810610822628141   -0.03236599154168647   -0.008809813399535692
-0.2810610822628141   -0.03236599154168647   -0.008809813399535692
-0.2810610822628141   -0.03236599154168647   -0.008809813399535692
-0.3043802850175826   -0.09106274610141461   -0.014881419748414865
-0.3043802850175826   -0.09106274610141461   -0.014881419748414865
-0.3043802850175826   -0.09106274610141461   -0.014881419748414865
-0.3043802850175826   -0.09106274610141461   -0.014881419748414865
0.03643532704482691   0.03068835790285888   0.010217157575961297
0.03643532704482691   0.03068835790285888   0.010217157575961297
0.03643532704482691   0.03068835790285888   0.010217157575961297
0.03643532704482691   0.03068835790285888   0.010217157575961297
-0.12911133784102863   -0.026537771263209237   -0.007209540274796332
-0.12911133784102863   -0.026537771263209237   -0.007209540274796332
-0.12911133784102863   -0.026537771263209237   -0.007209540274796332
-0.12911133784102863   -0.026537771263209237   -0.007209540274796332
0.025284247113035806   -0.02093627713469074   0.006086392954555422
0.025284247113035806   -0.02093627713469074   0.006086392954555422
0.025284247113035806   -0.02093627713469074   0.006086392954555422
0.025284247113035806   -0.02093627713469074   0.006086392954555422
-0.2923647809007877   -0.03857368687885613   -0.007292958386999162
-0.2923647809007877   -0.03857368687885613   -0.007292958386999162
-0.2923647809007877   -0.03857368687885613   -0.007292958386999162
-0.2923647809007877   -0.03857368687885613   -0.007292958386999162
-0.3179383562548704   -0.09452847058272315   -0.009973972234646057
-0.3179383562548704   -0.09452847058272315   -0.009973972234646057
-0.3179383562548704   -0.09452847058272315   -0.009973972234646057
-0.3179383562548704   -0.09452847058272315   -0.009973972234646057
0.0237404633001197   0.024456975567641173   0.011534890569821942
0.0237404633001197   0.024456975567641173   0.011534890569821942
0.0237404633001197   0.024456975567641173   0.011534890569821942
0.0237404633001197   0.024456975567641173   0.011534890569821942
-0.14034225015082086   -0.030211835752613492   -0.008634572101631975
-0.14034225015082086   -0.030211835752613492   -0.008634572101631975
-0.14034225015082086   -0.030211835752613492   -0.008634572101631975
-0.14034225015082086   -0.030211835752613492   -0.008634572101631975
0.013276281934390727   -0.024630463863486836   0.008301423172305073
0.013276281934390727   -0.024630463863486836   0.008301423172305073
0.013276281934390727   -0.024630463863486836   0.008301423172305073
0.013276281934390727   -0.024630463863486836   0.008301423172305073
-0.3072849157769018   -0.04525177203936068   -0.005983468388165768
-0.3072849157769018   -0.04525177203936068   -0.005983468388165768
-0.3072849157769018   -0.04525177203936068   -0.005983468388165768
-0.3072849157769018   -0.04525177203936068   -0.005983468388165768
-0.33296608301034086   -0.09702483874678439   -0.008860808919534838
-0.33296608301034086   -0.09702483874678439   -0.008860808919534838
-0.33296608301034086   -0.09702483874678439   -0.008860808919534838
-0.33296608301034086   -0.09702483874678439   -0.008860808919534838
0.010006806639236386   0.019144075008870935   0.01285813971297896
0.010006806639236386   0.019144075008870935   0.01285813971297896
0.010006806639236386   0.019144075008870935   0.01285813971297896
0.010006806639236386   0.019144075008870935   0.01285813971297896
-0.15491475742661187   -0.03460869166526067   -0.012087778337285303
-0.15491475742661187   -0.03460869166526067   -0.012087778337285303
-0.15491475742661187   -0.03460869166526067   -0.012087778337285303
-0.15491475742661187   -0.03460869166526067   -0.012087778337285303
-0.2764753390878281   -0.02263267310343011   0.004385584037132732
-0.2764753390878281   -0.02263267310343011   0.004385584037132732
-0.2764753390878281   -0.02263267310343011   0.004385584037132732
-0.2764753390878281   -0.02263267310343011   0.004385584037132732
-0.5880330018933112   -0.03791100015412714   -0.015405229256242017
-0.5880330018933112   -0.03791100015412714   -0.015405229256242017
-0.5880330018933112   -0.03791100015412714   -0.015405229256242017
-0.5880330018933112   -0.03791100015412714   -0.015405229256242017
-0.6144899622961394   -0.095645529257076   -0.015005399945479676
-0.6144899622961394   -0.095645529257076   -0.015005399945479676
-0.6144899622961394   -0.095645529257076   -0.015005399945479676
-0.6144899622961394   -0.095645529257076   -0.015005399945479676
-0.2778702364372856   0.023587102481454375   0.003018974570198181
-0.2778702364372856   0.023587102481454375   0.003018974570198181
-0.2778702364372856   0.023587102481454375   0.003018974570198181
-0.2778702364372856   0.023587102481454375   0.003018974570198181
-0.43562583779557695   -0.03162098898382079   -0.005973254720821566
-0.43562583779557695   -0.03162098898382079   -0.005973254720821566
-0.43562583779557695   -0.03162098898382079   -0.005973254720821566
-0.43562583779557695   -0.03162098898382079   -0.005973254720821566
-0.28610913085176115   -0.02490496831936901   0.010316573298646412
-0.28610913085176115   -0.02490496831936901   0.010316573298646412
-0.28610913085176115   -0.02490496831936901   0.010316573298646412
-0.28610913085176115   -0.02490496831936901   0.010316573298646412
-0.6045757863549422   -0.04547817692952913   -0.015601872567047197
-0.6045757863549422   -0.04547817692952913   -0.015601872567047197
-0.6045757863549422   -0.04547817692952913   -0.015601872567047197
-0.6045757863549422   -0.04547817692952913   -0.015601872567047197
-0.6332081074925889   -0.10158910970760784   -0.010617716997020901
-0.6332081074925889   -0.10158910970760784   -0.010617716997020901
-0.6332081074925889   -0.10158910970760784   -0.010617716997020901
-0.6332081074925889   -0.10158910970760784   -0.010617716997020901
-0.2929555341892552   0.01675669931635658   0.0036549681943500688
-0.2929555341892552   0.01675669931635658   0.0036549681943500688
-0.2929555341892552   0.01675669931635658   0.0036549681943500688
-0.2929555341892552   0.01675669931635658   0.0036549681943500688
-0.44735828828693   -0.03484884084166691   -0.005949808442565319
-0.44735828828693   -0.03484884084166691   -0.005949808442565319
-0.44735828828693   -0.03484884084166691   -0.005949808442565319
-0.44735828828693   -0.03484884084166691   -0.005949808442565319
-0.3010661222620484   -0.030887853193951365   0.010746580340690266
-0.3010661222620484   -0.030887853193951365   0.010746580340690266
-0.3010661222620484   -0.030887853193951365   0.010746580340690266
-0.3010661222620484   -0.030887853193951365   0.010746580340690266
-0.6239708927972407   -0.05281793057474092   -0.013202822653152011
-0.6239708927972407   -0.05281793057474092   -0.013202822653152011
-0.6239708927972407   -0.05281793057474092   -0.013202822653152011
-0.6239708927972407   -0.05281793057474092   -0.013202822653152011
-0.6543565944020433   -0.10947298149976536   -0.011301675511280994
-0.6543565944020433   -0.10947298149976536   -0.011301675511280994
-0.6543565944020433   -0.10947298149976536   -0.011301675511280994
-0.6543565944020433   -0.10947298149976536   -0.011301675511280994
-0.30926560526155555   0.008288327462357623   0.004328413615247145
-0.30926560526155555   0.008288327462357623   0.004328413615247145
-0.30926560526155555   0.008288327462357623   0.004328413615247145
-0.30926560526155555   0.008288327462357623   0.004328413615247145
-0.46849068069680244   -0.04300765681710363   -0.009780122199034126
-0.46849068069680244   -0.04300765681710363   -0.009780122199034126
-0.46849068069680244   -0.04300765681710363   -0.009780122199034126
-0.46849068069680244   -0.04300765681710363   -0.009780122199034126
-0.5684074063544685   0.026226275991312803   0.018585472292531872
-0.5684074063544685   0.026226275991312803   0.018585472292531872
-0.5684074063544685   0.026226275991312803   0.018585472292531872
-0.5684074063544685   0.026226275991312803   0.018585472292531872
-0.8808141678379877   -0.04383674808914362   -0.011486838612918632
-0.8808141678379877   -0.04383674808914362   -0.011486838612918632
-0.8808141678379877   -0.04383674808914362   -0.011486838612918632
-0.8808141678379877   -0.04383674808914362   -0.011486838612918632
-0.9018552196130748   -0.04467708377792609   0.018998826601305085
-0.9018552196130748   -0.04467708377792609   0.018998826601305085
-0.9018552196130748   -0.04467708377792609   0.018998826601305085
-0.9018552196130748   -0.04467708377792609   0.018998826601305085
-0.5895155152571824   0.01861736490867802   -0.004396058916454837
-0.5895155152571824   0.01861736490867802   -0.004396058916454837
-0.5895155152571824   0.01861736490867802   -0.004396058916454837
-0.5895155152571824   0.01861736490867802   -0.004396058916454837
-0.7008525204935853   0.00038172786416154625   0.017866629016935733
-0.7008525204935853   0.00038172786416154625   0.017866629016935733
-0.7008525204935853   0.00038172786416154625   0.017866629016935733
-0.7008525204935853   0.00038172786416154625   0.017866629016935733
-0.583667551265296   0.019877424801410776   0.0235837011502414
-0.583667551265296   0.019877424801410776   0.0235837011502414
-0.583667551265296   0.019877424801410776   0.0235837011502414
-0.583667551265296   0.019877424801410776   0.0235837011502414
-0.9072998430744991   -0.04553380314020242   -0.007367571343540338
-0.9072998430744991   -0.04553380314020242   -0.007367571343540338
-0.9072998430744991   -0.04553380314020242   -0.007367571343540338
-0.9072998430744991   -0.04553380314020242   -0.007367571343540338
-0.9283463729342862   -0.05181157142259726   0.025897056323637077
-0.9283463729342862   -0.05181157142259726   0.025897056323637077
-0.9283463729342862   -0.05181157142259726   0.025897056323637077
-0.9283463729342862   -0.05181157142259726   0.025897056323637077
-0.6089401817013638   0.01375993208493087   -0.004627129833439492
-0.6089401817013638   0.01375993208493087   -0.004627129833439492
-0.6089401817013638   0.01375993208493087   -0.004627129833439492
-0.6089401817013638   0.01375993208493087   -0.004627129833439492
-0.7353467956185504   -0.007933336207419206   0.010030774132460125
-0.7353467956185504   -0.007933336207419206   0.010030774132460125
-0.7353467956185504   -0.007933336207419206   0.010030774132460125
-0.7353467956185504   -0.007933336207419206   0.010030774132460125
-0.6035901213994559   0.012614073643201218   0.023269030117829825
-0.6035901213994559   0.012614073643201218   0.023269030117829825
-0.6035901213994559   0.012614073643201218   0.023269030117829825
-0.6035901213994559   0.012614073643201218   0.023269030117829825
-0.9347046813465043   -0.05167396109118144   -0.006032096068860432
-0.9347046813465043   -0.05167396109118144   -0.006032096068860432
-0.9347046813465043   -0.05167396109118144   -0.006032096068860432
-0.9347046813465043   -0.05167396109118144   -0.006032096068860432
-0.9660897268473942   -0.08088762631155456   0.0223526155530626
-0.9660897268473942   -0.08088762631155456   0.0223526155530626
-0.9660897268473942   -0.08088762631155456   0.0223526155530626
-0.9660897268473942   -0.08088762631155456   0.0223526155530626
-0.631340308277828   -0.0013167556297105365   -0.004376470760263422
-0.631340308277828   -0.0013167556297105365   -0.004376470760263422
-0.631340308277828   -0.0013167556297105365   -0.004376470760263422
-0.631340308277828   -0.0013167556297105365   -0.004376470760263422
-0.7495302004130995   -0.018491302101728835   0.0032676533961365217
-0.7495302004130995   -0.018491302101728835   0.0032676533961365217
-0.7495302004130995   -0.018491302101728835   0.0032676533961365217
-0.7495302004130995   -0.018491302101728835   0.0032676533961365217
0.5805624582682976   0.031350080855188825   -0.020170604930685055
0.5805624582682976   0.031350080855188825   -0.020170604930685055
0.5805624582682976   0.031350080855188825   -0.020170604930685055
0.5805624582682976   0.031350080855188825   -0.020170604930685055
0.2869955423755865   -0.0008628775974985209   0.007160473595457472
0.2869955423755865   -0.0008628775974985209   0.007160473595457472
0.2869955423755865   -0.0008628775974985209   0.007160473595457472
0.2869955423755865   -0.0008628775974985209   0.007160473595457472
0.26287205103277056   -0.04247026118312239   -0.018617531219494672
0.26287205103277056   -0.04247026118312239   -0.018617531219494672
0.26287205103277056   -0.04247026118312239   -0.018617531219494672
0.26287205103277056   -0.04247026118312239   -0.018617531219494672
0.5699100516778751   0.04667719459807791   0.008999143021346887
0.5699100516778751   0.04667719459807791   0.008999143021346887
0.5699100516778751   0.04667719459807791   0.008999143021346887
0.5699100516778751   0.04667719459807791   0.008999143021346887
0.403108362766995   0.0035343997606863964   -0.0132814453941889
0.403108362766995   0.0035343997606863964   -0.0132814453941889
0.403108362766995   0.0035343997606863964   -0.0132814453941889
0.403108362766995   0.0035343997606863964   -0.0132814453941889
0.5581602951297826   0.0164136707133076   -0.019486115834341358
0.5581602951297826   0.0164136707133076   -0.019486115834341358
0.5581602951297826   0.0164136707133076   -0.019486115834341358
0.5581602951297826   0.0164136707133076   -0.019486115834341358
0.2741292496762239   -0.01269929520299408   0.007897496017638245
0.2741292496762239   -0.01269929520299408   0.007897496017638245
0.2741292496762239   -0.01269929520299408   0.007897496017638245
0.2741292496762239   -0.01269929520299408   0.007897496017638245
0.25081210245797514   -0.045934516302781295   -0.016216595525148605
0.25081210245797514   -0.045934516302781295   -0.016216595525148605
0.25081210245797514   -0.045934516302781295   -0.016216595525148605
0.25081210245797514   -0.045934516302781295   -0.016216595525148605
0.5518890021568611   0.04188816104743549   0.012385020026282386
0.5518890021568611   0.04188816104743549   0.012385020026282386
0.5518890021568611   0.04188816104743549   0.012385020026282386
0.5518890021568611   0.04188816104743549   0.012385020026282386
0.3938802127150136   -0.002769948768108363   -0.017274549338693646
0.3938802127150136   -0.002769948768108363   -0.017274549338693646
0.3938802127150136   -0.002769948768108363   -0.017274549338693646
0.3938802127150136   -0.002769948768108363   -0.017274549338693646
0.5403800126512757   0.01214002629172127   -0.01541179274592103
0.5403800126512757   0.01214002629172127   -0.01541179274592103
0.5403800126512757   0.01214002629172127   -0.01541179274592103
0.5403800126512757   0.01214002629172127   -0.01541179274592103
0.2618693585942768   -0.016638114916352226   0.009773283769928195
0.2618693585942768   -0.016638114916352226   0.009773283769928195
0.2618693585942768   -0.016638114916352226   0.009773283769928195
0.2618693585942768   -0.016638114916352226   0.009773283769928195
0.23982660493574873   -0.04676589559959656   -0.013259321108320881
0.23982660493574873   -0.04676589559959656   -0.013259321108320881
0.23982660493574873   -0.04676589559959656   -0.013259321108320881
0.23982660493574873   -0.04676589559959656   -0.013259321108320881
0.531573838196675   0.037838765994768236   0.015489229563086494
0.531573838196675   0.037838765994768236   0.015489229563086494
0.531573838196675   0.037838765994768236   0.015489229563086494
0.531573838196675   0.037838765994768236   0.015489229563086494
0.37169931948210244   -0.0070480738637050955   -0.023379473069101736
0.37169931948210244   -0.0070480738637050955   -0.023379473069101736
0.37169931948210244   -0.0070480738637050955   -0.023379473069101736
0.37169931948210244   -0.0070480738637050955   -0.023379473069101736
0.2922194241626116   0.03055917440832244   0.0018578305247623043
0.2922194241626116   0.03055917440832244   0.0018578305247623043
0.2922194241626116   0.03055917440832244   0.0018578305247623043
0.2922194241626116   0.03055917440832244   0.0018578305247623043
0.008800619714661437   -0.009983813557995259   -0.0013444531227949428
0.008800619714661437   -0.009983813557995259   -0.0013444531227949428
0.008800619714661437   -0.009983813557995259   -0.0013444531227949428
0.008800619714661437   -0.009983813557995259   -0.0013444531227949428
-0.009389775149883808   -0.03833600733027715   -0.012752735909608053
-0.009389775149883808   -0.03833600733027715   -0.012752735909608053
-0.009389775149883808   -0.03833600733027715   -0.012752735909608053
-0.009389775149883808   -0.03833600733027715   -0.012752735909608053
0.28671692005889504   0.04238269006365081   0.01575386266434905
0.28671692005889504   0.04238269006365081   0.01575386266434905
0.28671692005889504   0.04238269006365081   0.01575386266434905
0.28671692005889504   0.04238269006365081   0.01575386266434905
0.1423284594589522   0.0060452381544450415   -0.0015661074357045546
0.1423284594589522   0.0060452381544450415   -0.0015661074357045546
0.1423284594589522   0.0060452381544450415   -0.0015661074357045546
0.1423284594589522   0.0060452381544450415   -0.0015661074357045546
0.2803496722718358   0.022852076745438835   0.0034482370472675543
0.2803496722718358   0.022852076745438835   0.0034482370472675543
0.2803496722718358   0.022852076745438835   0.0034482370472675543
0.2803496722718358   0.022852076745438835   0.0034482370472675543
-0.0029052937753996973   -0.01868816042464239   2.1824057177740122e-05
-0.0029052937753996973   -0.01868816042464239   2.1824057177740122e-05
-0.0029052937753996973   -0.01868816042464239   2.1824057177740122e-05
-0.0029052937753996973   -0.01868816042464239   2.1824057177740122e-05
-0.020811937440716716   -0.043929647252251285   -0.01105291414232364
-0.020811937440716716   -0.043929647252251285   -0.01105291414232364
-0.020811937440716716   -0.043929647252251285   -0.01105291414232364
-0.020811937440716716   -0.043929647252251285   -0.01105291414232364
0.2737737792922837   0.03524250946846797   0.01741476287514262
0.2737737792922837   0.03524250946846797   0.01741476287514262
0.2737737792922837   0.03524250946846797   0.01741476287514262
0.2737737792922837   0.03524250946846797   0.01741476287514262
0.1283211226002306   -0.001012706610064397   -0.005568143302983387
0.1283211226002306   -0.001012706610064397   -0.005568143302983387
0.1283211226002306   -0.001012706610064397   -0.005568143302983387
0.1283211226002306   -0.001012706610064397   -0.005568143302983387
0.2676503220508472   0.01698448725151027   0.005055498884920181
0.2676503220508472   0.01698448725151027   0.005055498884920181
0.2676503220508472   0.01698448725151027   0.005055498884920181
0.2676503220508472   0.01698448725151027   0.005055498884920181
-0.014678973327275642   -0.025662118163291166   0.0013443773359216194
-0.014678973327275642   -0.025662118163291166   0.0013443773359216194
-0.014678973327275642   -0.025662118163291166   0.0013443773359216194
-0.014678973327275642   -0.025662118163291166   0.0013443773359216194
-0.03210985658753203   -0.04722749084632291   -0.008839506103413493
-0.03210985658753203   -0.04722749084632291   -0.008839506103413493
-0.03210985658753203   -0.04722749084632291   -0.008839506103413493
-0.03210985658753203   -0.04722749084632291   -0.008839506103413493
0.26146148586444334   0.02927487977360016   0.01887430816195198
0.26146148586444334   0.02927487977360016   0.01887430816195198
0.26146148586444334   0.02927487977360016   0.01887430816195198
0.26146148586444334   0.02927487977360016   0.01887430816195198
0.11805236125138174   -0.005451561852895571   -0.008492554251708875
0.11805236125138174   -0.005451561852895571   -0.008492554251708875
0.11805236125138174   -0.005451561852895571   -0.008492554251708875
0.11805236125138174   -0.005451561852895571   -0.008492554251708875
0.018518250105690214   0.03063651222232705   0.0066233730520275915
0.018518250105690214   0.03063651222232705   0.0066233730520275915
0.018518250105690214   0.03063651222232705   0.0066233730520275915
0.018518250105690214   0.03063651222232705   0.0066233730520275915
-0.26092887825372557   -0.017174362618459123   -0.008939716218567
-0.26092887825372557   -0.017174362618459123   -0.008939716218567
-0.26092887825372557   -0.017174362618459123   -0.008939716218567
-0.26092887825372557   -0.017174362618459123   -0.008939716218567
-0.2751174674396443   -0.03530751139014956   -0.008209394404594356
-0.2751174674396443   -0.03530751139014956   -0.008209394404594356
-0.2751174674396443   -0.03530751139014956   -0.008209394404594356
-0.2751174674396443   -0.03530751139014956   -0.008209394404594356
0.009315093825982564   0.034733664356981775   0.007701937282464881
0.009315093825982564   0.034733664356981775   0.007701937282464881
0.009315093825982564   0.034733664356981775   0.007701937282464881
0.009315093825982564   0.034733664356981775   0.007701937282464881
-0.12688996056861113   0.003779372844572977   0.0005204917404330392
-0.12688996056861113   0.003779372844572977   0.0005204917404330392
-0.12688996056861113   0.003779372844572977   0.0005204917404330392
-0.12688996056861113   0.003779372844572977   0.0005204917404330392
0.007379210490928073   0.02448745005809886   0.008268734906075347
0.007379210490928073   0.02448745005809886   0.008268734906075347
0.007379210490928073   0.02448745005809886   0.008268734906075347
0.007379210490928073   0.02448745005809886   0.008268734906075347
-0.272867368707097   -0.024747081693776388   -0.007519330438231017
-0.272867368707097   -0.024747081693776388   -0.007519330438231017
-0.272867368707097   -0.024747081693776388   -0.007519330438231017
-0.272867368707097   -0.024747081693776388   -0.007519330438231017
-0.2873702185760438   -0.041445833990428865   -0.006868475344364743
-0.2873702185760438   -0.041445833990428865   -0.006868475344364743
-0.2873702185760438   -0.041445833990428865   -0.006868475344364743
-0.2873702185760438   -0.041445833990428865   -0.006868475344364743
-0.0024719471212851993   0.027392720608044784   0.009324669594537883
-0.0024719471212851993   0.027392720608044784   0.009324669594537883
-0.0024719471212851993   0.027392720608044784   0.009324669594537883
-0.0024719471212851993   0.027392720608044784   0.009324669594537883
-0.1386341478906419   -0.002260175321621632   -0.002470667641723443
-0.1386341478906419   -0.002260175321621632   -0.002470667641723443
-0.1386341478906419   -0.002260175321621632   -0.002470667641723443
-0.1386341478906419   -0.002260175321621632   -0.002470667641723443
-0.004119953463942647   0.018561154832272057   0.009916203657023377
-0.004119953463942647   0.018561154832272057   0.009916203657023377
-0.004119953463942647   0.018561154832272057   0.009916203657023377
-0.004119953463942647   0.018561154832272057   0.009916203657023377
-0.28545642962059836   -0.032348485601865574   -0.006396878955700744
-0.28545642962059836   -0.032348485601865574   -0.006396878955700744
-0.28545642962059836   -0.032348485601865574   -0.006396878955700744
-0.28545642962059836   -0.032348485601865574   -0.006396878955700744
-0.2995325235057141   -0.046262443820759586   -0.004635124290207806
-0.2995325235057141   -0.046262443820759586   -0.004635124290207806
-0.2995325235057141   -0.046262443820759586   -0.004635124290207806
-0.2995325235057141   -0.046262443820759586   -0.004635124290207806
-0.014686816051937453   0.02047747775382496   0.010570727974412483
-0.014686816051937453   0.02047747775382496   0.010570727974412483
-0.014686816051937453   0.02047747775382496   0.010570727974412483
-0.014686816051937453   0.02047747775382496   0.010570727974412483
-0.1512735901758367   -0.008400161496057035   -0.005748144630632492
-0.1512735901758367   -0.008400161496057035   -0.005748144630632492
-0.1512735901758367   -0.008400161496057035   -0.005748144630632492
-0.1512735901758367   -0.008400161496057035   -0.005748144630632492
-0.24615888958559307   0.03591003421616366   0.011825830287478536
-0.24615888958559307   0.03591003421616366   0.011825830287478536
-0.24615888958559307   0.03591003421616366   0.011825830287478536
-0.24615888958559307   0.03591003421616366   0.011825830287478536
-0.5222420008736385   -0.023527953538628535   -0.014583049988008408
-0.5222420008736385   -0.023527953538628535   -0.014583049988008408
-0.5222420008736385   -0.023527953538628535   -0.014583049988008408
-0.5222420008736385   -0.023527953538628535   -0.014583049988008408
-0.5332876882710063   -0.02861976677033702   -0.0025979198550226193
-0.5332876882710063   -0.02861976677033702   -0.0025979198550226193
-0.5332876882710063   -0.02861976677033702   -0.0025979198550226193
-0.5332876882710063   -0.02861976677033702   -0.0025979198550226193
-0.26119821832893514   0.026365042890602347   -0.000285703131796617
-0.26119821832893514   0.026365042890602347   -0.000285703131796617
-0.26119821832893514   0.026365042890602347   -0.000285703131796617
-0.26119821832893514   0.026365042890602347   -0.000285703131796617
-0.3878927613214828   0.0036867273897442238   0.0028569252095821222
-0.3878927613214828   0.0036867273897442238   0.0028569252095821222
-0.3878927613214828   0.0036867273897442238   0.0028569252095821222
-0.3878927613214828   0.0036867273897442238   0.0028569252095821222
-0.257834515305274   0.029641685641030167   0.013256169236081021
-0.257834515305274   0.029641685641030167   0.013256169236081021
-0.257834515305274   0.029641685641030167   0.013256169236081021
-0.257834515305274   0.029641685641030167   0.013256169236081021
-0.5362364124241482   -0.03148143065024571   -0.014479876740823721
-0.5362364124241482   -0.03148143065024571   -0.014479876740823721
-0.5362364124241482   -0.03148143065024571   -0.014479876740823721
-0.5362364124241482   -0.03148143065024571   -0.014479876740823721
-0.5483683700675784   -0.03553105446136638   -0.0023709648159416542
-0.5483683700675784   -0.03553105446136638   -0.0023709648159416542
-0.5483683700675784   -0.03553105446136638   -0.0023709648159416542
-0.5483683700675784   -0.03553105446136638   -0.0023709648159416542
-0.27360437410273   0.019360190175316608   0.0011547228564609893
-0.27360437410273   0.019360190175316608   0.0011547228564609893
-0.27360437410273   0.019360190175316608   0.0011547228564609893
-0.27360437410273   0.019360190175316608   0.0011547228564609893
-0.39837764235803935   -0.0017949702221407016   0.00041057144682819097
-0.39837764235803935   -0.0017949702221407016   0.00041057144682819097
-0.39837764235803935   -0.0017949702221407016   0.00041057144682819097
-0.39837764235803935   -0.0017949702221407016   0.00041057144682819097
-0.26991354031830994   0.023689934035375643   0.015279147918500071
-0.26991354031830994   0.023689934035375643   0.015279147918500071
-0.26991354031830994   0.023689934035375643   0.015279147918500071
-0.26991354031830994   0.023689934035375643   0.015279147918500071
-0.551199809316545   -0.03900140378597236   -0.013057811736168864
-0.551199809316545   -0.03900140378597236   -0.013057811736168864
-0.551199809316545   -0.03900140378597236   -0.013057811736168864
-0.551199809316545   -0.03900140378597236   -0.013057811736168864
-0.5622367059962592   -0.042947974211702086   0.00111800597965225
-0.5622367059962592   -0.042947974211702086   0.00111800597965225
-0.5622367059962592   -0.042947974211702086   0.00111800597965225
-0.5622367059962592   -0.042947974211702086   0.00111800597965225
-0.2867530517046612   0.010988580955364424   0.002011209938932893
-0.2867530517046612   0.010988580955364424   0.002011209938932893
-0.2867530517046612   0.010988580955364424   0.002011209938932893
-0.2867530517046612   0.010988580955364424   0.002011209938932893
-0.41494466857132106   -0.009587379354715556   -0.0029144054585277315
-0.41494466857132106   -0.009587379354715556   -0.0029144054585277315
-0.41494466857132106   -0.009587379354715556   -0.0029144054585277315
-0.41494466857132106   -0.009587379354715556   -0.0029144054585277315
-0.5039089378663774   0.03712710660807943   0.016427204901586265
-0.5039089378663774   0.03712710660807943   0.016427204901586265
-0.5039089378663774   0.03712710660807943   0.016427204901586265
-0.5039089378663774   0.03712710660807943   0.016427204901586265
-0.7713984775907882   -0.03575715624230308   -0.013230246844970234
-0.7713984775907882   -0.03575715624230308   -0.013230246844970234
-0.7713984775907882   -0.03575715624230308   -0.013230246844970234
-0.7713984775907882   -0.03575715624230308   -0.013230246844970234
-0.781630132600856   -0.016148836631560914   0.013887550726024059
-0.781630132600856   -0.016148836631560914   0.013887550726024059
-0.781630132600856   -0.016148836631560914   0.013887550726024059
-0.781630132600856   -0.016148836631560914   0.013887550726024059
-0.5252785660585417   0.016093913961855194   -0.007265989524892311
-0.5252785660585417   0.016093913961855194   -0.007265989524892311
-0.5252785660585417   0.016093913961855194   -0.007265989524892311
-0.5252785660585417   0.016093913961855194   -0.007265989524892311
-0.6169668760824861   0.007579994079896651   0.014317706443837876
-0.6169668760824861   0.007579994079896651   0.014317706443837876
-0.6169668760824861   0.007579994079896651   0.014317706443837876
-0.6169668760824861   0.007579994079896651   0.014317706443837876
-0.5156577788751334   0.038045413365982134   0.018886446988016822
-0.5156577788751334   0.038045413365982134   0.018886446988016822
-0.5156577788751334   0.038045413365982134   0.018886446988016822
-0.5156577788751334   0.038045413365982134   0.018886446988016822
-0.7906847116645541   -0.03753412791597732   -0.0100000533080426
-0.7906847116645541   -0.03753412791597732   -0.0100000533080426
-0.7906847116645541   -0.03753412791597732   -0.0100000533080426
-0.7906847116645541   -0.03753412791597732   -0.0100000533080426
-0.8003737965246748   -0.019767172077236828   0.01917096417901764
-0.8003737965246748   -0.019767172077236828   0.01917096417901764
-0.8003737965246748   -0.019767172077236828   0.01917096417901764
-0.8003737965246748   -0.019767172077236828   0.01917096417901764
-0.5396647094560705   0.012071278164491994   -0.006454994384260622
-0.5396647094560705   0.012071278164491994   -0.006454994384260622
-0.5396647094560705   0.012071278164491994   -0.006454994384260622
-0.5396647094560705   0.012071278164491994   -0.006454994384260622
-0.6430469702856824   0.003768908408795152   0.009358645084457023
-0.6430469702856824   0.003768908408795152   0.009358645084457023
-0.6430469702856824   0.003768908408795152   0.009358645084457023
-0.6430469702856824   0.003768908408795152   0.009358645084457023
-0.5290343134542587   0.03535015371574829   0.023418110073542442
-0.5290343134542587   0.03535015371574829   0.023418110073542442
-0.5290343134542587   0.03535015371574829   0.023418110073542442
-0.5290343134542587   0.03535015371574829   0.023418110073542442
-0.8104504379043432   -0.042492293006351295   -0.008487121790204395
-0.8104504379043432   -0.042492293006351295   -0.008487121790204395
-0.8104504379043432   -0.042492293006351295   -0.008487121790204395
-0.8104504379043432   -0.042492293006351295   -0.008487121790204395
-0.8258076423426205   -0.03554011197977705   0.01897408155419645
-0.8258076423426205   -0.03554011197977705   0.01897408155419645
-0.8258076423426205   -0.03554011197977705   0.01897408155419645
-0.8258076423426205   -0.03554011197977705   0.01897408155419645
-0.5551255116607925   -0.00019277092241022642   -0.006081225632305929
-0.5551255116607925   -0.00019277092241022642   -0.006081225632305929
-0.5551255116607925   -0.00019277092241022642   -0.006081225632305929
-0.5551255116607925   -0.00019277092241022642   -0.006081225632305929
-0.6502452578365567   -0.0018064384558636737   0.00780067652121226
-0.6502452578365567   -0.0018064384558636737   0.00780067652121226
-0.6502452578365567   -0.0018064384558636737   0.00780067652121226
-0.6502452578365567   -0.0018064384558636737   0.00780067652121226
0.44348457003575936   0.024873494552193995   -0.020646693316252854
0.44348457003575936   0.024873494552193995   -0.020646693316252854
0.44348457003575936   0.024873494552193995   -0.020646693316252854
0.44348457003575936   0.024873494552193995   -0.020646693316252854
0.21035699042234235   0.003727085801419644   0.007754579899760458
0.21035699042234235   0.003727085801419644   0.007754579899760458
0.21035699042234235   0.003727085801419644   0.007754579899760458
0.21035699042234235   0.003727085801419644   0.007754579899760458
0.18747647240746104   -0.03554531545417483   -0.01967982796950268
0.18747647240746104   -0.03554531545417483   -0.01967982796950268
0.18747647240746104   -0.03554531545417483   -0.01967982796950268
0.18747647240746104   -0.03554531545417483   -0.01967982796950268
0.43417878444833075   0.04049739267951399   0.009606357215908265
0.43417878444833075   0.04049739267951399   0.009606357215908265
0.43417878444833075   0.04049739267951399   0.009606357215908265
0.43417878444833075   0.04049739267951399   0.009606357215908265
0.30240554495258726   0.004069775925499744   -0.00895566950800247
0.30240554495258726   0.004069775925499744   -0.00895566950800247
0.30240554495258726   0.004069775925499744   -0.00895566950800247
0.30240554495258726   0.004069775925499744   -0.00895566950800247
0.42254363358906716   0.011491401246556468   -0.01956340564745222
0.42254363358906716   0.011491401246556468   -0.01956340564745222
0.42254363358906716   0.011491401246556468   -0.01956340564745222
0.42254363358906716   0.011491401246556468   -0.01956340564745222
0.19888623946289927   -0.0067647078250429316   0.00858839967855511
0.19888623946289927   -0.0067647078250429316   0.00858839967855511
0.19888623946289927   -0.0067647078250429316   0.00858839967855511
0.19888623946289927   -0.0067647078250429316   0.00858839967855511
0.1768107767187973   -0.03896849578341702   -0.01682003868993166
0.1768107767187973   -0.03896849578341702   -0.01682003868993166
0.1768107767187973   -0.03896849578341702   -0.01682003868993166
0.1768107767187973   -0.03896849578341702   -0.01682003868993166
0.41758833266076784   0.03558781514911358   0.012700721263728659
0.41758833266076784   0.03558781514911358   0.012700721263728659
0.41758833266076784   0.03558781514911358   0.012700721263728659
0.41758833266076784   0.03558781514911358   0.012700721263728659
0.29302159957731816   -0.0019098464570764806   -0.012434073906457455
0.29302159957731816   -0.0019098464570764806   -0.012434073906457455
0.29302159957731816   -0.0019098464570764806   -0.012434073906457455
0.29302159957731816   -0.0019098464570764806   -0.012434073906457455
0.4062118241245556   0.007130766818395598   -0.015724773086611552
0.4062118241245556   0.007130766818395598   -0.015724773086611552
0.4062118241245556   0.007130766818395598   -0.015724773086611552
0.4062118241245556   0.007130766818395598   -0.015724773086611552
0.1878929442835126   -0.01080578842419825   0.010428091774424778
0.1878929442835126   -0.01080578842419825   0.010428091774424778
0.1878929442835126   -0.01080578842419825   0.010428091774424778
0.1878929442835126   -0.01080578842419825   0.010428091774424778
0.1672209892397287   -0.04093271159664634   -0.014015309437040047
0.1672209892397287   -0.04093271159664634   -0.014015309437040047
0.1672209892397287   -0.04093271159664634   -0.014015309437040047
0.1672209892397287   -0.04093271159664634   -0.014015309437040047
0.39885931731846014   0.030377151514866342   0.01514402214649622
0.39885931731846014   0.030377151514866342   0.01514402214649622
0.39885931731846014   0.030377151514866342   0.01514402214649622
0.39885931731846014   0.030377151514866342   0.01514402214649622
0.2739711427461391   -0.006377548477212142   -0.017667519425412812
0.2739711427461391   -0.006377548477212142   -0.017667519425412812
0.2739711427461391   -0.006377548477212142   -0.017667519425412812
0.2739711427461391   -0.006377548477212142   -0.017667519425412812
0.2140837563588594   0.031137336226797617   -0.0010218408430285211
0.2140837563588594   0.031137336226797617   -0.0010218408430285211
0.2140837563588594   0.031137336226797617   -0.0010218408430285211
0.2140837563588594   0.031137336226797617   -0.0010218408430285211
-0.014517344868825395   -0.0033918087164673846   -0.0002498972174956826
-0.014517344868825395   -0.0033918087164673846   -0.0002498972174956826
-0.014517344868825395   -0.0033918087164673846   -0.0002498972174956826
-0.014517344868825395   -0.0033918087164673846   -0.0002498972174956826
-0.030639383480586382   -0.026756751444959682   -0.012587041339237392
-0.030639383480586382   -0.026756751444959682   -0.012587041339237392
-0.030639383480586382   -0.026756751444959682   -0.012587041339237392
-0.030639383480586382   -0.026756751444959682   -0.012587041339237392
0.20870894491001674   0.0368813878767402   0.014055831212359447
0.20870894491001674   0.0368813878767402   0.014055831212359447
0.20870894491001674   0.0368813878767402   0.014055831212359447
0.20870894491001674   0.0368813878767402   0.014055831212359447
0.09294682878671955   0.009035763632209547   0.0006998392397546647
0.09294682878671955   0.009035763632209547   0.0006998392397546647
0.09294682878671955   0.009035763632209547   0.0006998392397546647
0.09294682878671955   0.009035763632209547   0.0006998392397546647
0.20321834528077262   0.02269087230311354   0.0007933486397697148
0.20321834528077262   0.02269087230311354   0.0007933486397697148
0.20321834528077262   0.02269087230311354   0.0007933486397697148
0.20321834528077262   0.02269087230311354   0.0007933486397697148
-0.025057408735157643   -0.0124748607551477   0.0010409416980943329
-0.025057408735157643   -0.0124748607551477   0.0010409416980943329
-0.025057408735157643   -0.0124748607551477   0.0010409416980943329
-0.025057408735157643   -0.0124748607551477   0.0010409416980943329
-0.0406805828978303   -0.033219204042773336   -0.010439442490934571
-0.0406805828978303   -0.033219204042773336   -0.010439442490934571
-0.0406805828978303   -0.033219204042773336   -0.010439442490934571
-0.0406805828978303   -0.033219204042773336   -0.010439442490934571
0.1968625775242078   0.029111550581564213   0.015358918972138244
0.1968625775242078   0.029111550581564213   0.015358918972138244
0.1968625775242078   0.029111550581564213   0.015358918972138244
0.1968625775242078   0.029111550581564213   0.015358918972138244
0.08052370694056496   0.001336384572312034   -0.003160185732321754
0.08052370694056496   0.001336384572312034   -0.003160185732321754
0.08052370694056496   0.001336384572312034   -0.003160185732321754
0.08052370694056496   0.001336384572312034   -0.003160185732321754
0.19155715847866506   0.01575408966326148   0.00218928466272879
0.19155715847866506   0.01575408966326148   0.00218928466272879
0.19155715847866506   0.01575408966326148   0.00218928466272879
0.19155715847866506   0.01575408966326148   0.00218928466272879
-0.03545784521620092   -0.019944424488381143   0.0023994663628201817
-0.03545784521620092   -0.019944424488381143   0.0023994663628201817
-0.03545784521620092   -0.019944424488381143   0.0023994663628201817
-0.03545784521620092   -0.019944424488381143   0.0023994663628201817
-0.050583524623121524   -0.03859354772335528   -0.008422818835260379
-0.050583524623121524   -0.03859354772335528   -0.008422818835260379
-0.050583524623121524   -0.03859354772335528   -0.008422818835260379
-0.050583524623121524   -0.03859354772335528   -0.008422818835260379
0.18592423197218388   0.021977238026325254   0.016590954602263737
0.18592423197218388   0.021977238026325254   0.016590954602263737
0.18592423197218388   0.021977238026325254   0.016590954602263737
0.18592423197218388   0.021977238026325254   0.016590954602263737
0.0710696875279663   -0.004433678919730569   -0.0063538287682950645
0.0710696875279663   -0.004433678919730569   -0.0063538287682950645
0.0710696875279663   -0.004433678919730569   -0.0063538287682950645
0.0710696875279663   -0.004433678919730569   -0.0063538287682950645
-0.005406798001739932   0.03675016862995115   0.0051608597715140665
-0.005406798001739932   0.03675016862995115   0.0051608597715140665
-0.005406798001739932   0.03675016862995115   0.0051608597715140665
-0.005406798001739932   0.03675016862995115   0.0051608597715140665
-0.23463738410737062   -0.010515051928817278   -0.007778304167235716
-0.23463738410737062   -0.010515051928817278   -0.007778304167235716
-0.23463738410737062   -0.010515051928817278   -0.007778304167235716
-0.23463738410737062   -0.010515051928817278   -0.007778304167235716
-0.2450216477571812   -0.01889453222422951   -0.006102304040412397
-0.2450216477571812   -0.01889453222422951   -0.006102304040412397
-0.2450216477571812   -0.01889453222422951   -0.006102304040412397
-0.2450216477571812   -0.01889453222422951   -0.006102304040412397
-0.015581380207269952   0.02977547177023097   0.006170751812155077
-0.015581380207269952   0.02977547177023097   0.006170751812155077
-0.015581380207269952   0.02977547177023097   0.006170751812155077
-0.015581380207269952   0.02977547177023097   0.006170751812155077
-0.12486291433335168   0.0093257118035499   0.002442371952899097
-0.12486291433335168   0.0093257118035499   0.002442371952899097
-0.12486291433335168   0.0093257118035499   0.002442371952899097
-0.12486291433335168   0.0093257118035499   0.002442371952899097
-0.015392146295142578   0.02969192292072107   0.007200470222301856
-0.015392146295142578   0.02969192292072107   0.007200470222301856
-0.015392146295142578   0.02969192292072107   0.007200470222301856
-0.015392146295142578   0.02969192292072107   0.007200470222301856
-0.24501989843962282   -0.01862000014503388   -0.006368089531816274
-0.24501989843962282   -0.01862000014503388   -0.006368089531816274
-0.24501989843962282   -0.01862000014503388   -0.006368089531816274
-0.24501989843962282   -0.01862000014503388   -0.006368089531816274
-0.2553087280256685   -0.02588667362955986   -0.00423552068910202
-0.2553087280256685   -0.02588667362955986   -0.00423552068910202
-0.2553087280256685   -0.02588667362955986   -0.00423552068910202
-0.2553087280256685   -0.02588667362955986   -0.00423552068910202
-0.026055178597983758   0.021776679240805976   0.007691695724719845
-0.026055178597983758   0.021776679240805976   0.007691695724719845
-0.026055178597983758   0.021776679240805976   0.007691695724719845
-0.026055178597983758   0.021776679240805976   0.007691695724719845
-0.13525618326209896   0.0024001176395505586   -0.0006776308522160133
-0.13525618326209896   0.0024001176395505586   -0.0006776308522160133
-0.13525618326209896   0.0024001176395505586   -0.0006776308522160133
-0.13525618326209896   0.0024001176395505586   -0.0006776308522160133
-0.025655734060257347   0.022653457360145294   0.00881214029401257
-0.025655734060257347   0.022653457360145294   0.00881214029401257
-0.025655734060257347   0.022653457360145294   0.00881214029401257
-0.025655734060257347   0.022653457360145294   0.00881214029401257
-0.2556572019035405   -0.02671248108904445   -0.005152082618975484
-0.2556572019035405   -0.02671248108904445   -0.005152082618975484
-0.2556572019035405   -0.02671248108904445   -0.005152082618975484
-0.2556572019035405   -0.02671248108904445   -0.005152082618975484
-0.2654662796722999   -0.032269157223191264   -0.0023829832903061914
-0.2654662796722999   -0.032269157223191264   -0.0023829832903061914
-0.2654662796722999   -0.032269157223191264   -0.0023829832903061914
-0.2654662796722999   -0.032269157223191264   -0.0023829832903061914
-0.03657758371887232   0.01404077866889004   0.00897255929374033
-0.03657758371887232   0.01404077866889004   0.00897255929374033
-0.03657758371887232   0.01404077866889004   0.00897255929374033
-0.03657758371887232   0.01404077866889004   0.00897255929374033
-0.14613181272592296   -0.004580131380766291   -0.00415705936130547
-0.14613181272592296   -0.004580131380766291   -0.00415705936130547
-0.14613181272592296   -0.004580131380766291   -0.00415705936130547
-0.14613181272592296   -0.004580131380766291   -0.00415705936130547
-0.22038801748974196   0.0419584571118059   0.010995019880282533
-0.22038801748974196   0.0419584571118059   0.010995019880282533
-0.22038801748974196   0.0419584571118059   0.010995019880282533
-0.22038801748974196   0.0419584571118059   0.010995019880282533
-0.45010907502821434   -0.017818805059482787   -0.013945501721512817
-0.45010907502821434   -0.017818805059482787   -0.013945501721512817
-0.45010907502821434   -0.017818805059482787   -0.013945501721512817
-0.45010907502821434   -0.017818805059482787   -0.013945501721512817
-0.45576733368334066   -0.01230015075246256   0.0009574440072843728
-0.45576733368334066   -0.01230015075246256   0.0009574440072843728
-0.45576733368334066   -0.01230015075246256   0.0009574440072843728
-0.45576733368334066   -0.01230015075246256   0.0009574440072843728
-0.23606925045379512   0.021439014419206356   -0.001673864166915895
-0.23606925045379512   0.021439014419206356   -0.001673864166915895
-0.23606925045379512   0.021439014419206356   -0.001673864166915895
-0.23606925045379512   0.021439014419206356   -0.001673864166915895
-0.3383511987840171   0.00872904835393759   0.004131463866362359
-0.3383511987840171   0.00872904835393759   0.004131463866362359
-0.3383511987840171   0.00872904835393759   0.004131463866362359
-0.3383511987840171   0.00872904835393759   0.004131463866362359
-0.23039548199786633   0.035174607741301565   0.0129593847906307
-0.23039548199786633   0.035174607741301565   0.0129593847906307
-0.23039548199786633   0.035174607741301565   0.0129593847906307
-0.23039548199786633   0.035174607741301565   0.0129593847906307
-0.4613983429287483   -0.025992984864035146   -0.013504768108185471
-0.4613983429287483   -0.025992984864035146   -0.013504768108185471
-0.4613983429287483   -0.025992984864035146   -0.013504768108185471
-0.4613983429287483   -0.025992984864035146   -0.013504768108185471
-0.46775221169021086   -0.019372575006530418   0.0016387345347068094
-0.46775221169021086   -0.019372575006530418   0.0016387345347068094
-0.46775221169021086   -0.019372575006530418   0.0016387345347068094
-0.46775221169021086   -0.019372575006530418   0.0016387345347068094
-0.24650577367204488   0.0140282016656271   -0.00013562421616847634
-0.24650577367204488   0.0140282016656271   -0.00013562421616847634
-0.24650577367204488   0.0140282016656271   -0.00013562421616847634
-0.24650577367204488   0.0140282016656271   -0.00013562421616847634
-0.34707402079907046   0.002588494800610186   0.0012357553316203022
-0.34707402079907046   0.002588494800610186   0.0012357553316203022
-0.34707402079907046   0.002588494800610186   0.0012357553316203022
-0.34707402079907046   0.002588494800610186   0.0012357553316203022
-0.24058970337066213   0.028688971284760362   0.014783957671611891
-0.24058970337066213   0.028688971284760362   0.014783957671611891
-0.24058970337066213   0.028688971284760362   0.014783957671611891
-0.24058970337066213   0.028688971284760362   0.014783957671611891
-0.47336781344566364   -0.033732876079734284   -0.012078973169356567
-0.47336781344566364   -0.033732876079734284   -0.012078973169356567
-0.47336781344566364   -0.033732876079734284   -0.012078973169356567
-0.47336781344566364   -0.033732876079734284   -0.012078973169356567
-0.4786038636506629   -0.027011970615397993   0.0038592640311224426
-0.4786038636506629   -0.027011970615397993   0.0038592640311224426
-0.4786038636506629   -0.027011970615397993   0.0038592640311224426
-0.4786038636506629   -0.027011970615397993   0.0038592640311224426
-0.25723780846089045   0.0055132693801586   0.000976946163395144
-0.25723780846089045   0.0055132693801586   0.000976946163395144
-0.25723780846089045   0.0055132693801586   0.000976946163395144
-0.25723780846089045   0.0055132693801586   0.000976946163395144
-0.3605351179845879   -0.005190936413651079   -0.0024715069656628813
-0.3605351179845879   -0.005190936413651079   -0.0024715069656628813
-0.3605351179845879   -0.005190936413651079   -0.0024715069656628813
-0.3605351179845879   -0.005190936413651079   -0.0024715069656628813
-0.43313481254132435   0.037635856056062206   0.015471149597392389
-0.43313481254132435   0.037635856056062206   0.015471149597392389
-0.43313481254132435   0.037635856056062206   0.015471149597392389
-0.43313481254132435   0.037635856056062206   0.015471149597392389
-0.6557968765433858   -0.03036014837797542   -0.015150474137423642
-0.6557968765433858   -0.03036014837797542   -0.015150474137423642
-0.6557968765433858   -0.03036014837797542   -0.015150474137423642
-0.6557968765433858   -0.03036014837797542   -0.015150474137423642
-0.6628294111144095   -0.007120893338111112   0.014210819031143879
-0.6628294111144095   -0.007120893338111112   0.014210819031143879
-0.6628294111144095   -0.007120893338111112   0.014210819031143879
-0.6628294111144095   -0.007120893338111112   0.014210819031143879
-0.45302900191631157   0.01109556514766892   -0.008746613057701923
-0.45302900191631157   0.01109556514766892   -0.008746613057701923
-0.45302900191631157   0.01109556514766892   -0.008746613057701923
-0.45302900191631157   0.01109556514766892   -0.008746613057701923
-0.5267616161358684   0.008306144017996134   0.013014011253241798
-0.5267616161358684   0.008306144017996134   0.013014011253241798
-0.5267616161358684   0.008306144017996134   0.013014011253241798
-0.5267616161358684   0.008306144017996134   0.013014011253241798
-0.44231351455128365   0.03777116662608848   0.018155222289016032
-0.44231351455128365   0.03777116662608848   0.018155222289016032
-0.44231351455128365   0.03777116662608848   0.018155222289016032
-0.44231351455128365   0.03777116662608848   0.018155222289016032
-0.6733738366946472   -0.033625433031742064   -0.012006769176405974
-0.6733738366946472   -0.033625433031742064   -0.012006769176405974
-0.6733738366946472   -0.033625433031742064   -0.012006769176405974
-0.6733738366946472   -0.033625433031742064   -0.012006769176405974
-0.6785422804988024   -0.010860609859942444   0.017763136536314506
-0.6785422804988024   -0.010860609859942444   0.017763136536314506
-0.6785422804988024   -0.010860609859942444   0.017763136536314506
-0.6785422804988024   -0.010860609859942444   0.017763136536314506
-0.46429416531855117   0.007034772499844952   -0.007478381113369834
-0.46429416531855117   0.007034772499844952   -0.007478381113369834
-0.46429416531855117   0.007034772499844952   -0.007478381113369834
-0.46429416531855117   0.007034772499844952   -0.007478381113369834
-0.5489597382440007   0.004151654835262031   0.00805140020769448
-0.5489597382440007   0.004151654835262031   0.00805140020769448
-0.5489597382440007   0.004151654835262031   0.00805140020769448
-0.5489597382440007   0.004151654835262031   0.00805140020769448
-0.45292892349069225   0.034988295282978144   0.021394305242791796
-0.45292892349069225   0.034988295282978144   0.021394305242791796
-0.45292892349069225   0.034988295282978144   0.021394305242791796
-0.45292892349069225   0.034988295282978144   0.021394305242791796
-0.6896145497619136   -0.03852116007832396   -0.009937659560851977
-0.6896145497619136   -0.03852116007832396   -0.009937659560851977
-0.6896145497619136   -0.03852116007832396   -0.009937659560851977
-0.6896145497619136   -0.03852116007832396   -0.009937659560851977
-0.6992870798538204   -0.024333372656580726   0.01737733388985427
-0.6992870798538204   -0.024333372656580726   0.01737733388985427
-0.6992870798538204   -0.024333372656580726   0.01737733388985427
-0.6992870798538204   -0.024333372656580726   0.01737733388985427
-0.4762134195783258   -0.0044158058688737595   -0.0067846803537167065
-0.4762134195783258   -0.0044158058688737595   -0.0067846803537167065
-0.4762134195783258   -0.0044158058688737595   -0.0067846803537167065
-0.4762134195783258   -0.0044158058688737595   -0.0067846803537167065
-0.5543569336860681   -0.0010775007894804484   0.006453480610880025
-0.5543569336860681   -0.0010775007894804484   0.006453480610880025
-0.5543569336860681   -0.0010775007894804484   0.006453480610880025
-0.5543569336860681   -0.0010775007894804484   0.006453480610880025
0.30786547522442526   0.017631989738470945   -0.020229385217081237
0.30786547522442526   0.017631989738470945   -0.020229385217081237
0.30786547522442526   0.017631989738470945   -0.020229385217081237
0.30786547522442526   0.017631989738470945   -0.020229385217081237
0.13147380352434804   0.007909282338797948   0.008581751298675918
0.13147380352434804   0.007909282338797948   0.008581751298675918
0.13147380352434804   0.007909282338797948   0.008581751298675918
0.13147380352434804   0.007909282338797948   0.008581751298675918
0.11069955754932742   -0.029900196781764185   -0.018902363191479296
0.11069955754932742   -0.029900196781764185   -0.018902363191479296
0.11069955754932742   -0.029900196781764185   -0.018902363191479296
0.11069955754932742   -0.029900196781764185   -0.018902363191479296
0.3009205787479029   0.034634827118319625   0.010438670438198926
0.3009205787479029   0.034634827118319625   0.010438670438198926
0.3009205787479029   0.034634827118319625   0.010438670438198926
0.3009205787479029   0.034634827118319625   0.010438670438198926
0.2014848104396081   0.00444023976815601   -0.005495636197482064
0.2014848104396081   0.00444023976815601   -0.005495636197482064
0.2014848104396081   0.00444023976815601   -0.005495636197482064
0.2014848104396081   0.00444023976815601   -0.005495636197482064
0.28928593694300475   0.005814674534726887   -0.018914386002701296
0.28928593694300475   0.005814674534726887   -0.018914386002701296
0.28928593694300475   0.005814674534726887   -0.018914386002701296
0.28928593694300475   0.005814674534726887   -0.018914386002701296
0.12211478379519411   -0.0012994597572029004   0.009573031013295083
0.12211478379519411   -0.0012994597572029004   0.009573031013295083
0.12211478379519411   -0.0012994597572029004   0.009573031013295083
0.12211478379519411   -0.0012994597572029004   0.009573031013295083
0.1018783998927074   -0.03331912603264494   -0.01612405187700347
0.1018783998927074   -0.03331912603264494   -0.01612405187700347
0.1018783998927074   -0.03331912603264494   -0.01612405187700347
0.1018783998927074   -0.03331912603264494   -0.01612405187700347
0.28638955866807225   0.029777840984385226   0.01351172701109742
0.28638955866807225   0.029777840984385226   0.01351172701109742
0.28638955866807225   0.029777840984385226   0.01351172701109742
0.28638955866807225   0.029777840984385226   0.01351172701109742
0.1924898893112895   -0.0012306882606226768   -0.008823754035158105
0.1924898893112895   -0.0012306882606226768   -0.008823754035158105
0.1924898893112895   -0.0012306882606226768   -0.008823754035158105
0.1924898893112895   -0.0012306882606226768   -0.008823754035158105
0.27493147583887506   0.0014301085849067544   -0.015430954735412634
0.27493147583887506   0.0014301085849067544   -0.015430954735412634
0.27493147583887506   0.0014301085849067544   -0.015430954735412634
0.27493147583887506   0.0014301085849067544   -0.015430954735412634
0.1130065622352464   -0.005301314119824926   0.011498947922872503
0.1130065622352464   -0.005301314119824926   0.011498947922872503
0.1130065622352464   -0.005301314119824926   0.011498947922872503
0.1130065622352464   -0.005301314119824926   0.011498947922872503
0.09401093274973268   -0.03631120874757991   -0.013449394597007539
0.09401093274973268   -0.03631120874757991   -0.013449394597007539
0.09401093274973268   -0.03631120874757991   -0.013449394597007539
0.09401093274973268   -0.03631120874757991   -0.013449394597007539
0.2693951789302764   0.023470896134444356   0.015468259782907412
0.2693951789302764   0.023470896134444356   0.015468259782907412
0.2693951789302764   0.023470896134444356   0.015468259782907412
0.2693951789302764   0.023470896134444356   0.015468259782907412
0.17690669276096516   -0.005839196649450991   -0.013455951898974009
0.17690669276096516   -0.005839196649450991   -0.013455951898974009
0.17690669276096516   -0.005839196649450991   -0.013455951898974009
0.17690669276096516   -0.005839196649450991   -0.013455951898974009
0.13255605320644906   0.025377755626399115   -0.0034754735784223085
0.13255605320644906   0.025377755626399115   -0.0034754735784223085
0.13255605320644906   0.025377755626399115   -0.0034754735784223085
0.13255605320644906   0.025377755626399115   -0.0034754735784223085
-0.040088049124882584   0.0018832326567589878   0.0010598833098608247
-0.040088049124882584   0.0018832326567589878   0.0010598833098608247
-0.040088049124882584   0.0018832326567589878   0.0010598833098608247
-0.040088049124882584   0.0018832326567589878   0.0010598833098608247
-0.05429225965402418   -0.02087012808832107   -0.011700544048905984
-0.05429225965402418   -0.02087012808832107   -0.011700544048905984
-0.05429225965402418   -0.02087012808832107   -0.011700544048905984
-0.05429225965402418   -0.02087012808832107   -0.011700544048905984
0.1290712702702035   0.030447179542543057   0.01260882408859603
0.1290712702702035   0.030447179542543057   0.01260882408859603
0.1290712702702035   0.030447179542543057   0.01260882408859603
0.1290712702702035   0.030447179542543057   0.01260882408859603
0.04090028496403574   0.008756403257957238   0.0015840451003101734
0.04090028496403574   0.008756403257957238   0.0015840451003101734
0.04090028496403574   0.008756403257957238   0.0015840451003101734
0.04090028496403574   0.008756403257957238   0.0015840451003101734
0.12342577893865278   0.016649414862224342   -0.0018208678888405388
0.12342577893865278   0.016649414862224342   -0.0018208678888405388
0.12342577893865278   0.016649414862224342   -0.0018208678888405388
0.12342577893865278   0.016649414862224342   -0.0018208678888405388
-0.04873551836113847   -0.007161113446672765   0.002374147773874234
-0.04873551836113847   -0.007161113446672765   0.002374147773874234
-0.04873551836113847   -0.007161113446672765   0.002374147773874234
-0.04873551836113847   -0.007161113446672765   0.002374147773874234
-0.062490368793081674   -0.027730164696680742   -0.009496711101797083
-0.062490368793081674   -0.027730164696680742   -0.009496711101797083
-0.062490368793081674   -0.027730164696680742   -0.009496711101797083
-0.062490368793081674   -0.027730164696680742   -0.009496711101797083
0.1190074251687872   0.02249208102608113   0.013709867444670511
0.1190074251687872   0.02249208102608113   0.013709867444670511
0.1190074251687872   0.02249208102608113   0.013709867444670511
0.1190074251687872   0.02249208102608113   0.013709867444670511
0.030752606099344687   0.00094514414627402   -0.0021674925645593143
0.030752606099344687   0.00094514414627402   -0.0021674925645593143
0.030752606099344687   0.00094514414627402   -0.0021674925645593143
0.030752606099344687   0.00094514414627402   -0.0021674925645593143
0.11354057049539053   0.009290750335105307   -0.00042307523133902234
0.11354057049539053   0.009290750335105307   -0.00042307523133902234
0.11354057049539053   0.009290750335105307   -0.00042307523133902234
0.11354057049539053   0.009290750335105307   -0.00042307523133902234
-0.05724186693110813   -0.014747186817128385   0.0037628203285182743
-0.05724186693110813   -0.014747186817128385   0.0037628203285182743
-0.05724186693110813   -0.014747186817128385   0.0037628203285182743
-0.05724186693110813   -0.014747186817128385   0.0037628203285182743
-0.07057439389110305   -0.034132989335085046   -0.007461556341500833
-0.07057439389110305   -0.034132989335085046   -0.007461556341500833
-0.07057439389110305   -0.034132989335085046   -0.007461556341500833
-0.07057439389110305   -0.034132989335085046   -0.007461556341500833
0.10992614105288513   0.014893593050676644   0.014921845120500564
0.10992614105288513   0.014893593050676644   0.014921845120500564
0.10992614105288513   0.014893593050676644   0.014921845120500564
0.10992614105288513   0.014893593050676644   0.014921845120500564
0.02266320702974256   -0.00548083422461043   -0.0054636031132190115
0.02266320702974256   -0.00548083422461043   -0.0054636031132190115
0.02266320702974256   -0.00548083422461043   -0.0054636031132190115
0.02266320702974256   -0.00548083422461043   -0.0054636031132190115
-0.03372407501309981   0.03181322335715896   0.002949763168374704
-0.03372407501309981   0.03181322335715896   0.002949763168374704
-0.03372407501309981   0.03181322335715896   0.002949763168374704
-0.03372407501309981   0.03181322335715896   0.002949763168374704
-0.20904843644738116   -0.005594234019906358   -0.006390417257025629
-0.20904843644738116   -0.005594234019906358   -0.006390417257025629
-0.20904843644738116   -0.005594234019906358   -0.006390417257025629
-0.20904843644738116   -0.005594234019906358   -0.006390417257025629
-0.21715958852919814   -0.012719028322659622   -0.00472354033036969
-0.21715958852919814   -0.012719028322659622   -0.00472354033036969
-0.21715958852919814   -0.012719028322659622   -0.00472354033036969
-0.21715958852919814   -0.012719028322659622   -0.00472354033036969
-0.042155987580420114   0.023200865952825653   0.004909822277966651
-0.042155987580420114   0.023200865952825653   0.004909822277966651
-0.042155987580420114   0.023200865952825653   0.004909822277966651
-0.042155987580420114   0.023200865952825653   0.004909822277966651
-0.12521149964170517   0.009018263788190255   0.0025029166887207913
-0.12521149964170517   0.009018263788190255   0.0025029166887207913
-0.12521149964170517   0.009018263788190255   0.0025029166887207913
-0.12521149964170517   0.009018263788190255   0.0025029166887207913
-0.04191875218358492   0.024277683379609005   0.005019181835360218
-0.04191875218358492   0.024277683379609005   0.005019181835360218
-0.04191875218358492   0.024277683379609005   0.005019181835360218
-0.04191875218358492   0.024277683379609005   0.005019181835360218
-0.21742632493259512   -0.013825346756004588   -0.00495090391400955
-0.21742632493259512   -0.013825346756004588   -0.00495090391400955
-0.21742632493259512   -0.013825346756004588   -0.00495090391400955
-0.21742632493259512   -0.013825346756004588   -0.00495090391400955
-0.2254463820845491   -0.020193518591468715   -0.002768089950088301
-0.2254463820845491   -0.020193518591468715   -0.002768089950088301
-0.2254463820845491   -0.020193518591468715   -0.002768089950088301
-0.2254463820845491   -0.020193518591468715   -0.002768089950088301
-0.05076111049477612   0.015015136380473955   0.006404279312575952
-0.05076111049477612   0.015015136380473955   0.006404279312575952
-0.05076111049477612   0.015015136380473955   0.006404279312575952
-0.05076111049477612   0.015015136380473955   0.006404279312575952
-0.1337292772082607   0.0017225326827086593   -0.0007128868574974873
-0.1337292772082607   0.0017225326827086593   -0.0007128868574974873
-0.1337292772082607   0.0017225326827086593   -0.0007128868574974873
-0.1337292772082607   0.0017225326827086593   -0.0007128868574974873
-0.050347410670652466   0.016731230536718253   0.006756684276949943
-0.050347410670652466   0.016731230536718253   0.006756684276949943
-0.050347410670652466   0.016731230536718253   0.006756684276949943
-0.050347410670652466   0.016731230536718253   0.006756684276949943
-0.22600153358997754   -0.022051064429017837   -0.0036863016396815624
-0.22600153358997754   -0.022051064429017837   -0.0036863016396815624
-0.22600153358997754   -0.022051064429017837   -0.0036863016396815624
-0.22600153358997754   -0.022051064429017837   -0.0036863016396815624
-0.2335856853943014   -0.027327510567507915   -0.000860785212820351
-0.2335856853943014   -0.027327510567507915   -0.000860785212820351
-0.2335856853943014   -0.027327510567507915   -0.000860785212820351
-0.2335856853943014   -0.027327510567507915   -0.000860785212820351
-0.05930006311518484   0.007063741456562075   0.00771336674644112
-0.05930006311518484   0.007063741456562075   0.00771336674644112
-0.05930006311518484   0.007063741456562075   0.00771336674644112
-0.05930006311518484   0.007063741456562075   0.00771336674644112
-0.1426048740077185   -0.005578477395879324   -0.004202821259455372
-0.1426048740077185   -0.005578477395879324   -0.004202821259455372
-0.1426048740077185   -0.005578477395879324   -0.004202821259455372
-0.1426048740077185   -0.005578477395879324   -0.004202821259455372
-0.1973227031770874   0.037380310558293814   0.009263704516243147
-0.1973227031770874   0.037380310558293814   0.009263704516243147
-0.1973227031770874   0.037380310558293814   0.009263704516243147
-0.1973227031770874   0.037380310558293814   0.009263704516243147
-0.3753139404620016   -0.01306954693560576   -0.01291128472295024
-0.3753139404620016   -0.01306954693560576   -0.01291128472295024
-0.3753139404620016   -0.01306954693560576   -0.01291128472295024
-0.3753139404620016   -0.01306954693560576   -0.01291128472295024
-0.37834051737202873   -0.006131324965346907   0.0027457058285514785
-0.37834051737202873   -0.006131324965346907   0.0027457058285514785
-0.37834051737202873   -0.006131324965346907   0.0027457058285514785
-0.37834051737202873   -0.006131324965346907   0.0027457058285514785
-0.2111740130486828   0.015151662102371843   -0.002666353352830317
-0.2111740130486828   0.015151662102371843   -0.002666353352830317
-0.2111740130486828   0.015151662102371843   -0.002666353352830317
-0.2111740130486828   0.015151662102371843   -0.002666353352830317
-0.28878749998944975   0.00840570012598034   0.003614319968145329
-0.28878749998944975   0.00840570012598034   0.003614319968145329
-0.28878749998944975   0.00840570012598034   0.003614319968145329
-0.28878749998944975   0.00840570012598034   0.003614319968145329
-0.20537132546275066   0.030177601322202575   0.011321145357005454
-0.20537132546275066   0.030177601322202575   0.011321145357005454
-0.20537132546275066   0.030177601322202575   0.011321145357005454
-0.20537132546275066   0.030177601322202575   0.011321145357005454
-0.38440668805262557   -0.021420747279836824   -0.012295725259946308
-0.38440668805262557   -0.021420747279836824   -0.012295725259946308
-0.38440668805262557   -0.021420747279836824   -0.012295725259946308
-0.38440668805262557   -0.021420747279836824   -0.012295725259946308
-0.3881203562627686   -0.013539275801792108   0.0036415710374592646
-0.3881203562627686   -0.013539275801792108   0.0036415710374592646
-0.3881203562627686   -0.013539275801792108   0.0036415710374592646
-0.3881203562627686   -0.013539275801792108   0.0036415710374592646
-0.21955193085124755   0.007601336142903516   -0.0010906885179585175
-0.21955193085124755   0.007601336142903516   -0.0010906885179585175
-0.21955193085124755   0.007601336142903516   -0.0010906885179585175
-0.21955193085124755   0.007601336142903516   -0.0010906885179585175
-0.2959101981651696   0.0018175117458003182   0.0003978730865666323
-0.2959101981651696   0.0018175117458003182   0.0003978730865666323
-0.2959101981651696   0.0018175117458003182   0.0003978730865666323
-0.2959101981651696   0.0018175117458003182   0.0003978730865666323
-0.2135383073005939   0.023303810715662017   0.013274954662555145
-0.2135383073005939   0.023303810715662017   0.013274954662555145
-0.2135383073005939   0.023303810715662017   0.013274954662555145
-0.2135383073005939   0.023303810715662017   0.013274954662555145
-0.3941622652929205   -0.02927003585404881   -0.010837214061047195
-0.3941622652929205   -0.02927003585404881   -0.010837214061047195
-0.3941622652929205   -0.02927003585404881   -0.010837214061047195
-0.3941622652929205   -0.02927003585404881   -0.010837214061047195
-0.3968089175877491   -0.021458818160684873   0.005687617586036413
-0.3968089175877491   -0.021458818160684873   0.005687617586036413
-0.3968089175877491   -0.021458818160684873   0.005687617586036413
-0.3968089175877491   -0.021458818160684873   0.005687617586036413
-0.22808010930751552   -0.0008071762075142416   0.00014676086111146437
-0.22808010930751552   -0.0008071762075142416   0.00014676086111146437
-0.22808010930751552   -0.0008071762075142416   0.00014676086111146437
-0.22808010930751552   -0.0008071762075142416   0.00014676086111146437
-0.3067369444889209   -0.005892564001262819   -0.0033604051906929115
-0.3067369444889209   -0.005892564001262819   -0.0033604051906929115
-0.3067369444889209   -0.005892564001262819   -0.0033604051906929115
-0.3067369444889209   -0.005892564001262819   -0.0033604051906929115
-0.3602782501297079   0.0346776631106895   0.014519956892222931
-0.3602782501297079   0.0346776631106895   0.014519956892222931
-0.3602782501297079   0.0346776631106895   0.014519956892222931
-0.3602782501297079   0.0346776631106895   0.014519956892222931
-0.5324623342569379   -0.024641896493739907   -0.016552259811048634
-0.5324623342569379   -0.024641896493739907   -0.016552259811048634
-0.5324623342569379   -0.024641896493739907   -0.016552259811048634
-0.5324623342569379   -0.024641896493739907   -0.016552259811048634
-0.5374194331016737   -0.0011601975339202153   0.014365004719729818
-0.5374194331016737   -0.0011601975339202153   0.014365004719729818
-0.5374194331016737   -0.0011601975339202153   0.014365004719729818
-0.5374194331016737   -0.0011601975339202153   0.014365004719729818
-0.37855071953042735   0.005423417683933535   -0.009860047612727532
-0.37855071953042735   0.005423417683933535   -0.009860047612727532
-0.37855071953042735   0.005423417683933535   -0.009860047612727532
-0.37855071953042735   0.005423417683933535   -0.009860047612727532
-0.43223118256215154   0.00788896258836623   0.01104492128774726
-0.43223118256215154   0.00788896258836623   0.01104492128774726
-0.43223118256215154   0.00788896258836623   0.01104492128774726
-0.43223118256215154   0.00788896258836623   0.01104492128774726
-0.36756371905162144   0.03336468235432678   0.01713369011091248
-0.36756371905162144   0.03336468235432678   0.01713369011091248
-0.36756371905162144   0.03336468235432678   0.01713369011091248
-0.36756371905162144   0.03336468235432678   0.01713369011091248
-0.5486346191459515   -0.02932964776978661   -0.013541475265788798
-0.5486346191459515   -0.02932964776978661   -0.013541475265788798
-0.5486346191459515   -0.02932964776978661   -0.013541475265788798
-0.5486346191459515   -0.02932964776978661   -0.013541475265788798
-0.5512691667858354   -0.005246563842285362   0.018089938643247545
-0.5512691667858354   -0.005246563842285362   0.018089938643247545
-0.5512691667858354   -0.005246563842285362   0.018089938643247545
-0.5512691667858354   -0.005246563842285362   0.018089938643247545
-0.38756083105990535   0.0012852713795092757   -0.008385350129533141
-0.38756083105990535   0.0012852713795092757   -0.008385350129533141
-0.38756083105990535   0.0012852713795092757   -0.008385350129533141
-0.38756083105990535   0.0012852713795092757   -0.008385350129533141
-0.45109752508358103   0.003209986001413548   0.005925123448225631
-0.45109752508358103   0.003209986001413548   0.005925123448225631
-0.45109752508358103   0.003209986001413548   0.005925123448225631
-0.45109752508358103   0.003209986001413548   0.005925123448225631
-0.37606467075490363   0.030210410158538425   0.020170312616449984
-0.37606467075490363   0.030210410158538425   0.020170312616449984
-0.37606467075490363   0.030210410158538425   0.020170312616449984
-0.37606467075490363   0.030210410158538425   0.020170312616449984
-0.5629286739415611   -0.03433504947203969   -0.011119111505622191
-0.5629286739415611   -0.03433504947203969   -0.011119111505622191
-0.5629286739415611   -0.03433504947203969   -0.011119111505622191
-0.5629286739415611   -0.03433504947203969   -0.011119111505622191
-0.5697960769845261   -0.01815557070553056   0.01809915286918421
-0.5697960769845261   -0.01815557070553056   0.01809915286918421
-0.5697960769845261   -0.01815557070553056   0.01809915286918421
-0.5697960769845261   -0.01815557070553056   0.01809915286918421
-0.3970046217991769   -0.009331702866920144   -0.00741801876487283
-0.3970046217991769   -0.009331702866920144   -0.00741801876487283
-0.3970046217991769   -0.009331702866920144   -0.00741801876487283
-0.3970046217991769   -0.009331702866920144   -0.00741801876487283
-0.4561746122955726   -0.0021769552518198787   0.003538293423882035
-0.4561746122955726   -0.0021769552518198787   0.003538293423882035
-0.4561746122955726   -0.0021769552518198787   0.003538293423882035
-0.4561746122955726   -0.0021769552518198787   0.003538293423882035
0.1730235804871292   0.010509738066765674   -0.0199657470242666
0.1730235804871292   0.010509738066765674   -0.0199657470242666
0.1730235804871292   0.010509738066765674   -0.0199657470242666
0.1730235804871292   0.010509738066765674   -0.0199657470242666
0.05141266229841285   0.01182315783505548   0.009459860208111473
0.05141266229841285   0.01182315783505548   0.009459860208111473
0.05141266229841285   0.01182315783505548   0.009459860208111473
0.05141266229841285   0.01182315783505548   0.009459860208111473
0.032881667110588854   -0.02458791227828134   -0.01763611490749187
0.032881667110588854   -0.02458791227828134   -0.01763611490749187
0.032881667110588854   -0.02458791227828134   -0.01763611490749187
0.032881667110588854   -0.02458791227828134   -0.01763611490749187
0.16850648345294306   0.02883817530672793   0.011377814508150886
0.16850648345294306   0.02883817530672793   0.011377814508150886
0.16850648345294306   0.02883817530672793   0.011377814508150886
0.16850648345294306   0.02883817530672793   0.011377814508150886
0.10028533724230397   0.0048329040187119025   -0.0022851134168585157
0.10028533724230397   0.0048329040187119025   -0.0022851134168585157
0.10028533724230397   0.0048329040187119025   -0.0022851134168585157
0.10028533724230397   0.0048329040187119025   -0.0022851134168585157
0.15680399064488207   5.3733804158462295e-05   -0.018350208029586063
0.15680399064488207   5.3733804158462295e-05   -0.018350208029586063
0.15680399064488207   5.3733804158462295e-05   -0.018350208029586063
0.15680399064488207   5.3733804158462295e-05   -0.018350208029586063
0.04421958569778438   0.0038319550034224964   0.010633610746782393
0.04421958569778438   0.0038319550034224964   0.010633610746782393
0.04421958569778438   0.0038319550034224964   0.010633610746782393
0.04421958569778438   0.0038319550034224964   0.010633610746782393
0.02589885170410541   -0.028025727605542693   -0.015015408974590708
0.02589885170410541   -0.028025727605542693   -0.015015408974590708
0.02589885170410541   -0.028025727605542693   -0.015015408974590708
0.02589885170410541   -0.028025727605542693   -0.015015408974590708
0.1559515376588333   0.024099357059384124   0.014668198110933773
0.1559515376588333   0.024099357059384124   0.014668198110933773
0.1559515376588333   0.024099357059384124   0.014668198110933773
0.1559515376588333   0.024099357059384124   0.014668198110933773
0.09162821847514423   -0.0005583913731539748   -0.005751029846221898
0.09162821847514423   -0.0005583913731539748   -0.005751029846221898
0.09162821847514423   -0.0005583913731539748   -0.005751029846221898
0.09162821847514423   -0.0005583913731539748   -0.005751029846221898
0.14430131531044268   -0.004365720336406066   -0.015117836235229509
0.14430131531044268   -0.004365720336406066   -0.015117836235229509
0.14430131531044268   -0.004365720336406066   -0.015117836235229509
0.14430131531044268   -0.004365720336406066   -0.015117836235229509
0.03705656561144683   -5.3158650804204996e-05   0.012800591607378616
0.03705656561144683   -5.3158650804204996e-05   0.012800591607378616
0.03705656561144683   -5.3158650804204996e-05   0.012800591607378616
0.03705656561144683   -5.3158650804204996e-05   0.012800591607378616
0.01966600959511923   -0.03207330171396475   -0.012523560123980895
0.01966600959511923   -0.03207330171396475   -0.012523560123980895
0.01966600959511923   -0.03207330171396475   -0.012523560123980895
0.01966600959511923   -0.03207330171396475   -0.012523560123980895
0.14037602036310443   0.016585715171352728   0.016327781386601504
0.14037602036310443   0.016585715171352728   0.016327781386601504
0.14037602036310443   0.016585715171352728   0.016327781386601504
0.14037602036310443   0.016585715171352728   0.016327781386601504
0.07939977617541179   -0.005317283054878361   -0.010035011836400152
0.07939977617541179   -0.005317283054878361   -0.010035011836400152
0.07939977617541179   -0.005317283054878361   -0.010035011836400152
0.07939977617541179   -0.005317283054878361   -0.010035011836400152
0.04972728741803478   0.01850462669301871   -0.00564848305174258
0.04972728741803478   0.01850462669301871   -0.00564848305174258
0.04972728741803478   0.01850462669301871   -0.00564848305174258
0.04972728741803478   0.01850462669301871   -0.00564848305174258
-0.06741887043531952   0.0056757399670087465   0.002223128661539164
-0.06741887043531952   0.0056757399670087465   0.002223128661539164
-0.06741887043531952   0.0056757399670087465   0.002223128661539164
-0.06741887043531952   0.0056757399670087465   0.002223128661539164
-0.07936743789425577   -0.015830057399105337   -0.01033865245518668
-0.07936743789425577   -0.015830057399105337   -0.01033865245518668
-0.07936743789425577   -0.015830057399105337   -0.01033865245518668
-0.07936743789425577   -0.015830057399105337   -0.01033865245518668
0.04811602038537161   0.022926532441374093   0.011021206746766949
0.04811602038537161   0.022926532441374093   0.011021206746766949
0.04811602038537161   0.022926532441374093   0.011021206746766949
0.04811602038537161   0.022926532441374093   0.011021206746766949
-0.012657714621067602   0.007483403962987051   0.0019696326182315166
-0.012657714621067602   0.007483403962987051   0.0019696326182315166
-0.012657714621067602   0.007483403962987051   0.0019696326182315166
-0.012657714621067602   0.007483403962987051   0.0019696326182315166
0.04245194918540383   0.009772522621270251   -0.004145139432968342
0.04245194918540383   0.009772522621270251   -0.004145139432968342
0.04245194918540383   0.009772522621270251   -0.004145139432968342
0.04245194918540383   0.009772522621270251   -0.004145139432968342
-0.07401893732328906   -0.0029916182080025906   0.0035654112085441833
-0.07401893732328906   -0.0029916182080025906   0.0035654112085441833
-0.07401893732328906   -0.0029916182080025906   0.0035654112085441833
-0.07401893732328906   -0.0029916182080025906   0.0035654112085441833
-0.08561001248843937   -0.022799047569529777   -0.008128337876157441
-0.08561001248843937   -0.022799047569529777   -0.008128337876157441
-0.08561001248843937   -0.022799047569529777   -0.008128337876157441
-0.08561001248843937   -0.022799047569529777   -0.008128337876157441
0.039926753122935164   0.015074764402406708   0.012023606111609395
0.039926753122935164   0.015074764402406708   0.012023606111609395
0.039926753122935164   0.015074764402406708   0.012023606111609395
0.039926753122935164   0.015074764402406708   0.012023606111609395
-0.020392924365808928   -7.537561624612176e-05   -0.0016571923787654288
-0.020392924365808928   -7.537561624612176e-05   -0.0016571923787654288
-0.020392924365808928   -7.537561624612176e-05   -0.0016571923787654288
-0.020392924365808928   -7.537561624612176e-05   -0.0016571923787654288
0.03442634357880727   0.0022942964815218453   -0.0026979736881459692
0.03442634357880727   0.0022942964815218453   -0.0026979736881459692
0.03442634357880727   0.0022942964815218453   -0.0026979736881459692
0.03442634357880727   0.0022942964815218453   -0.0026979736881459692
-0.08051873691031697   -0.010427713614650384   0.0049567060595760775
-0.08051873691031697   -0.010427713614650384   0.0049567060595760775
-0.08051873691031697   -0.010427713614650384   0.0049567060595760775
-0.08051873691031697   -0.010427713614650384   0.0049567060595760775
-0.09180216758511812   -0.029662914779995532   -0.006132385394857057
-0.09180216758511812   -0.029662914779995532   -0.006132385394857057
-0.09180216758511812   -0.029662914779995532   -0.006132385394857057
-0.09180216758511812   -0.029662914779995532   -0.006132385394857057
0.03275556635976632   0.007416582081738881   0.013434339903551128
0.03275556635976632   0.007416582081738881   0.013434339903551128
0.03275556635976632   0.007416582081738881   0.013434339903551128
0.03275556635976632   0.007416582081738881   0.013434339903551128
-0.027045334879876134   -0.006785738000486882   -0.005066188097236869
-0.027045334879876134   -0.006785738000486882   -0.005066188097236869
-0.027045334879876134   -0.006785738000486882   -0.005066188097236869
-0.027045334879876134   -0.006785738000486882   -0.005066188097236869
-0.06383338703323774   0.02491009703509901   0.0009161886038577972
-0.06383338703323774   0.02491009703509901   0.0009161886038577972
-0.06383338703323774   0.02491009703509901   0.0009161886038577972
-0.06383338703323774   0.02491009703509901   0.0009161886038577972
-0.18454925668874353   -0.002466002377044779   -0.005137716768040455
-0.18454925668874353   -0.002466002377044779   -0.005137716768040455
-0.18454925668874353   -0.002466002377044779   -0.005137716768040455
-0.18454925668874353   -0.002466002377044779   -0.005137716768040455
-0.19018987114913588   -0.00800817364082599   -0.0031014921215604067
-0.19018987114913588   -0.00800817364082599   -0.0031014921215604067
-0.19018987114913588   -0.00800817364082599   -0.0031014921215604067
-0.19018987114913588   -0.00800817364082599   -0.0031014921215604067
-0.07040889743591493   0.015111680974494099   0.0035123114629171514
-0.07040889743591493   0.015111680974494099   0.0035123114629171514
-0.07040889743591493   0.015111680974494099   0.0035123114629171514
-0.07040889743591493   0.015111680974494099   0.0035123114629171514
-0.12693628150846495   0.007217447173998248   0.00202220081689849
-0.12693628150846495   0.007217447173998248   0.00202220081689849
-0.12693628150846495   0.007217447173998248   0.00202220081689849
-0.12693628150846495   0.007217447173998248   0.00202220081689849
-0.07009200292912215   0.01722782618480339   0.0029806387865727296
-0.07009200292912215   0.01722782618480339   0.0029806387865727296
-0.07009200292912215   0.01722782618480339   0.0029806387865727296
-0.07009200292912215   0.01722782618480339   0.0029806387865727296
-0.1907849097102149   -0.010402462905419095   -0.00368239566236421
-0.1907849097102149   -0.010402462905419095   -0.00368239566236421
-0.1907849097102149   -0.010402462905419095   -0.00368239566236421
-0.1907849097102149   -0.010402462905419095   -0.00368239566236421
-0.19640893306820617   -0.015616411702826467   -0.0011056385304961409
-0.19640893306820617   -0.015616411702826467   -0.0011056385304961409
-0.19640893306820617   -0.015616411702826467   -0.0011056385304961409
-0.19640893306820617   -0.015616411702826467   -0.0011056385304961409
-0.0769952972497552   0.007148106569067652   0.004998084178664907
-0.0769952972497552   0.007148106569067652   0.004998084178664907
-0.0769952972497552   0.007148106569067652   0.004998084178664907
-0.0769952972497552   0.007148106569067652   0.004998084178664907
-0.1334206114059044   -1.902915458204882e-05   -0.001222619726022515
-0.1334206114059044   -1.902915458204882e-05   -0.001222619726022515
-0.1334206114059044   -1.902915458204882e-05   -0.001222619726022515
-0.1334206114059044   -1.902915458204882e-05   -0.001222619726022515
-0.07656972441725798   0.009522807262922092   0.004751247647298494
-0.07656972441725798   0.009522807262922092   0.004751247647298494
-0.07656972441725798   0.009522807262922092   0.004751247647298494
-0.07656972441725798   0.009522807262922092   0.004751247647298494
-0.19722917438622384   -0.018385780882201053   -0.002437475941209981
-0.19722917438622384   -0.018385780882201053   -0.002437475941209981
-0.19722917438622384   -0.018385780882201053   -0.002437475941209981
-0.19722917438622384   -0.018385780882201053   -0.002437475941209981
-0.20250213155058605   -0.02295269505104505   0.000833252643791387
-0.20250213155058605   -0.02295269505104505   0.000833252643791387
-0.20250213155058605   -0.02295269505104505   0.000833252643791387
-0.20250213155058605   -0.02295269505104505   0.000833252643791387
-0.08347688461257866   -0.0005162537951741951   0.006347368483018979
-0.08347688461257866   -0.0005162537951741951   0.006347368483018979
-0.08347688461257866   -0.0005162537951741951   0.006347368483018979
-0.08347688461257866   -0.0005162537951741951   0.006347368483018979
-0.14024881117618962   -0.007269203361295124   -0.004748697795358342
-0.14024881117618962   -0.007269203361295124   -0.004748697795358342
-0.14024881117618962   -0.007269203361295124   -0.004748697795358342
-0.14024881117618962   -0.007269203361295124   -0.004748697795358342
-0.1752778990280804   0.031058776772845506   0.0076942923853848995
-0.1752778990280804   0.031058776772845506   0.0076942923853848995
-0.1752778990280804   0.031058776772845506   0.0076942923853848995
-0.1752778990280804   0.031058776772845506   0.0076942923853848995
-0.2993740791420856   -0.009227586384677175   -0.011620092573560885
-0.2993740791420856   -0.009227586384677175   -0.011620092573560885
-0.2993740791420856   -0.009227586384677175   -0.011620092573560885
-0.2993740791420856   -0.009227586384677175   -0.011620092573560885
-0.2999230747136398   -0.0011549166638351316   0.004549814481076428
-0.2999230747136398   -0.0011549166638351316   0.004549814481076428
-0.2999230747136398   -0.0011549166638351316   0.004549814481076428
-0.2999230747136398   -0.0011549166638351316   0.004549814481076428
-0.18712671514894677   0.007805101852691204   -0.003598987614134002
-0.18712671514894677   0.007805101852691204   -0.003598987614134002
-0.18712671514894677   0.007805101852691204   -0.003598987614134002
-0.18712671514894677   0.007805101852691204   -0.003598987614134002
-0.2391682799124596   0.007094012599277048   0.0026264033996280783
-0.2391682799124596   0.007094012599277048   0.0026264033996280783
-0.2391682799124596   0.007094012599277048   0.0026264033996280783
-0.2391682799124596   0.007094012599277048   0.0026264033996280783
-0.1812923850500685   0.02361400943271165   0.00976375530023902
-0.1812923850500685   0.02361400943271165   0.00976375530023902
-0.1812923850500685   0.02361400943271165   0.00976375530023902
-0.1812923850500685   0.02361400943271165   0.00976375530023902
-0.3062881442818855   -0.01749456371322581   -0.010935886310765053
-0.3062881442818855   -0.01749456371322581   -0.010935886310765053
-0.3062881442818855   -0.01749456371322581   -0.010935886310765053
-0.3062881442818855   -0.01749456371322581   -0.010935886310765053
-0.30758664536758273   -0.008663523448089454   0.005619728043411832
-0.30758664536758273   -0.008663523448089454   0.005619728043411832
-0.30758664536758273   -0.008663523448089454   0.005619728043411832
-0.30758664536758273   -0.008663523448089454   0.005619728043411832
-0.19337845255600233   0.00045913664844374896   -0.0020287843207490303
-0.19337845255600233   0.00045913664844374896   -0.0020287843207490303
-0.19337845255600233   0.00045913664844374896   -0.0020287843207490303
-0.19337845255600233   0.00045913664844374896   -0.0020287843207490303
-0.24464802473664857   0.0003673808424123348   -0.0007702029614431727
-0.24464802473664857   0.0003673808424123348   -0.0007702029614431727
-0.24464802473664857   0.0003673808424123348   -0.0007702029614431727
-0.24464802473664857   0.0003673808424123348   -0.0007702029614431727
-0.18739000391813881   0.0166053152804354   0.01176728023657683
-0.18739000391813881   0.0166053152804354   0.01176728023657683
-0.18739000391813881   0.0166053152804354   0.01176728023657683
-0.18739000391813881   0.0166053152804354   0.01176728023657683
-0.31390700684895184   -0.025141614923582224   -0.009503987887944732
-0.31390700684895184   -0.025141614923582224   -0.009503987887944732
-0.31390700684895184   -0.025141614923582224   -0.009503987887944732
-0.31390700684895184   -0.025141614923582224   -0.009503987887944732
-0.31419037378571324   -0.016517028117849226   0.0077077657876342635
-0.31419037378571324   -0.016517028117849226   0.0077077657876342635
-0.31419037378571324   -0.016517028117849226   0.0077077657876342635
-0.31419037378571324   -0.016517028117849226   0.0077077657876342635
-0.1997123664479686   -0.00742804893087453   -0.0007425679632937221
-0.1997123664479686   -0.00742804893087453   -0.0007425679632937221
-0.1997123664479686   -0.00742804893087453   -0.0007425679632937221
-0.1997123664479686   -0.00742804893087453   -0.0007425679632937221
-0.25288970639691816   -0.0070140109741349335   -0.004492260775121175
-0.25288970639691816   -0.0070140109741349335   -0.004492260775121175
-0.25288970639691816   -0.0070140109741349335   -0.004492260775121175
-0.25288970639691816   -0.0070140109741349335   -0.004492260775121175
-0.2863588162014787   0.03061248852376751   0.013616147221029187
-0.2863588162014787   0.03061248852376751   0.013616147221029187
-0.2863588162014787   0.03061248852376751   0.013616147221029187
-0.2863588162014787   0.03061248852376751   0.013616147221029187
-0.404450962041392   -0.018769700231367106   -0.017416863404546717
-0.404450962041392   -0.018769700231367106   -0.017416863404546717
-0.404450962041392   -0.018769700231367106   -0.017416863404546717
-0.404450962041392   -0.018769700231367106   -0.017416863404546717
-0.4073263250257611   0.004501010806454334   0.014303523495225574
-0.4073263250257611   0.004501010806454334   0.014303523495225574
-0.4073263250257611   0.004501010806454334   0.014303523495225574
-0.4073263250257611   0.004501010806454334   0.014303523495225574
-0.3028499224113285   -0.0006413306006132907   -0.010598010070596787
-0.3028499224113285   -0.0006413306006132907   -0.010598010070596787
-0.3028499224113285   -0.0006413306006132907   -0.010598010070596787
-0.3028499224113285   -0.0006413306006132907   -0.010598010070596787
-0.3351367348093685   0.00718154354430936   0.008236775835434373
-0.3351367348093685   0.00718154354430936   0.008236775835434373
-0.3351367348093685   0.00718154354430936   0.008236775835434373
-0.3351367348093685   0.00718154354430936   0.008236775835434373
-0.2917869122747885   0.027969442216588064   0.01610626779490619
-0.2917869122747885   0.027969442216588064   0.01610626779490619
-0.2917869122747885   0.027969442216588064   0.01610626779490619
-0.2917869122747885   0.027969442216588064   0.01610626779490619
-0.41895694494793273   -0.02467737179637533   -0.014671193512802803
-0.41895694494793273   -0.02467737179637533   -0.014671193512802803
-0.41895694494793273   -0.02467737179637533   -0.014671193512802803
-0.41895694494793273   -0.02467737179637533   -0.014671193512802803
-0.41929256602691695   0.00026517436917566917   0.01824589978581046
-0.41929256602691695   0.00026517436917566917   0.01824589978581046
-0.41929256602691695   0.00026517436917566917   0.01824589978581046
-0.41929256602691695   0.00026517436917566917   0.01824589978581046
-0.3097409186414268   -0.004739694444897705   -0.009075467329007682
-0.3097409186414268   -0.004739694444897705   -0.009075467329007682
-0.3097409186414268   -0.004739694444897705   -0.009075467329007682
-0.3097409186414268   -0.004739694444897705   -0.009075467329007682
-0.3505577138584363   0.002190545907001809   0.003132682884022537
-0.3505577138584363   0.002190545907001809   0.003132682884022537
-0.3505577138584363   0.002190545907001809   0.003132682884022537
-0.3505577138584363   0.002190545907001809   0.003132682884022537
-0.29821883093356727   0.024658163986468917   0.019137112778926997
-0.29821883093356727   0.024658163986468917   0.019137112778926997
-0.29821883093356727   0.024658163986468917   0.019137112778926997
-0.29821883093356727   0.024658163986468917   0.019137112778926997
-0.43134648061162695   -0.02966451093904017   -0.012093987829519776
-0.43134648061162695   -0.02966451093904017   -0.012093987829519776
-0.43134648061162695   -0.02966451093904017   -0.012093987829519776
-0.43134648061162695   -0.02966451093904017   -0.012093987829519776
-0.4358145013229631   -0.011849925454376853   0.018800747821629868
-0.4358145013229631   -0.011849925454376853   0.018800747821629868
-0.4358145013229631   -0.011849925454376853   0.018800747821629868
-0.4358145013229631   -0.011849925454376853   0.018800747821629868
-0.31686091566296865   -0.014246270875390037   -0.007915700841109754
-0.31686091566296865   -0.014246270875390037   -0.007915700841109754
-0.31686091566296865   -0.014246270875390037   -0.007915700841109754
-0.31686091566296865   -0.014246270875390037   -0.007915700841109754
-0.3553957315620787   -0.0031573814862501937   0.0001382054863156429
-0.3553957315620787   -0.0031573814862501937   0.0001382054863156429
-0.3553957315620787   -0.0031573814862501937   0.0001382054863156429
-0.3553957315620787   -0.0031573814862501937   0.0001382054863156429
0.03697616805459104   0.003025739810516458   -0.020090735670761833
0.03697616805459104   0.003025739810516458   -0.020090735670761833
0.03697616805459104   0.003025739810516458   -0.020090735670761833
0.03697616805459104   0.003025739810516458   -0.020090735670761833
-0.02929220044126344   0.01492377309128919   0.01018980774601912
-0.02929220044126344   0.01492377309128919   0.01018980774601912
-0.02929220044126344   0.01492377309128919   0.01018980774601912
-0.02929220044126344   0.01492377309128919   0.01018980774601912
-0.045674125433239475   -0.01951868245123094   -0.016225865395476272
-0.045674125433239475   -0.01951868245123094   -0.016225865395476272
-0.045674125433239475   -0.01951868245123094   -0.016225865395476272
-0.045674125433239475   -0.01951868245123094   -0.016225865395476272
0.03449512485770184   0.02179881322463042   0.012464161071983823
0.03449512485770184   0.02179881322463042   0.012464161071983823
0.03449512485770184   0.02179881322463042   0.012464161071983823
0.03449512485770184   0.02179881322463042   0.012464161071983823
-0.0018009643962545812   0.004792739128196862   0.001712025323376397
-0.0018009643962545812   0.004792739128196862   0.001712025323376397
-0.0018009643962545812   0.004792739128196862   0.001712025323376397
-0.0018009643962545812   0.004792739128196862   0.001712025323376397
0.02280262635425515   -0.006181718882300507   -0.01801779933831873
0.02280262635425515   -0.006181718882300507   -0.01801779933831873
0.02280262635425515   -0.006181718882300507   -0.01801779933831873
0.02280262635425515   -0.006181718882300507   -0.01801779933831873
-0.03466061979458348   0.007782856790909289   0.011540123555663494
-0.03466061979458348   0.007782856790909289   0.011540123555663494
-0.03466061979458348   0.007782856790909289   0.011540123555663494
-0.03466061979458348   0.007782856790909289   0.011540123555663494
-0.051100326595308075   -0.02300417495431053   -0.013797597703382753
-0.051100326595308075   -0.02300417495431053   -0.013797597703382753
-0.051100326595308075   -0.02300417495431053   -0.013797597703382753
-0.051100326595308075   -0.02300417495431053   -0.013797597703382753
0.023392466723662225   0.01708415920110039   0.017148588844759376
0.023392466723662225   0.01708415920110039   0.017148588844759376
0.023392466723662225   0.01708415920110039   0.017148588844759376
0.023392466723662225   0.01708415920110039   0.017148588844759376
-0.01046595240457076   -0.0004364293855352217   -0.0022889931376565533
-0.01046595240457076   -0.0004364293855352217   -0.0022889931376565533
-0.01046595240457076   -0.0004364293855352217   -0.0022889931376565533
-0.01046595240457076   -0.0004364293855352217   -0.0022889931376565533
0.011415142400860764   -0.010726946940024764   -0.014926926628122773
0.011415142400860764   -0.010726946940024764   -0.014926926628122773
0.011415142400860764   -0.010726946940024764   -0.014926926628122773
0.011415142400860764   -0.010726946940024764   -0.014926926628122773
-0.040070825014900835   0.0038591084444202905   0.01448662679992193
-0.040070825014900835   0.0038591084444202905   0.01448662679992193
-0.040070825014900835   0.0038591084444202905   0.01448662679992193
-0.040070825014900835   0.0038591084444202905   0.01448662679992193
-0.05606689138101668   -0.028261580278106692   -0.011465784116574536
-0.05606689138101668   -0.028261580278106692   -0.011465784116574536
-0.05606689138101668   -0.028261580278106692   -0.011465784116574536
-0.05606689138101668   -0.028261580278106692   -0.011465784116574536
0.007970223684537708   0.007268783744025305   0.01960101695511693
0.007970223684537708   0.007268783744025305   0.01960101695511693
0.007970223684537708   0.007268783744025305   0.01960101695511693
0.007970223684537708   0.007268783744025305   0.01960101695511693
-0.019988319603239175   -0.005658965416542192   -0.006944054719901499
-0.019988319603239175   -0.005658965416542192   -0.006944054719901499
-0.019988319603239175   -0.005658965416542192   -0.006944054719901499
-0.019988319603239175   -0.005658965416542192   -0.006944054719901499
-0.03381446720325494   0.010377036905486657   -0.007874789878135849
-0.03381446720325494   0.010377036905486657   -0.007874789878135849
-0.03381446720325494   0.010377036905486657   -0.007874789878135849
-0.03381446720325494   0.010377036905486657   -0.007874789878135849
-0.09540022470695918   0.004034309256070862   0.0026120738446832525
-0.09540022470695918   0.004034309256070862   0.0026120738446832525
-0.09540022470695918   0.004034309256070862   0.0026120738446832525
-0.09540022470695918   0.004034309256070862   0.0026120738446832525
-0.10390638253280293   -0.011379264418631308   -0.00848537463508553
-0.10390638253280293   -0.011379264418631308   -0.00848537463508553
-0.10390638253280293   -0.011379264418631308   -0.00848537463508553
-0.10390638253280293   -0.011379264418631308   -0.00848537463508553
-0.034858769289710524   0.010200411260721383   0.008131821610216142
-0.034858769289710524   0.010200411260721383   0.008131821610216142
-0.034858769289710524   0.010200411260721383   0.008131821610216142
-0.034858769289710524   0.010200411260721383   0.008131821610216142
-0.06687860218906663   0.0031001558322665233   0.0016889422027035646
-0.06687860218906663   0.0031001558322665233   0.0016889422027035646
-0.06687860218906663   0.0031001558322665233   0.0016889422027035646
-0.06687860218906663   0.0031001558322665233   0.0016889422027035646
-0.03943846495391868   0.0019151207784489817   -0.0064813662285529705
-0.03943846495391868   0.0019151207784489817   -0.0064813662285529705
-0.03943846495391868   0.0019151207784489817   -0.0064813662285529705
-0.03943846495391868   0.0019151207784489817   -0.0064813662285529705
-0.09989259582774448   -0.0036598828955116264   0.0038641773670850636
-0.09989259582774448   -0.0036598828955116264   0.0038641773670850636
-0.09989259582774448   -0.0036598828955116264   0.0038641773670850636
-0.09989259582774448   -0.0036598828955116264   0.0038641773670850636
-0.10814357645363287   -0.018204438885844294   -0.006302080753092921
-0.10814357645363287   -0.018204438885844294   -0.006302080753092921
-0.10814357645363287   -0.018204438885844294   -0.006302080753092921
-0.10814357645363287   -0.018204438885844294   -0.006302080753092921
-0.04137529674143905   0.0026522998362838706   0.009171076775367295
-0.04137529674143905   0.0026522998362838706   0.009171076775367295
-0.04137529674143905   0.0026522998362838706   0.009171076775367295
-0.04137529674143905   0.0026522998362838706   0.009171076775367295
-0.07222830514431074   -0.0037813562417152603   -0.0017759369296106256
-0.07222830514431074   -0.0037813562417152603   -0.0017759369296106256
-0.07222830514431074   -0.0037813562417152603   -0.0017759369296106256
-0.07222830514431074   -0.0037813562417152603   -0.0017759369296106256
-0.045798690412313665   -0.005444803229591101   -0.004848788513130815
-0.045798690412313665   -0.005444803229591101   -0.004848788513130815
-0.045798690412313665   -0.005444803229591101   -0.004848788513130815
-0.045798690412313665   -0.005444803229591101   -0.004848788513130815
-0.10432950469313039   -0.01071665773034402   0.005280496893919186
-0.10432950469313039   -0.01071665773034402   0.005280496893919186
-0.10432950469313039   -0.01071665773034402   0.005280496893919186
-0.10432950469313039   -0.01071665773034402   0.005280496893919186
-0.11240862804869595   -0.02517736528093513   -0.0043712025013566665
-0.11240862804869595   -0.02517736528093513   -0.0043712025013566665
-0.11240862804869595   -0.02517736528093513   -0.0043712025013566665
-0.11240862804869595   -0.02517736528093513   -0.0043712025013566665
-0.0468331883776316   -0.004934318180206708   0.011375468802450377
-0.0468331883776316   -0.004934318180206708   0.011375468802450377
-0.0468331883776316   -0.004934318180206708   0.011375468802450377
-0.0468331883776316   -0.004934318180206708   0.011375468802450377
-0.07753667550899707   -0.010525981043268197   -0.005283315401526727
-0.07753667550899707   -0.010525981043268197   -0.005283315401526727
-0.07753667550899707   -0.010525981043268197   -0.005283315401526727
-0.07753667550899707   -0.010525981043268197   -0.005283315401526727
-0.09357634951081253   0.016591061857038823   -0.0008253027755534235
-0.09357634951081253   0.016591061857038823   -0.0008253027755534235
-0.09357634951081253   0.016591061857038823   -0.0008253027755534235
-0.09357634951081253   0.016591061857038823   -0.0008253027755534235
-0.16069071393276768   -0.005628022672635576   -0.004615347976349094
-0.16069071393276768   -0.005628022672635576   -0.004615347976349094
-0.16069071393276768   -0.005628022672635576   -0.004615347976349094
-0.16069071393276768   -0.005628022672635576   -0.004615347976349094
-0.16242620411731928   -0.004206483135454658   -0.0010612024054375835
-0.16242620411731928   -0.004206483135454658   -0.0010612024054375835
-0.16242620411731928   -0.004206483135454658   -0.0010612024054375835
-0.16242620411731928   -0.004206483135454658   -0.0010612024054375835
-0.09941781261386702   0.0013137634407277103   0.001264447100233053
-0.09941781261386702   0.0013137634407277103   0.001264447100233053
-0.09941781261386702   0.0013137634407277103   0.001264447100233053
-0.09941781261386702   0.0013137634407277103   0.001264447100233053
-0.12874993515117572   0.0018789647820726778   0.0006423138780890323
-0.12874993515117572   0.0018789647820726778   0.0006423138780890323
-0.12874993515117572   0.0018789647820726778   0.0006423138780890323
-0.12874993515117572   0.0018789647820726778   0.0006423138780890323
-0.0978542495567604   0.009166127852536173   0.0012298979739576651
-0.0978542495567604   0.009166127852536173   0.0012298979739576651
-0.0978542495567604   0.009166127852536173   0.0012298979739576651
-0.0978542495567604   0.009166127852536173   0.0012298979739576651
-0.16453713701141587   -0.012606217384253077   -0.0032161326271220245
-0.16453713701141587   -0.012606217384253077   -0.0032161326271220245
-0.16453713701141587   -0.012606217384253077   -0.0032161326271220245
-0.16453713701141587   -0.012606217384253077   -0.0032161326271220245
-0.16640634183210806   -0.011540580296112171   0.0009656944351186369
-0.16640634183210806   -0.011540580296112171   0.0009656944351186369
-0.16640634183210806   -0.011540580296112171   0.0009656944351186369
-0.16640634183210806   -0.011540580296112171   0.0009656944351186369
-0.10390015072139853   -0.005903361621018389   0.0026139706432529034
-0.10390015072139853   -0.005903361621018389   0.0026139706432529034
-0.10390015072139853   -0.005903361621018389   0.0026139706432529034
-0.10390015072139853   -0.005903361621018389   0.0026139706432529034
-0.1330544151297111   -0.004791801461668951   -0.002538001072948391
-0.1330544151297111   -0.004791801461668951   -0.002538001072948391
-0.1330544151297111   -0.004791801461668951   -0.002538001072948391
-0.1330544151297111   -0.004791801461668951   -0.002538001072948391
-0.10229876243209068   0.0016927556588519355   0.003024794809921799
-0.10229876243209068   0.0016927556588519355   0.003024794809921799
-0.10229876243209068   0.0016927556588519355   0.003024794809921799
-0.10229876243209068   0.0016927556588519355   0.003024794809921799
-0.16866866799320043   -0.019797635447767015   -0.0020888812186883278
-0.16866866799320043   -0.019797635447767015   -0.0020888812186883278
-0.16866866799320043   -0.019797635447767015   -0.0020888812186883278
-0.16866866799320043   -0.019797635447767015   -0.0020888812186883278
-0.17027940162486138   -0.018562816600767747   0.0029170714673492732
-0.17027940162486138   -0.018562816600767747   0.0029170714673492732
-0.17027940162486138   -0.018562816600767747   0.0029170714673492732
-0.17027940162486138   -0.018562816600767747   0.0029170714673492732
-0.1082165301931729   -0.012695418203880827   0.0041073396992033235
-0.1082165301931729   -0.012695418203880827   0.0041073396992033235
-0.1082165301931729   -0.012695418203880827   0.0041073396992033235
-0.1082165301931729   -0.012695418203880827   0.0041073396992033235
-0.13768611929426022   -0.011497112986197312   -0.005995092379975966
-0.13768611929426022   -0.011497112986197312   -0.005995092379975966
-0.13768611929426022   -0.011497112986197312   -0.005995092379975966
-0.13768611929426022   -0.011497112986197312   -0.005995092379975966
-0.15259210450231064   0.023752301965539513   0.00649737453776298
-0.15259210450231064   0.023752301965539513   0.00649737453776298
-0.15259210450231064   0.023752301965539513   0.00649737453776298
-0.15259210450231064   0.023752301965539513   0.00649737453776298
-0.2236282797989524   -0.009478553522184352   -0.010305030562929321
-0.2236282797989524   -0.009478553522184352   -0.010305030562929321
-0.2236282797989524   -0.009478553522184352   -0.010305030562929321
-0.2236282797989524   -0.009478553522184352   -0.010305030562929321
-0.2207397495295501   0.0031174485672642513   0.006575780339334595
-0.2207397495295501   0.0031174485672642513   0.006575780339334595
-0.2207397495295501   0.0031174485672642513   0.006575780339334595
-0.2207397495295501   0.0031174485672642513   0.006575780339334595
-0.16287663900375032   -0.002994109597524157   -0.004525750375523286
-0.16287663900375032   -0.002994109597524157   -0.004525750375523286
-0.16287663900375032   -0.002994109597524157   -0.004525750375523286
-0.16287663900375032   -0.002994109597524157   -0.004525750375523286
-0.18926587255733193   0.003612080118959596   0.0009902570724458874
-0.18926587255733193   0.003612080118959596   0.0009902570724458874
-0.18926587255733193   0.003612080118959596   0.0009902570724458874
-0.18926587255733193   0.003612080118959596   0.0009902570724458874
-0.15638481854736008   0.016384272631344197   0.0085549696775596
-0.15638481854736008   0.016384272631344197   0.0085549696775596
-0.15638481854736008   0.016384272631344197   0.0085549696775596
-0.15638481854736008   0.016384272631344197   0.0085549696775596
-0.22803194159959628   -0.01706130527526383   -0.009706426168368067
-0.22803194159959628   -0.01706130527526383   -0.009706426168368067
-0.22803194159959628   -0.01706130527526383   -0.009706426168368067
-0.22803194159959628   -0.01706130527526383   -0.009706426168368067
-0.22606045524503549   -0.004114368934753164   0.007785690452299578
-0.22606045524503549   -0.004114368934753164   0.007785690452299578
-0.22606045524503549   -0.004114368934753164   0.007785690452299578
-0.22606045524503549   -0.004114368934753164   0.007785690452299578
-0.1668210617261295   -0.009580676031572241   -0.003067809299528641
-0.1668210617261295   -0.009580676031572241   -0.003067809299528641
-0.1668210617261295   -0.009580676031572241   -0.003067809299528641
-0.1668210617261295   -0.009580676031572241   -0.003067809299528641
-0.19287132053028289   -0.0028111337408711426   -0.0024561441986886024
-0.19287132053028289   -0.0028111337408711426   -0.0024561441986886024
-0.19287132053028289   -0.0028111337408711426   -0.0024561441986886024
-0.19287132053028289   -0.0028111337408711426   -0.0024561441986886024
-0.16026093319537885   0.009599024041042875   0.010553133281607804
-0.16026093319537885   0.009599024041042875   0.010553133281607804
-0.16026093319537885   0.009599024041042875   0.010553133281607804
-0.16026093319537885   0.009599024041042875   0.010553133281607804
-0.23325265096294043   -0.023926136194520324   -0.008363520877458131
-0.23325265096294043   -0.023926136194520324   -0.008363520877458131
-0.23325265096294043   -0.023926136194520324   -0.008363520877458131
-0.23325265096294043   -0.023926136194520324   -0.008363520877458131
-0.2303815864955591   -0.011424474494000768   0.00994452426865021
-0.2303815864955591   -0.011424474494000768   0.00994452426865021
-0.2303815864955591   -0.011424474494000768   0.00994452426865021
-0.2303815864955591   -0.011424474494000768   0.00994452426865021
-0.17078458863816212   -0.016349284951497393   -0.0018223952484267402
-0.17078458863816212   -0.016349284951497393   -0.0018223952484267402
-0.17078458863816212   -0.016349284951497393   -0.0018223952484267402
-0.17078458863816212   -0.016349284951497393   -0.0018223952484267402
-0.19833031406057108   -0.009403161322939307   -0.006004069358039852
-0.19833031406057108   -0.009403161322939307   -0.006004069358039852
-0.19833031406057108   -0.009403161322939307   -0.006004069358039852
-0.19833031406057108   -0.009403161322939307   -0.006004069358039852
-0.21193948514947397   0.02579003805031794   0.01287035111196046
-0.21193948514947397   0.02579003805031794   0.01287035111196046
-0.21193948514947397   0.02579003805031794   0.01287035111196046
-0.21193948514947397   0.02579003805031794   0.01287035111196046
-0.2747812901129022   -0.013901528017666177   -0.017037322717580704
-0.2747812901129022   -0.013901528017666177   -0.017037322717580704
-0.2747812901129022   -0.013901528017666177   -0.017037322717580704
-0.2747812901129022   -0.013901528017666177   -0.017037322717580704
-0.2750604788550691   0.009874161229745985   0.01419000552494019
-0.2750604788550691   0.009874161229745985   0.01419000552494019
-0.2750604788550691   0.009874161229745985   0.01419000552494019
-0.2750604788550691   0.009874161229745985   0.01419000552494019
-0.22624129144164384   -0.007402132055699048   -0.010412348598170647
-0.22624129144164384   -0.007402132055699048   -0.010412348598170647
-0.22624129144164384   -0.007402132055699048   -0.010412348598170647
-0.22624129144164384   -0.007402132055699048   -0.010412348598170647
-0.2369455096362118   0.005962192552844456   0.0047351816842833416
-0.2369455096362118   0.005962192552844456   0.0047351816842833416
-0.2369455096362118   0.005962192552844456   0.0047351816842833416
-0.2369455096362118   0.005962192552844456   0.0047351816842833416
-0.21523463057206876   0.022037578766798654   0.015181244927203182
-0.21523463057206876   0.022037578766798654   0.015181244927203182
-0.21523463057206876   0.022037578766798654   0.015181244927203182
-0.21523463057206876   0.022037578766798654   0.015181244927203182
-0.2869044113128722   -0.020402821180980385   -0.014752674353348913
-0.2869044113128722   -0.020402821180980385   -0.014752674353348913
-0.2869044113128722   -0.020402821180980385   -0.014752674353348913
-0.2869044113128722   -0.020402821180980385   -0.014752674353348913
-0.28473137016922406   0.005728320703941733   0.01825505994300224
-0.28473137016922406   0.005728320703941733   0.01825505994300224
-0.28473137016922406   0.005728320703941733   0.01825505994300224
-0.28473137016922406   0.005728320703941733   0.01825505994300224
-0.23085280504286454   -0.011193408058025094   -0.009097019413573928
-0.23085280504286454   -0.011193408058025094   -0.009097019413573928
-0.23085280504286454   -0.011193408058025094   -0.009097019413573928
-0.23085280504286454   -0.011193408058025094   -0.009097019413573928
-0.24852334435542184   0.0009402479390701185   -9.186304112550336e-05
-0.24852334435542184   0.0009402479390701185   -9.186304112550336e-05
-0.24852334435542184   0.0009402479390701185   -9.186304112550336e-05
-0.24852334435542184   0.0009402479390701185   -9.186304112550336e-05
-0.21940265527178635   0.018779263309656034   0.01818105807413602
-0.21940265527178635   0.018779263309656034   0.01818105807413602
-0.21940265527178635   0.018779263309656034   0.01818105807413602
-0.21940265527178635   0.018779263309656034   0.01818105807413602
-0.297027068129702   -0.02508989885313783   -0.012405210302307847
-0.297027068129702   -0.02508989885313783   -0.012405210302307847
-0.297027068129702   -0.02508989885313783   -0.012405210302307847
-0.297027068129702   -0.02508989885313783   -0.012405210302307847
-0.2989470943093157   -0.005225633450716027   0.01927366492860729
-0.2989470943093157   -0.005225633450716027   0.01927366492860729
-0.2989470943093157   -0.005225633450716027   0.01927366492860729
-0.2989470943093157   -0.005225633450716027   0.01927366492860729
-0.23548800358219818   -0.01915555958011704   -0.007856476078429025
-0.23548800358219818   -0.01915555958011704   -0.007856476078429025
-0.23548800358219818   -0.01915555958011704   -0.007856476078429025
-0.23548800358219818   -0.01915555958011704   -0.007856476078429025
-0.25286635973609417   -0.004067932903651518   -0.003484089026724556
-0.25286635973609417   -0.004067932903651518   -0.003484089026724556
-0.25286635973609417   -0.004067932903651518   -0.003484089026724556
-0.25286635973609417   -0.004067932903651518   -0.003484089026724556
-0.10658993232645074   -0.006871101496777759   -0.02148683330912833
-0.10658993232645074   -0.006871101496777759   -0.02148683330912833
-0.10658993232645074   -0.006871101496777759   -0.02148683330912833
-0.10658993232645074   -0.006871101496777759   -0.02148683330912833
-0.10914374777056794   0.016214419003077886   0.009606897349924922
-0.10914374777056794   0.016214419003077886   0.009606897349924922
-0.10914374777056794   0.016214419003077886   0.009606897349924922
-0.10914374777056794   0.016214419003077886   0.009606897349924922
-0.123420632001937   -0.015209684373509166   -0.014662570059075262
-0.123420632001937   -0.015209684373509166   -0.014662570059075262
-0.123420632001937   -0.015209684373509166   -0.014662570059075262
-0.123420632001937   -0.015209684373509166   -0.014662570059075262
-0.10905550663266197   0.009121455659640239   0.014274818848085735
-0.10905550663266197   0.009121455659640239   0.014274818848085735
-0.10905550663266197   0.009121455659640239   0.014274818848085735
-0.10905550663266197   0.009121455659640239   0.014274818848085735
-0.10640977427520673   0.0028860430359754323   0.009805021696695934
-0.10640977427520673   0.0028860430359754323   0.009805021696695934
-0.10640977427520673   0.0028860430359754323   0.009805021696695934
-0.10640977427520673   0.0028860430359754323   0.009805021696695934
-0.1204107851217581   -0.015292687144340924   -0.01808743079341293
-0.1204107851217581   -0.015292687144340924   -0.01808743079341293
-0.1204107851217581   -0.015292687144340924   -0.01808743079341293
-0.1204107851217581   -0.015292687144340924   -0.01808743079341293
-0.11343644101403447   0.007833370929278532   0.012215329577649703
-0.11343644101403447   0.007833370929278532   0.012215329577649703
-0.11343644101403447   0.007833370929278532   0.012215329577649703
-0.11343644101403447   0.007833370929278532   0.012215329577649703
-0.12782076063454081   -0.019081145034993818   -0.012464704977508602
-0.12782076063454081   -0.019081145034993818   -0.012464704977508602
-0.12782076063454081   -0.019081145034993818   -0.012464704977508602
-0.12782076063454081   -0.019081145034993818   -0.012464704977508602
-0.12012455484708481   0.0038912241203015105   0.026714623258091506
-0.12012455484708481   0.0038912241203015105   0.026714623258091506
-0.12012455484708481   0.0038912241203015105   0.026714623258091506
-0.12012455484708481   0.0038912241203015105   0.026714623258091506
-0.11650598040687263   -0.003748786128016851   0.003990857135416198
-0.11650598040687263   -0.003748786128016851   0.003990857135416198
-0.11650598040687263   -0.003748786128016851   0.003990857135416198
-0.11650598040687263   -0.003748786128016851   0.003990857135416198
-0.13318159270395385   -0.020496865695470816   -0.01418247621048058
-0.13318159270395385   -0.020496865695470816   -0.01418247621048058
-0.13318159270395385   -0.020496865695470816   -0.01418247621048058
-0.13318159270395385   -0.020496865695470816   -0.01418247621048058
-0.11806584875067225   0.002004818807778204   0.0152238905990624
-0.11806584875067225   0.002004818807778204   0.0152238905990624
-0.11806584875067225   0.002004818807778204   0.0152238905990624
-0.11806584875067225   0.002004818807778204   0.0152238905990624
-0.13144464045165655   -0.02650665007239539   -0.009861287990792299
-0.13144464045165655   -0.02650665007239539   -0.009861287990792299
-0.13144464045165655   -0.02650665007239539   -0.009861287990792299
-0.13144464045165655   -0.02650665007239539   -0.009861287990792299
-0.13728043620762131   -0.01339595318884898   0.024970849709873313
-0.13728043620762131   -0.01339595318884898   0.024970849709873313
-0.13728043620762131   -0.01339595318884898   0.024970849709873313
-0.13728043620762131   -0.01339595318884898   0.024970849709873313
-0.12548086126042726   -0.011570723545405628   -0.005312333270173015
-0.12548086126042726   -0.011570723545405628   -0.005312333270173015
-0.12548086126042726   -0.011570723545405628   -0.005312333270173015
-0.12548086126042726   -0.011570723545405628   -0.005312333270173015
-0.11710461431114834   -0.003021322253069541   -0.010961694096829604
-0.11710461431114834   -0.003021322253069541   -0.010961694096829604
-0.11710461431114834   -0.003021322253069541   -0.010961694096829604
-0.11710461431114834   -0.003021322253069541   -0.010961694096829604
-0.12141697190397677   -0.015028107839387916   -0.0006551815906781326
-0.12141697190397677   -0.015028107839387916   -0.0006551815906781326
-0.12141697190397677   -0.015028107839387916   -0.0006551815906781326
-0.12141697190397677   -0.015028107839387916   -0.0006551815906781326
-0.12249911635362262   -0.010080141397163525   -0.005630594615296313
-0.12249911635362262   -0.010080141397163525   -0.005630594615296313
-0.12249911635362262   -0.010080141397163525   -0.005630594615296313
-0.12249911635362262   -0.010080141397163525   -0.005630594615296313
-0.12144508871542814   -0.019915236133647846   -7.930186639226212e-05
-0.12144508871542814   -0.019915236133647846   -7.930186639226212e-05
-0.12144508871542814   -0.019915236133647846   -7.930186639226212e-05
-0.12144508871542814   -0.019915236133647846   -7.930186639226212e-05
-0.11960083309000732   -0.012538362264126576   -0.0002580367023774354
-0.11960083309000732   -0.012538362264126576   -0.0002580367023774354
-0.11960083309000732   -0.012538362264126576   -0.0002580367023774354
-0.11960083309000732   -0.012538362264126576   -0.0002580367023774354
-0.12147867986351692   -0.01065202827014854   -0.009510465470334739
-0.12147867986351692   -0.01065202827014854   -0.009510465470334739
-0.12147867986351692   -0.01065202827014854   -0.009510465470334739
-0.12147867986351692   -0.01065202827014854   -0.009510465470334739
-0.12324588053370658   -0.020123704588834175   0.0006791476759545386
-0.12324588053370658   -0.020123704588834175   0.0006791476759545386
-0.12324588053370658   -0.020123704588834175   0.0006791476759545386
-0.12324588053370658   -0.020123704588834175   0.0006791476759545386
-0.12472583693905938   -0.016589710847427393   -0.0036884364455610197
-0.12472583693905938   -0.016589710847427393   -0.0036884364455610197
-0.12472583693905938   -0.016589710847427393   -0.0036884364455610197
-0.12472583693905938   -0.016589710847427393   -0.0036884364455610197
-0.12611504998642506   -0.025941858641032888   0.0029245618691092967
-0.12611504998642506   -0.025941858641032888   0.0029245618691092967
-0.12611504998642506   -0.025941858641032888   0.0029245618691092967
-0.12611504998642506   -0.025941858641032888   0.0029245618691092967
-0.12256657197742636   -0.01782755932835343   -0.0033136634834180735
-0.12256657197742636   -0.01782755932835343   -0.0033136634834180735
-0.12256657197742636   -0.01782755932835343   -0.0033136634834180735
-0.12256657197742636   -0.01782755932835343   -0.0033136634834180735
-0.12645118016240142   -0.017613901444452622   -0.007084046207352772
-0.12645118016240142   -0.017613901444452622   -0.007084046207352772
-0.12645118016240142   -0.017613901444452622   -0.007084046207352772
-0.12645118016240142   -0.017613901444452622   -0.007084046207352772
-0.1253851265361447   -0.025913087817068237   0.002338492538652189
-0.1253851265361447   -0.025913087817068237   0.002338492538652189
-0.1253851265361447   -0.025913087817068237   0.002338492538652189
-0.1253851265361447   -0.025913087817068237   0.002338492538652189
-0.1267492445856138   -0.023546507385412998   -0.001769421015591235
-0.1267492445856138   -0.023546507385412998   -0.001769421015591235
-0.1267492445856138   -0.023546507385412998   -0.001769421015591235
-0.1267492445856138   -0.023546507385412998   -0.001769421015591235
-0.1297143294838344   -0.03350801159579458   0.0057916283717154085
-0.1297143294838344   -0.03350801159579458   0.0057916283717154085
-0.1297143294838344   -0.03350801159579458   0.0057916283717154085
-0.1297143294838344   -0.03350801159579458   0.0057916283717154085
-0.12655136004202852   -0.024134131678294115   -0.007163691157838774
-0.12655136004202852   -0.024134131678294115   -0.007163691157838774
-0.12655136004202852   -0.024134131678294115   -0.007163691157838774
-0.12655136004202852   -0.024134131678294115   -0.007163691157838774
-0.11800078039661221   0.0034271393760151765   -0.002029471269258493
-0.11800078039661221   0.0034271393760151765   -0.002029471269258493
-0.11800078039661221   0.0034271393760151765   -0.002029471269258493
-0.11800078039661221   0.0034271393760151765   -0.002029471269258493
-0.13580141688640493   -0.025810665274388925   -0.006569894012117895
-0.13580141688640493   -0.025810665274388925   -0.006569894012117895
-0.13580141688640493   -0.025810665274388925   -0.006569894012117895
-0.13580141688640493   -0.025810665274388925   -0.006569894012117895
-0.13043775755138654   -0.0048239014582624334   0.0015960675428018656
-0.13043775755138654   -0.0048239014582624334   0.0015960675428018656
-0.13043775755138654   -0.0048239014582624334   0.0015960675428018656
-0.13043775755138654   -0.0048239014582624334   0.0015960675428018656
-0.12563580018857096   -0.027417357922901803   -0.003976797264299701
-0.12563580018857096   -0.027417357922901803   -0.003976797264299701
-0.12563580018857096   -0.027417357922901803   -0.003976797264299701
-0.12563580018857096   -0.027417357922901803   -0.003976797264299701
-0.12737829151137334   -0.014095606912605698   -0.0027823705751528487
-0.12737829151137334   -0.014095606912605698   -0.0027823705751528487
-0.12737829151137334   -0.014095606912605698   -0.0027823705751528487
-0.12737829151137334   -0.014095606912605698   -0.0027823705751528487
-0.11997465748592548   -0.003056819407104526   -3.162226686966724e-05
-0.11997465748592548   -0.003056819407104526   -3.162226686966724e-05
-0.11997465748592548   -0.003056819407104526   -3.162226686966724e-05
-0.11997465748592548   -0.003056819407104526   -3.162226686966724e-05
-0.13681121484308745   -0.029896754563115156   -0.0051983658108499635
-0.13681121484308745   -0.029896754563115156   -0.0051983658108499635
-0.13681121484308745   -0.029896754563115156   -0.0051983658108499635
-0.13681121484308745   -0.029896754563115156   -0.0051983658108499635
-0.13208672260300702   -0.011358782687196454   0.00352343719397107
-0.13208672260300702   -0.011358782687196454   0.00352343719397107
-0.13208672260300702   -0.011358782687196454   0.00352343719397107
-0.13208672260300702   -0.011358782687196454   0.00352343719397107
-0.1277215265302138   -0.03255446220265123   -0.0027021330461103193
-0.1277215265302138   -0.03255446220265123   -0.0027021330461103193
-0.1277215265302138   -0.03255446220265123   -0.0027021330461103193
-0.1277215265302138   -0.03255446220265123   -0.0027021330461103193
-0.1291118038602996   -0.019058683719646852   -0.005403854666646072
-0.1291118038602996   -0.019058683719646852   -0.005403854666646072
-0.1291118038602996   -0.019058683719646852   -0.005403854666646072
-0.1291118038602996   -0.019058683719646852   -0.005403854666646072
-0.12223256281906145   -0.009712494589834565   0.0019007178968349194
-0.12223256281906145   -0.009712494589834565   0.0019007178968349194
-0.12223256281906145   -0.009712494589834565   0.0019007178968349194
-0.12223256281906145   -0.009712494589834565   0.0019007178968349194
-0.13837162075091514   -0.034996684736768854   -0.004263151495997139
-0.13837162075091514   -0.034996684736768854   -0.004263151495997139
-0.13837162075091514   -0.034996684736768854   -0.004263151495997139
-0.13837162075091514   -0.034996684736768854   -0.004263151495997139
-0.1334589507575991   -0.017482137909385048   0.005416161736108425
-0.1334589507575991   -0.017482137909385048   0.005416161736108425
-0.1334589507575991   -0.017482137909385048   0.005416161736108425
-0.1334589507575991   -0.017482137909385048   0.005416161736108425
-0.1293256446993775   -0.037442446199369206   -0.0007554827704545626
-0.1293256446993775   -0.037442446199369206   -0.0007554827704545626
-0.1293256446993775   -0.037442446199369206   -0.0007554827704545626
-0.1293256446993775   -0.037442446199369206   -0.0007554827704545626
-0.131155151854384   -0.02424140752579314   -0.00828175101285262
-0.131155151854384   -0.02424140752579314   -0.00828175101285262
-0.131155151854384   -0.02424140752579314   -0.00828175101285262
-0.131155151854384   -0.02424140752579314   -0.00828175101285262
-0.12537353117263628   0.013487646810110006   0.006271222472226355
-0.12537353117263628   0.013487646810110006   0.006271222472226355
-0.12537353117263628   0.013487646810110006   0.006271222472226355
-0.12537353117263628   0.013487646810110006   0.006271222472226355
-0.15018435279646447   -0.01952779421994952   -0.009244801040098598
-0.15018435279646447   -0.01952779421994952   -0.009244801040098598
-0.15018435279646447   -0.01952779421994952   -0.009244801040098598
-0.15018435279646447   -0.01952779421994952   -0.009244801040098598
-0.14236015994995202   0.0037324969902100893   0.008590803509349642
-0.14236015994995202   0.0037324969902100893   0.008590803509349642
-0.14236015994995202   0.0037324969902100893   0.008590803509349642
-0.14236015994995202   0.0037324969902100893   0.008590803509349642
-0.1351550306288873   -0.021279762997689824   -0.005534436305274601
-0.1351550306288873   -0.021279762997689824   -0.005534436305274601
-0.1351550306288873   -0.021279762997689824   -0.005534436305274601
-0.1351550306288873   -0.021279762997689824   -0.005534436305274601
-0.13822329994578217   -0.005760870121164021   -0.0016591919099389948
-0.13822329994578217   -0.005760870121164021   -0.0016591919099389948
-0.13822329994578217   -0.005760870121164021   -0.0016591919099389948
-0.13822329994578217   -0.005760870121164021   -0.0016591919099389948
-0.12679718237300983   0.0067682834991776505   0.008206758477245274
-0.12679718237300983   0.0067682834991776505   0.008206758477245274
-0.12679718237300983   0.0067682834991776505   0.008206758477245274
-0.12679718237300983   0.0067682834991776505   0.008206758477245274
-0.15166890638930539   -0.025266447690133267   -0.00895398400707375
-0.15166890638930539   -0.025266447690133267   -0.00895398400707375
-0.15166890638930539   -0.025266447690133267   -0.00895398400707375
-0.15166890638930539   -0.025266447690133267   -0.00895398400707375
-0.1451065411691299   -0.0026729448601155864   0.009756326000754998
-0.1451065411691299   -0.0026729448601155864   0.009756326000754998
-0.1451065411691299   -0.0026729448601155864   0.009756326000754998
-0.1451065411691299   -0.0026729448601155864   0.009756326000754998
-0.13661071579288603   -0.026063663628694778   -0.004391647813925625
-0.13661071579288603   -0.026063663628694778   -0.004391647813925625
-0.13661071579288603   -0.026063663628694778   -0.004391647813925625
-0.13661071579288603   -0.026063663628694778   -0.004391647813925625
-0.13966950335992603   -0.011155163585045522   -0.004738908015800603
-0.13966950335992603   -0.011155163585045522   -0.004738908015800603
-0.13966950335992603   -0.011155163585045522   -0.004738908015800603
-0.13966950335992603   -0.011155163585045522   -0.004738908015800603
-0.12835476010399577   0.0007425329609374066   0.01008193404089349
-0.12835476010399577   0.0007425329609374066   0.01008193404089349
-0.12835476010399577   0.0007425329609374066   0.01008193404089349
-0.12835476010399577   0.0007425329609374066   0.01008193404089349
-0.1541854471224071   -0.030302091714134696   -0.008009056911611809
-0.1541854471224071   -0.030302091714134696   -0.008009056911611809
-0.1541854471224071   -0.030302091714134696   -0.008009056911611809
-0.1541854471224071   -0.030302091714134696   -0.008009056911611809
-0.14696421918978614   -0.00883838903012494   0.011911714910051902
-0.14696421918978614   -0.00883838903012494   0.011911714910051902
-0.14696421918978614   -0.00883838903012494   0.011911714910051902
-0.14696421918978614   -0.00883838903012494   0.011911714910051902
-0.13788968527747683   -0.030876851098924504   -0.0033427976737406702
-0.13788968527747683   -0.030876851098924504   -0.0033427976737406702
-0.13788968527747683   -0.030876851098924504   -0.0033427976737406702
-0.13788968527747683   -0.030876851098924504   -0.0033427976737406702
-0.14212691338074945   -0.016271370995408242   -0.007734941977934232
-0.14212691338074945   -0.016271370995408242   -0.007734941977934232
-0.14212691338074945   -0.016271370995408242   -0.007734941977934232
-0.14212691338074945   -0.016271370995408242   -0.007734941977934232
-0.1380391123133586   0.019370911264045783   0.012582695891435467
-0.1380391123133586   0.019370911264045783   0.012582695891435467
-0.1380391123133586   0.019370911264045783   0.012582695891435467
-0.1380391123133586   0.019370911264045783   0.012582695891435467
-0.14994225474067915   -0.012019253006745619   -0.013319215453713
-0.14994225474067915   -0.012019253006745619   -0.013319215453713
-0.14994225474067915   -0.012019253006745619   -0.013319215453713
-0.14994225474067915   -0.012019253006745619   -0.013319215453713
-0.14686489039862535   0.013355073373229526   0.013997277503453719
-0.14686489039862535   0.013355073373229526   0.013997277503453719
-0.14686489039862535   0.013355073373229526   0.013997277503453719
-0.14686489039862535   0.013355073373229526   0.013997277503453719
-0.14941511439585328   -0.014805064344966767   -0.00814640738497981
-0.14941511439585328   -0.014805064344966767   -0.00814640738497981
-0.14941511439585328   -0.014805064344966767   -0.00814640738497981
-0.14941511439585328   -0.014805064344966767   -0.00814640738497981
-0.14101974521749153   0.0033217273837032185   0.0007376665512612377
-0.14101974521749153   0.0033217273837032185   0.0007376665512612377
-0.14101974521749153   0.0033217273837032185   0.0007376665512612377
-0.14101974521749153   0.0033217273837032185   0.0007376665512612377
-0.13890512806683003   0.015056051934943158   0.01454240798022658
-0.13890512806683003   0.015056051934943158   0.01454240798022658
-0.13890512806683003   0.015056051934943158   0.01454240798022658
-0.13890512806683003   0.015056051934943158   0.01454240798022658
-0.15816131311406018   -0.017292479293091984   -0.01183728340739899
-0.15816131311406018   -0.017292479293091984   -0.01183728340739899
-0.15816131311406018   -0.017292479293091984   -0.01183728340739899
-0.15816131311406018   -0.017292479293091984   -0.01183728340739899
-0.15332586780427274   0.009729273947209863   0.017989453374009028
-0.15332586780427274   0.009729273947209863   0.017989453374009028
-0.15332586780427274   0.009729273947209863   0.017989453374009028
-0.15332586780427274   0.009729273947209863   0.017989453374009028
-0.15153085880012454   -0.017637601719272176   -0.007400605295065361
-0.15153085880012454   -0.017637601719272176   -0.007400605295065361
-0.15153085880012454   -0.017637601719272176   -0.007400605295065361
-0.15153085880012454   -0.017637601719272176   -0.007400605295065361
-0.14800712664179533   -0.0010539849320553643   -0.0029505376922921035
-0.14800712664179533   -0.0010539849320553643   -0.0029505376922921035
-0.14800712664179533   -0.0010539849320553643   -0.0029505376922921035
-0.14800712664179533   -0.0010539849320553643   -0.0029505376922921035
-0.14061779894492493   0.012148679580509355   0.017378412681151006
-0.14061779894492493   0.012148679580509355   0.017378412681151006
-0.14061779894492493   0.012148679580509355   0.017378412681151006
-0.14061779894492493   0.012148679580509355   0.017378412681151006
-0.1652494457999844   -0.02106752549308182   -0.010831637164253699
-0.1652494457999844   -0.02106752549308182   -0.010831637164253699
-0.1652494457999844   -0.02106752549308182   -0.010831637164253699
-0.1652494457999844   -0.02106752549308182   -0.010831637164253699
-0.16452062490199873   0.0004500239524783123   0.01920406290435589
-0.16452062490199873   0.0004500239524783123   0.01920406290435589
-0.16452062490199873   0.0004500239524783123   0.01920406290435589
-0.16452062490199873   0.0004500239524783123   0.01920406290435589
-0.15347838198406757   -0.02307521879196925   -0.006422269299510919
-0.15347838198406757   -0.02307521879196925   -0.006422269299510919
-0.15347838198406757   -0.02307521879196925   -0.006422269299510919
-0.15347838198406757   -0.02307521879196925   -0.006422269299510919
-0.15130717486318693   -0.005112393549129582   -0.0062411617129063
-0.15130717486318693   -0.005112393549129582   -0.0062411617129063
-0.15130717486318693   -0.005112393549129582   -0.0062411617129063
-0.15130717486318693   -0.005112393549129582   -0.0062411617129063
-0.28314999642735317   -0.02602279609043938   -0.027572929460868444
-0.28314999642735317   -0.02602279609043938   -0.027572929460868444
-0.28314999642735317   -0.02602279609043938   -0.027572929460868444
-0.28314999642735317   -0.02602279609043938   -0.027572929460868444
-0.18147831182678975   0.014788765530059804   0.006441659637962605
-0.18147831182678975   0.014788765530059804   0.006441659637962605
-0.18147831182678975   0.014788765530059804   0.006441659637962605
-0.18147831182678975   0.014788765530059804   0.006441659637962605
-0.19077003618908492   -0.012571523800144552   -0.012475548894422938
-0.19077003618908492   -0.012571523800144552   -0.012475548894422938
-0.19077003618908492   -0.012571523800144552   -0.012475548894422938
-0.19077003618908492   -0.012571523800144552   -0.012475548894422938
-0.3019970298474944   -0.03502155139491883   0.030480182261787482
-0.3019970298474944   -0.03502155139491883   0.030480182261787482
-0.3019970298474944   -0.03502155139491883   0.030480182261787482
-0.3019970298474944   -0.03502155139491883   0.030480182261787482
-0.2198078573610748   -0.008704620368050996   0.02977702065110146
-0.2198078573610748   -0.008704620368050996   0.02977702065110146
-0.2198078573610748   -0.008704620368050996   0.02977702065110146
-0.2198078573610748   -0.008704620368050996   0.02977702065110146
-0.31286559485096366   -0.03856030381977564   -0.020323890330699663
-0.31286559485096366   -0.03856030381977564   -0.020323890330699663
-0.31286559485096366   -0.03856030381977564   -0.020323890330699663
-0.31286559485096366   -0.03856030381977564   -0.020323890330699663
-0.18757232425609224   -0.016703624445764145   0.0076451114161587555
-0.18757232425609224   -0.016703624445764145   0.0076451114161587555
-0.18757232425609224   -0.016703624445764145   0.0076451114161587555
-0.18757232425609224   -0.016703624445764145   0.0076451114161587555
-0.194038458217447   -0.01805086543246555   -0.00908192113538158
-0.194038458217447   -0.01805086543246555   -0.00908192113538158
-0.194038458217447   -0.01805086543246555   -0.00908192113538158
-0.194038458217447   -0.01805086543246555   -0.00908192113538158
-0.3120992729990242   -0.048802534539630356   0.00048671606054460394
-0.3120992729990242   -0.048802534539630356   0.00048671606054460394
-0.3120992729990242   -0.048802534539630356   0.00048671606054460394
-0.3120992729990242   -0.048802534539630356   0.00048671606054460394
-0.24405137816570047   -0.029437286756052856   0.006974247685718467
-0.24405137816570047   -0.029437286756052856   0.006974247685718467
-0.24405137816570047   -0.029437286756052856   0.006974247685718467
-0.24405137816570047   -0.029437286756052856   0.006974247685718467
-0.31446252755154513   -0.04362142776712205   -0.016510663474566013
-0.31446252755154513   -0.04362142776712205   -0.016510663474566013
-0.31446252755154513   -0.04362142776712205   -0.016510663474566013
-0.31446252755154513   -0.04362142776712205   -0.016510663474566013
-0.19396516955674298   -0.025521938096790688   -0.0012444051675382494
-0.19396516955674298   -0.025521938096790688   -0.0012444051675382494
-0.19396516955674298   -0.025521938096790688   -0.0012444051675382494
-0.19396516955674298   -0.025521938096790688   -0.0012444051675382494
-0.19448396739194893   -0.031169759110248833   -0.006694648712798315
-0.19448396739194893   -0.031169759110248833   -0.006694648712798315
-0.19448396739194893   -0.031169759110248833   -0.006694648712798315
-0.19448396739194893   -0.031169759110248833   -0.006694648712798315
-0.32016854254603766   -0.07430553176604339   0.004490210831934794
-0.32016854254603766   -0.07430553176604339   0.004490210831934794
-0.32016854254603766   -0.07430553176604339   0.004490210831934794
-0.32016854254603766   -0.07430553176604339   0.004490210831934794
-0.2441736123531589   -0.040384716172252276   0.0006383763597166028
-0.2441736123531589   -0.040384716172252276   0.0006383763597166028
-0.2441736123531589   -0.040384716172252276   0.0006383763597166028
-0.2441736123531589   -0.040384716172252276   0.0006383763597166028
-0.19592180596628161   -0.03332953953300152   -0.017657505996433644
-0.19592180596628161   -0.03332953953300152   -0.017657505996433644
-0.19592180596628161   -0.03332953953300152   -0.017657505996433644
-0.19592180596628161   -0.03332953953300152   -0.017657505996433644
-0.1361030331173625   -0.08966204263314415   -0.016728660888364104
-0.1361030331173625   -0.08966204263314415   -0.016728660888364104
-0.1361030331173625   -0.08966204263314415   -0.016728660888364104
-0.1361030331173625   -0.08966204263314415   -0.016728660888364104
-0.11945023861930945   -0.019741300431583952   -0.0012044734521838066
-0.11945023861930945   -0.019741300431583952   -0.0012044734521838066
-0.11945023861930945   -0.019741300431583952   -0.0012044734521838066
-0.11945023861930945   -0.019741300431583952   -0.0012044734521838066
-0.20887315579970803   -0.09463967373754271   -0.020922997010141553
-0.20887315579970803   -0.09463967373754271   -0.020922997010141553
-0.20887315579970803   -0.09463967373754271   -0.020922997010141553
-0.20887315579970803   -0.09463967373754271   -0.020922997010141553
-0.16320839676778193   -0.06288448984676011   -0.004802263584701261
-0.16320839676778193   -0.06288448984676011   -0.004802263584701261
-0.16320839676778193   -0.06288448984676011   -0.004802263584701261
-0.16320839676778193   -0.06288448984676011   -0.004802263584701261
-0.1959213613953805   -0.03746280836797545   -0.013340890358070233
-0.1959213613953805   -0.03746280836797545   -0.013340890358070233
-0.1959213613953805   -0.03746280836797545   -0.013340890358070233
-0.1959213613953805   -0.03746280836797545   -0.013340890358070233
-0.1331882595301568   -0.07770439230767104   -0.011931486130334406
-0.1331882595301568   -0.07770439230767104   -0.011931486130334406
-0.1331882595301568   -0.07770439230767104   -0.011931486130334406
-0.1331882595301568   -0.07770439230767104   -0.011931486130334406
-0.12110190582802496   -0.025518339037710048   2.9015727315723835e-05
-0.12110190582802496   -0.025518339037710048   2.9015727315723835e-05
-0.12110190582802496   -0.025518339037710048   2.9015727315723835e-05
-0.12110190582802496   -0.025518339037710048   2.9015727315723835e-05
-0.209898327972428   -0.094127309087332   -0.012304826255421963
-0.209898327972428   -0.094127309087332   -0.012304826255421963
-0.209898327972428   -0.094127309087332   -0.012304826255421963
-0.209898327972428   -0.094127309087332   -0.012304826255421963
-0.1615950841026255   -0.05893801255112259   -0.005105513304278171
-0.1615950841026255   -0.05893801255112259   -0.005105513304278171
-0.1615950841026255   -0.05893801255112259   -0.005105513304278171
-0.1615950841026255   -0.05893801255112259   -0.005105513304278171
-0.19925424112373297   -0.04316412455180979   -0.010047576547467282
-0.19925424112373297   -0.04316412455180979   -0.010047576547467282
-0.19925424112373297   -0.04316412455180979   -0.010047576547467282
-0.19925424112373297   -0.04316412455180979   -0.010047576547467282
-0.1334019069806769   -0.07813743787719016   -0.008851891196463856
-0.1334019069806769   -0.07813743787719016   -0.008851891196463856
-0.1334019069806769   -0.07813743787719016   -0.008851891196463856
-0.1334019069806769   -0.07813743787719016   -0.008851891196463856
-0.12139022558877731   -0.032643227534185804   0.0017914447847021818
-0.12139022558877731   -0.032643227534185804   0.0017914447847021818
-0.12139022558877731   -0.032643227534185804   0.0017914447847021818
-0.12139022558877731   -0.032643227534185804   0.0017914447847021818
-0.2096821665575618   -0.09547665558564208   -0.018378748065472295
-0.2096821665575618   -0.09547665558564208   -0.018378748065472295
-0.2096821665575618   -0.09547665558564208   -0.018378748065472295
-0.2096821665575618   -0.09547665558564208   -0.018378748065472295
-0.16435624921073905   -0.0633293375489124   -0.009516657072579834
-0.16435624921073905   -0.0633293375489124   -0.009516657072579834
-0.16435624921073905   -0.0633293375489124   -0.009516657072579834
-0.16435624921073905   -0.0633293375489124   -0.009516657072579834
-0.11944503844136979   -0.021537964009388115   -0.0015627661321566597
-0.11944503844136979   -0.021537964009388115   -0.0015627661321566597
-0.11944503844136979   -0.021537964009388115   -0.0015627661321566597
-0.11944503844136979   -0.021537964009388115   -0.0015627661321566597
-0.1016939571777036   -0.06891461893125952   -0.011892686288243113
-0.1016939571777036   -0.06891461893125952   -0.011892686288243113
-0.1016939571777036   -0.06891461893125952   -0.011892686288243113
-0.1016939571777036   -0.06891461893125952   -0.011892686288243113
-0.08770902303657348   -0.018119270288642856   0.004586863754997561
-0.08770902303657348   -0.018119270288642856   0.004586863754997561
-0.08770902303657348   -0.018119270288642856   0.004586863754997561
-0.08770902303657348   -0.018119270288642856   0.004586863754997561
-0.13277568442274212   -0.07453518356510058   -0.01303781933583139
-0.13277568442274212   -0.07453518356510058   -0.01303781933583139
-0.13277568442274212   -0.07453518356510058   -0.01303781933583139
-0.13277568442274212   -0.07453518356510058   -0.01303781933583139
-0.10993988347106005   -0.046363628313142564   -0.005459409066372037
-0.10993988347106005   -0.046363628313142564   -0.005459409066372037
-0.10993988347106005   -0.046363628313142564   -0.005459409066372037
-0.10993988347106005   -0.046363628313142564   -0.005459409066372037
-0.12032947475057997   -0.025524270242056588   0.0001823157019353904
-0.12032947475057997   -0.025524270242056588   0.0001823157019353904
-0.12032947475057997   -0.025524270242056588   0.0001823157019353904
-0.12032947475057997   -0.025524270242056588   0.0001823157019353904
-0.10086329923295775   -0.06783825013590897   -0.011465537379657702
-0.10086329923295775   -0.06783825013590897   -0.011465537379657702
-0.10086329923295775   -0.06783825013590897   -0.011465537379657702
-0.10086329923295775   -0.06783825013590897   -0.011465537379657702
-0.08800947790234595   -0.02287849934361595   0.005965632621198182
-0.08800947790234595   -0.02287849934361595   0.005965632621198182
-0.08800947790234595   -0.02287849934361595   0.005965632621198182
-0.08800947790234595   -0.02287849934361595   0.005965632621198182
-0.13346404780733048   -0.0757118899022391   -0.011588143304682781
-0.13346404780733048   -0.0757118899022391   -0.011588143304682781
-0.13346404780733048   -0.0757118899022391   -0.011588143304682781
-0.13346404780733048   -0.0757118899022391   -0.011588143304682781
-0.10997375764385332   -0.048116961619170534   -0.007091370305736108
-0.10997375764385332   -0.048116961619170534   -0.007091370305736108
-0.10997375764385332   -0.048116961619170534   -0.007091370305736108
-0.10997375764385332   -0.048116961619170534   -0.007091370305736108
-0.12163548876163265   -0.030356896362834184   0.002199658384401411
-0.12163548876163265   -0.030356896362834184   0.002199658384401411
-0.12163548876163265   -0.030356896362834184   0.002199658384401411
-0.12163548876163265   -0.030356896362834184   0.002199658384401411
-0.10023153289179332   -0.0686269888267717   -0.009396152842882928
-0.10023153289179332   -0.0686269888267717   -0.009396152842882928
-0.10023153289179332   -0.0686269888267717   -0.009396152842882928
-0.10023153289179332   -0.0686269888267717   -0.009396152842882928
-0.08727820788098678   -0.02738634237138719   0.007477599551064796
-0.08727820788098678   -0.02738634237138719   0.007477599551064796
-0.08727820788098678   -0.02738634237138719   0.007477599551064796
-0.08727820788098678   -0.02738634237138719   0.007477599551064796
-0.13219870820200522   -0.07659202662527631   -0.008302169190346773
-0.13219870820200522   -0.07659202662527631   -0.008302169190346773
-0.13219870820200522   -0.07659202662527631   -0.008302169190346773
-0.13219870820200522   -0.07659202662527631   -0.008302169190346773
-0.10994545780179593   -0.05047258948394431   -0.008265128609027837
-0.10994545780179593   -0.05047258948394431   -0.008265128609027837
-0.10994545780179593   -0.05047258948394431   -0.008265128609027837
-0.10994545780179593   -0.05047258948394431   -0.008265128609027837
-0.08444984043550231   -0.002874396534530515   0.008287675026034308
-0.08444984043550231   -0.002874396534530515   0.008287675026034308
-0.08444984043550231   -0.002874396534530515   0.008287675026034308
-0.08444984043550231   -0.002874396534530515   0.008287675026034308
-0.08136361243261073   -0.03678728610878064   -0.007258278419543109
-0.08136361243261073   -0.03678728610878064   -0.007258278419543109
-0.08136361243261073   -0.03678728610878064   -0.007258278419543109
-0.08136361243261073   -0.03678728610878064   -0.007258278419543109
-0.07041871262955023   -0.005315453093032427   0.009550795218667623
-0.07041871262955023   -0.005315453093032427   0.009550795218667623
-0.07041871262955023   -0.005315453093032427   0.009550795218667623
-0.07041871262955023   -0.005315453093032427   0.009550795218667623
-0.0944434189877363   -0.042120609521217954   -0.005083776768241383
-0.0944434189877363   -0.042120609521217954   -0.005083776768241383
-0.0944434189877363   -0.042120609521217954   -0.005083776768241383
-0.0944434189877363   -0.042120609521217954   -0.005083776768241383
-0.0829326490802751   -0.021548364500575887   -0.0029778115136660623
-0.0829326490802751   -0.021548364500575887   -0.0029778115136660623
-0.0829326490802751   -0.021548364500575887   -0.0029778115136660623
-0.0829326490802751   -0.021548364500575887   -0.0029778115136660623
-0.0847246690166235   -0.00817410891746767   0.009563472483572328
-0.0847246690166235   -0.00817410891746767   0.009563472483572328
-0.0847246690166235   -0.00817410891746767   0.009563472483572328
-0.0847246690166235   -0.00817410891746767   0.009563472483572328
-0.08090690514220363   -0.04003139623832521   -0.008174224199310333
-0.08090690514220363   -0.04003139623832521   -0.008174224199310333
-0.08090690514220363   -0.04003139623832521   -0.008174224199310333
-0.08090690514220363   -0.04003139623832521   -0.008174224199310333
-0.07077705008324779   -0.00996152663077874   0.010285371466008672
-0.07077705008324779   -0.00996152663077874   0.010285371466008672
-0.07077705008324779   -0.00996152663077874   0.010285371466008672
-0.07077705008324779   -0.00996152663077874   0.010285371466008672
-0.09468910614080234   -0.04470663265054578   -0.0056043752641540216
-0.09468910614080234   -0.04470663265054578   -0.0056043752641540216
-0.09468910614080234   -0.04470663265054578   -0.0056043752641540216
-0.09468910614080234   -0.04470663265054578   -0.0056043752641540216
-0.08280746345894248   -0.025255046639241115   -0.005079107391906425
-0.08280746345894248   -0.025255046639241115   -0.005079107391906425
-0.08280746345894248   -0.025255046639241115   -0.005079107391906425
-0.08280746345894248   -0.025255046639241115   -0.005079107391906425
-0.08498897209367842   -0.012685877384903479   0.01087553970582328
-0.08498897209367842   -0.012685877384903479   0.01087553970582328
-0.08498897209367842   -0.012685877384903479   0.01087553970582328
-0.08498897209367842   -0.012685877384903479   0.01087553970582328
-0.08094437855237038   -0.04244947631842099   -0.008063321191962026
-0.08094437855237038   -0.04244947631842099   -0.008063321191962026
-0.08094437855237038   -0.04244947631842099   -0.008063321191962026
-0.08094437855237038   -0.04244947631842099   -0.008063321191962026
-0.07045089699902464   -0.014334249601362106   0.011931421535619149
-0.07045089699902464   -0.014334249601362106   0.011931421535619149
-0.07045089699902464   -0.014334249601362106   0.011931421535619149
-0.07045089699902464   -0.014334249601362106   0.011931421535619149
-0.09350660883370618   -0.047270814431673455   -0.0037799331522458783
-0.09350660883370618   -0.047270814431673455   -0.0037799331522458783
-0.09350660883370618   -0.047270814431673455   -0.0037799331522458783
-0.09350660883370618   -0.047270814431673455   -0.0037799331522458783
-0.08285324138981377   -0.028490909874993767   -0.006576385584828132
-0.08285324138981377   -0.028490909874993767   -0.006576385584828132
-0.08285324138981377   -0.028490909874993767   -0.006576385584828132
-0.08285324138981377   -0.028490909874993767   -0.006576385584828132
-0.06802425797568612   0.009632025823546842   0.013019181932756297
-0.06802425797568612   0.009632025823546842   0.013019181932756297
-0.06802425797568612   0.009632025823546842   0.013019181932756297
-0.06802425797568612   0.009632025823546842   0.013019181932756297
-0.04726189936457114   -0.012326214453221972   -0.00456567513481777
-0.04726189936457114   -0.012326214453221972   -0.00456567513481777
-0.04726189936457114   -0.012326214453221972   -0.00456567513481777
-0.04726189936457114   -0.012326214453221972   -0.00456567513481777
-0.04182524767088132   0.010920622697230403   0.012892161101041771
-0.04182524767088132   0.010920622697230403   0.012892161101041771
-0.04182524767088132   0.010920622697230403   0.012892161101041771
-0.04182524767088132   0.010920622697230403   0.012892161101041771
-0.07541587197596866   -0.018365984583332003   -0.002384470023125017
-0.07541587197596866   -0.018365984583332003   -0.002384470023125017
-0.07541587197596866   -0.018365984583332003   -0.002384470023125017
-0.07541587197596866   -0.018365984583332003   -0.002384470023125017
-0.05724911298313337   -0.00124680944052857   -0.0022333283051402743
-0.05724911298313337   -0.00124680944052857   -0.0022333283051402743
-0.05724911298313337   -0.00124680944052857   -0.0022333283051402743
-0.05724911298313337   -0.00124680944052857   -0.0022333283051402743
-0.06720077705519353   0.006110073833036115   0.014214946164382541
-0.06720077705519353   0.006110073833036115   0.014214946164382541
-0.06720077705519353   0.006110073833036115   0.014214946164382541
-0.06720077705519353   0.006110073833036115   0.014214946164382541
-0.050138535393953014   -0.013653628521434273   -0.004100026295652027
-0.050138535393953014   -0.013653628521434273   -0.004100026295652027
-0.050138535393953014   -0.013653628521434273   -0.004100026295652027
-0.050138535393953014   -0.013653628521434273   -0.004100026295652027
-0.04387970900412971   0.008612766618313502   0.0162000865968682
-0.04387970900412971   0.008612766618313502   0.0162000865968682
-0.04387970900412971   0.008612766618313502   0.0162000865968682
-0.04387970900412971   0.008612766618313502   0.0162000865968682
-0.07535554713502102   -0.019592472561189525   -0.0029761678624467044
-0.07535554713502102   -0.019592472561189525   -0.0029761678624467044
-0.07535554713502102   -0.019592472561189525   -0.0029761678624467044
-0.07535554713502102   -0.019592472561189525   -0.0029761678624467044
-0.05924520594420434   -0.0037594002137092564   -0.003311812096124438
-0.05924520594420434   -0.0037594002137092564   -0.003311812096124438
-0.05924520594420434   -0.0037594002137092564   -0.003311812096124438
-0.05924520594420434   -0.0037594002137092564   -0.003311812096124438
-0.0667583706238091   0.004067054501240551   0.016350187631182837
-0.0667583706238091   0.004067054501240551   0.016350187631182837
-0.0667583706238091   0.004067054501240551   0.016350187631182837
-0.0667583706238091   0.004067054501240551   0.016350187631182837
-0.05306579804259881   -0.01563567297137375   -0.005481919005790033
-0.05306579804259881   -0.01563567297137375   -0.005481919005790033
-0.05306579804259881   -0.01563567297137375   -0.005481919005790033
-0.05306579804259881   -0.01563567297137375   -0.005481919005790033
-0.050103960948913236   0.002256575266540814   0.016862279957885064
-0.050103960948913236   0.002256575266540814   0.016862279957885064
-0.050103960948913236   0.002256575266540814   0.016862279957885064
-0.050103960948913236   0.002256575266540814   0.016862279957885064
-0.0746202091261446   -0.020783997215258428   -0.0024653914860843836
-0.0746202091261446   -0.020783997215258428   -0.0024653914860843836
-0.0746202091261446   -0.020783997215258428   -0.0024653914860843836
-0.0746202091261446   -0.020783997215258428   -0.0024653914860843836
-0.06031495208716737   -0.00562990335532634   -0.004959904502103386
-0.06031495208716737   -0.00562990335532634   -0.004959904502103386
-0.06031495208716737   -0.00562990335532634   -0.004959904502103386
-0.06031495208716737   -0.00562990335532634   -0.004959904502103386
-0.6791836071308666   -0.09753248962659235   -0.05745932084122131
-0.6791836071308666   -0.09753248962659235   -0.05745932084122131
-0.6791836071308666   -0.09753248962659235   -0.05745932084122131
-0.6791836071308666   -0.09753248962659235   -0.05745932084122131
-0.23747617036927682   -0.3874999774316685   -0.044704693757343796
-0.23747617036927682   -0.3874999774316685   -0.044704693757343796
-0.23747617036927682   -0.3874999774316685   -0.044704693757343796
-0.23747617036927682   -0.3874999774316685   -0.044704693757343796
-0.18159162453573266   -0.01702526873634538   5.619024289301496e-05
-0.18159162453573266   -0.01702526873634538   5.619024289301496e-05
-0.18159162453573266   -0.01702526873634538   5.619024289301496e-05
-0.18159162453573266   -0.01702526873634538   5.619024289301496e-05
-0.7289376289679889   -0.45252914308758174   -0.23629335441111413
-0.7289376289679889   -0.45252914308758174   -0.23629335441111413
-0.7289376289679889   -0.45252914308758174   -0.23629335441111413
-0.7289376289679889   -0.45252914308758174   -0.23629335441111413
-0.4453083174636243   -0.224708418727909   -0.03279672901908365
-0.4453083174636243   -0.224708418727909   -0.03279672901908365
-0.4453083174636243   -0.224708418727909   -0.03279672901908365
-0.4453083174636243   -0.224708418727909   -0.03279672901908365
-0.6313176728284715   -0.1226052165030786   -0.0781175002980344
-0.6313176728284715   -0.1226052165030786   -0.0781175002980344
-0.6313176728284715   -0.1226052165030786   -0.0781175002980344
-0.6313176728284715   -0.1226052165030786   -0.0781175002980344
-0.2570190827838592   -0.32475669742945806   -0.06934967230462533
-0.2570190827838592   -0.32475669742945806   -0.06934967230462533
-0.2570190827838592   -0.32475669742945806   -0.06934967230462533
-0.2570190827838592   -0.32475669742945806   -0.06934967230462533
-0.18575834236360625   -0.022252046966555375   0.006898223290497753
-0.18575834236360625   -0.022252046966555375   0.006898223290497753
-0.18575834236360625   -0.022252046966555375   0.006898223290497753
-0.18575834236360625   -0.022252046966555375   0.006898223290497753
-0.6824552189243824   -0.40528044742746   -0.21754713327036848
-0.6824552189243824   -0.40528044742746   -0.21754713327036848
-0.6824552189243824   -0.40528044742746   -0.21754713327036848
-0.6824552189243824   -0.40528044742746   -0.21754713327036848
-0.4197045561508398   -0.20315099319285584   0.01658200455498638
-0.4197045561508398   -0.20315099319285584   0.01658200455498638
-0.4197045561508398   -0.20315099319285584   0.01658200455498638
-0.4197045561508398   -0.20315099319285584   0.01658200455498638
-0.5929593912769014   -0.1167846582494998   -0.05856378421092906
-0.5929593912769014   -0.1167846582494998   -0.05856378421092906
-0.5929593912769014   -0.1167846582494998   -0.05856378421092906
-0.5929593912769014   -0.1167846582494998   -0.05856378421092906
-0.25054161623505367   -0.28603528236848264   -0.05323491066481047
-0.25054161623505367   -0.28603528236848264   -0.05323491066481047
-0.25054161623505367   -0.28603528236848264   -0.05323491066481047
-0.25054161623505367   -0.28603528236848264   -0.05323491066481047
-0.21464727998722055   -0.0564110514036688   -0.011558649915009364
-0.21464727998722055   -0.0564110514036688   -0.011558649915009364
-0.21464727998722055   -0.0564110514036688   -0.011558649915009364
-0.21464727998722055   -0.0564110514036688   -0.011558649915009364
-0.6222111346306076   -0.3427127228939203   -0.1929847715049056
-0.6222111346306076   -0.3427127228939203   -0.1929847715049056
-0.6222111346306076   -0.3427127228939203   -0.1929847715049056
-0.6222111346306076   -0.3427127228939203   -0.1929847715049056
-0.38908835831337574   -0.17651995921542735   0.07251404771482375
-0.38908835831337574   -0.17651995921542735   0.07251404771482375
-0.38908835831337574   -0.17651995921542735   0.07251404771482375
-0.38908835831337574   -0.17651995921542735   0.07251404771482375
-0.1731825220723851   -0.09656624515615578   -0.01417018454839955
-0.1731825220723851   -0.09656624515615578   -0.01417018454839955
-0.1731825220723851   -0.09656624515615578   -0.01417018454839955
-0.1731825220723851   -0.09656624515615578   -0.01417018454839955
-0.08166249951620094   -0.12696968111400106   -0.020252830998438026
-0.08166249951620094   -0.12696968111400106   -0.020252830998438026
-0.08166249951620094   -0.12696968111400106   -0.020252830998438026
-0.08166249951620094   -0.12696968111400106   -0.020252830998438026
-0.07104261106022387   -0.06254770726841492   0.0017062905960094146
-0.07104261106022387   -0.06254770726841492   0.0017062905960094146
-0.07104261106022387   -0.06254770726841492   0.0017062905960094146
-0.07104261106022387   -0.06254770726841492   0.0017062905960094146
-0.2144895576090119   -0.18237614011740808   0.0009173962575612718
-0.2144895576090119   -0.18237614011740808   0.0009173962575612718
-0.2144895576090119   -0.18237614011740808   0.0009173962575612718
-0.2144895576090119   -0.18237614011740808   0.0009173962575612718
-0.11448861496351616   -0.08802365750550223   0.03724593758033097
-0.11448861496351616   -0.08802365750550223   0.03724593758033097
-0.11448861496351616   -0.08802365750550223   0.03724593758033097
-0.11448861496351616   -0.08802365750550223   0.03724593758033097
-0.198047604824225   -0.09011646677300003   -0.009132513162914933
-0.198047604824225   -0.09011646677300003   -0.009132513162914933
-0.198047604824225   -0.09011646677300003   -0.009132513162914933
-0.198047604824225   -0.09011646677300003   -0.009132513162914933
-0.09371401344077879   -0.16103683020859175   -0.013161598366590237
-0.09371401344077879   -0.16103683020859175   -0.013161598366590237
-0.09371401344077879   -0.16103683020859175   -0.013161598366590237
-0.09371401344077879   -0.16103683020859175   -0.013161598366590237
-0.07719848178933335   -0.06475510939974559   0.0018563259994154348
-0.07719848178933335   -0.06475510939974559   0.0018563259994154348
-0.07719848178933335   -0.06475510939974559   0.0018563259994154348
-0.07719848178933335   -0.06475510939974559   0.0018563259994154348
-0.22566455091698318   -0.18063119999798521   -0.03425366644495557
-0.22566455091698318   -0.18063119999798521   -0.03425366644495557
-0.22566455091698318   -0.18063119999798521   -0.03425366644495557
-0.22566455091698318   -0.18063119999798521   -0.03425366644495557
-0.13741839701850142   -0.11237743402761793   0.016576216592526612
-0.13741839701850142   -0.11237743402761793   0.016576216592526612
-0.13741839701850142   -0.11237743402761793   0.016576216592526612
-0.13741839701850142   -0.11237743402761793   0.016576216592526612
-0.2049399923311593   -0.09410590950896514   -0.017156164004856308
-0.2049399923311593   -0.09410590950896514   -0.017156164004856308
-0.2049399923311593   -0.09410590950896514   -0.017156164004856308
-0.2049399923311593   -0.09410590950896514   -0.017156164004856308
-0.09736603830382332   -0.15072339781743177   -0.013013168155348177
-0.09736603830382332   -0.15072339781743177   -0.013013168155348177
-0.09736603830382332   -0.15072339781743177   -0.013013168155348177
-0.09736603830382332   -0.15072339781743177   -0.013013168155348177
-0.08683963626118045   -0.06668207271739235   0.0027516359793950656
-0.08683963626118045   -0.06668207271739235   0.0027516359793950656
-0.08683963626118045   -0.06668207271739235   0.0027516359793950656
-0.08683963626118045   -0.06668207271739235   0.0027516359793950656
-0.24214893281436795   -0.17594053995619777   -0.02953742549821635
-0.24214893281436795   -0.17594053995619777   -0.02953742549821635
-0.24214893281436795   -0.17594053995619777   -0.02953742549821635
-0.24214893281436795   -0.17594053995619777   -0.02953742549821635
-0.14441315635293417   -0.10601740560025633   0.017451874139513462
-0.14441315635293417   -0.10601740560025633   0.017451874139513462
-0.14441315635293417   -0.10601740560025633   0.017451874139513462
-0.14441315635293417   -0.10601740560025633   0.017451874139513462
-0.06295692343088484   -0.05793966771784906   0.004245036031990446
-0.06295692343088484   -0.05793966771784906   0.004245036031990446
-0.06295692343088484   -0.05793966771784906   0.004245036031990446
-0.06295692343088484   -0.05793966771784906   0.004245036031990446
-0.03977319790426172   -0.04197232547248379   -0.01000673819237871
-0.03977319790426172   -0.04197232547248379   -0.01000673819237871
-0.03977319790426172   -0.04197232547248379   -0.01000673819237871
-0.03977319790426172   -0.04197232547248379   -0.01000673819237871
-0.03811661251641672   -0.05216110836522499   0.004173484757221173
-0.03811661251641672   -0.05216110836522499   0.004173484757221173
-0.03811661251641672   -0.05216110836522499   0.004173484757221173
-0.03811661251641672   -0.05216110836522499   0.004173484757221173
-0.0708880001567358   -0.05613697270935194   -0.003931389445615122
-0.0708880001567358   -0.05613697270935194   -0.003931389445615122
-0.0708880001567358   -0.05613697270935194   -0.003931389445615122
-0.0708880001567358   -0.05613697270935194   -0.003931389445615122
-0.04454659897540356   -0.043779729806883674   0.018781877186076774
-0.04454659897540356   -0.043779729806883674   0.018781877186076774
-0.04454659897540356   -0.043779729806883674   0.018781877186076774
-0.04454659897540356   -0.043779729806883674   0.018781877186076774
-0.06961743041086764   -0.05836589298390324   0.00465037955827699
-0.06961743041086764   -0.05836589298390324   0.00465037955827699
-0.06961743041086764   -0.05836589298390324   0.00465037955827699
-0.06961743041086764   -0.05836589298390324   0.00465037955827699
-0.04009580909664869   -0.050640814925036776   -0.007242791584126891
-0.04009580909664869   -0.050640814925036776   -0.007242791584126891
-0.04009580909664869   -0.050640814925036776   -0.007242791584126891
-0.04009580909664869   -0.050640814925036776   -0.007242791584126891
-0.038851470223947485   -0.05371963545287574   0.0037605513587510297
-0.038851470223947485   -0.05371963545287574   0.0037605513587510297
-0.038851470223947485   -0.05371963545287574   0.0037605513587510297
-0.038851470223947485   -0.05371963545287574   0.0037605513587510297
-0.07574316399578081   -0.06521844333057931   0.009596248898011877
-0.07574316399578081   -0.06521844333057931   0.009596248898011877
-0.07574316399578081   -0.06521844333057931   0.009596248898011877
-0.07574316399578081   -0.06521844333057931   0.009596248898011877
-0.048951978701429866   -0.048885133771246175   0.015604192146143768
-0.048951978701429866   -0.048885133771246175   0.015604192146143768
-0.048951978701429866   -0.048885133771246175   0.015604192146143768
-0.048951978701429866   -0.048885133771246175   0.015604192146143768
-0.07547788176160983   -0.06054682057041838   0.0062510373087039835
-0.07547788176160983   -0.06054682057041838   0.0062510373087039835
-0.07547788176160983   -0.06054682057041838   0.0062510373087039835
-0.07547788176160983   -0.06054682057041838   0.0062510373087039835
-0.04249910642520603   -0.061773612180125184   -0.006423652920292252
-0.04249910642520603   -0.061773612180125184   -0.006423652920292252
-0.04249910642520603   -0.061773612180125184   -0.006423652920292252
-0.04249910642520603   -0.061773612180125184   -0.006423652920292252
-0.03983945490130777   -0.05539396877391017   0.005328866765786531
-0.03983945490130777   -0.05539396877391017   0.005328866765786531
-0.03983945490130777   -0.05539396877391017   0.005328866765786531
-0.03983945490130777   -0.05539396877391017   0.005328866765786531
-0.08939822191127592   -0.07954036639593523   0.002817001407460641
-0.08939822191127592   -0.07954036639593523   0.002817001407460641
-0.08939822191127592   -0.07954036639593523   0.002817001407460641
-0.08939822191127592   -0.07954036639593523   0.002817001407460641
-0.055204714669183176   -0.055483726637895976   0.006945689238505205
-0.055204714669183176   -0.055483726637895976   0.006945689238505205
-0.055204714669183176   -0.055483726637895976   0.006945689238505205
-0.055204714669183176   -0.055483726637895976   0.006945689238505205
-0.03176206102498812   -0.023166663330872   0.011243284062377488
-0.03176206102498812   -0.023166663330872   0.011243284062377488
-0.03176206102498812   -0.023166663330872   0.011243284062377488
-0.03176206102498812   -0.023166663330872   0.011243284062377488
-0.02326512606790677   -0.0021613252309649568   -0.0023103546181630114
-0.02326512606790677   -0.0021613252309649568   -0.0023103546181630114
-0.02326512606790677   -0.0021613252309649568   -0.0023103546181630114
-0.02326512606790677   -0.0021613252309649568   -0.0023103546181630114
-0.022007971201284855   -0.02523198250060888   0.006923910548356396
-0.022007971201284855   -0.02523198250060888   0.006923910548356396
-0.022007971201284855   -0.02523198250060888   0.006923910548356396
-0.022007971201284855   -0.02523198250060888   0.006923910548356396
-0.030072689302935527   -0.006746530135817605   -0.0010214774047802456
-0.030072689302935527   -0.006746530135817605   -0.0010214774047802456
-0.030072689302935527   -0.006746530135817605   -0.0010214774047802456
-0.030072689302935527   -0.006746530135817605   -0.0010214774047802456
-0.024707399006058953   -0.013554826541030941   0.00557165271120171
-0.024707399006058953   -0.013554826541030941   0.00557165271120171
-0.024707399006058953   -0.013554826541030941   0.00557165271120171
-0.024707399006058953   -0.013554826541030941   0.00557165271120171
-0.03167131918199205   -0.026418054661331406   0.010656897725450948
-0.03167131918199205   -0.026418054661331406   0.010656897725450948
-0.03167131918199205   -0.026418054661331406   0.010656897725450948
-0.03167131918199205   -0.026418054661331406   0.010656897725450948
-0.019902807753502984   -0.005053924406369729   -0.0027283303069734087
-0.019902807753502984   -0.005053924406369729   -0.0027283303069734087
-0.019902807753502984   -0.005053924406369729   -0.0027283303069734087
-0.019902807753502984   -0.005053924406369729   -0.0027283303069734087
-0.02044670959853462   -0.027450478601920555   0.006433998436704396
-0.02044670959853462   -0.027450478601920555   0.006433998436704396
-0.02044670959853462   -0.027450478601920555   0.006433998436704396
-0.02044670959853462   -0.027450478601920555   0.006433998436704396
-0.030651653752500823   -0.011445170172167847   0.002485168435276474
-0.030651653752500823   -0.011445170172167847   0.002485168435276474
-0.030651653752500823   -0.011445170172167847   0.002485168435276474
-0.030651653752500823   -0.011445170172167847   0.002485168435276474
-0.023016146896462666   -0.015613050595300104   0.006410018745972773
-0.023016146896462666   -0.015613050595300104   0.006410018745972773
-0.023016146896462666   -0.015613050595300104   0.006410018745972773
-0.023016146896462666   -0.015613050595300104   0.006410018745972773
-0.032141944024781835   -0.028632179828475136   0.012220726730178702
-0.032141944024781835   -0.028632179828475136   0.012220726730178702
-0.032141944024781835   -0.028632179828475136   0.012220726730178702
-0.032141944024781835   -0.028632179828475136   0.012220726730178702
-0.019203838905883414   -0.01051088852524307   -0.004291238176717048
-0.019203838905883414   -0.01051088852524307   -0.004291238176717048
-0.019203838905883414   -0.01051088852524307   -0.004291238176717048
-0.019203838905883414   -0.01051088852524307   -0.004291238176717048
-0.017591626975796554   -0.02990875682524476   0.007115373021987986
-0.017591626975796554   -0.02990875682524476   0.007115373021987986
-0.017591626975796554   -0.02990875682524476   0.007115373021987986
-0.017591626975796554   -0.02990875682524476   0.007115373021987986
-0.03367936056811385   -0.022466374191087705   0.003201743848933668
-0.03367936056811385   -0.022466374191087705   0.003201743848933668
-0.03367936056811385   -0.022466374191087705   0.003201743848933668
-0.03367936056811385   -0.022466374191087705   0.003201743848933668
-0.022577260035488093   -0.01956385545788125   0.005262279902317828
-0.022577260035488093   -0.01956385545788125   0.005262279902317828
-0.022577260035488093   -0.01956385545788125   0.005262279902317828
-0.022577260035488093   -0.01956385545788125   0.005262279902317828
-0.02085332184914847   -0.0038449130618682893   0.011432254306531811
-0.02085332184914847   -0.0038449130618682893   0.011432254306531811
-0.02085332184914847   -0.0038449130618682893   0.011432254306531811
-0.02085332184914847   -0.0038449130618682893   0.011432254306531811
-0.004385564168680871   0.002043831975956864   -0.00023151095569793375
-0.004385564168680871   0.002043831975956864   -0.00023151095569793375
-0.004385564168680871   0.002043831975956864   -0.00023151095569793375
-0.004385564168680871   0.002043831975956864   -0.00023151095569793375
0.00035417989389327313   -0.0013026286283653122   0.007162257881846492
0.00035417989389327313   -0.0013026286283653122   0.007162257881846492
0.00035417989389327313   -0.0013026286283653122   0.007162257881846492
0.00035417989389327313   -0.0013026286283653122   0.007162257881846492
-0.018213971987982837   0.0012748190585357049   -0.0006128949442781167
-0.018213971987982837   0.0012748190585357049   -0.0006128949442781167
-0.018213971987982837   0.0012748190585357049   -0.0006128949442781167
-0.018213971987982837   0.0012748190585357049   -0.0006128949442781167
-0.010914283926018413   -0.0009013913374596562   -0.0008065172395233068
-0.010914283926018413   -0.0009013913374596562   -0.0008065172395233068
-0.010914283926018413   -0.0009013913374596562   -0.0008065172395233068
-0.010914283926018413   -0.0009013913374596562   -0.0008065172395233068
-0.01671608537501535   -0.0037657181855811077   0.01191707536467614
-0.01671608537501535   -0.0037657181855811077   0.01191707536467614
-0.01671608537501535   -0.0037657181855811077   0.01191707536467614
-0.01671608537501535   -0.0037657181855811077   0.01191707536467614
-0.0005386670589092469   0.004342948275916469   -0.0029475537864478898
-0.0005386670589092469   0.004342948275916469   -0.0029475537864478898
-0.0005386670589092469   0.004342948275916469   -0.0029475537864478898
-0.0005386670589092469   0.004342948275916469   -0.0029475537864478898
0.002570799981494394   -0.0016431836131794164   0.008843929761088425
0.002570799981494394   -0.0016431836131794164   0.008843929761088425
0.002570799981494394   -0.0016431836131794164   0.008843929761088425
0.002570799981494394   -0.0016431836131794164   0.008843929761088425
-0.016292906074496065   0.0006234187873955708   -0.0008708813324189407
-0.016292906074496065   0.0006234187873955708   -0.0008708813324189407
-0.016292906074496065   0.0006234187873955708   -0.0008708813324189407
-0.016292906074496065   0.0006234187873955708   -0.0008708813324189407
-0.007591446728978332   -0.00038717470345395514   0.0010499649149827927
-0.007591446728978332   -0.00038717470345395514   0.0010499649149827927
-0.007591446728978332   -0.00038717470345395514   0.0010499649149827927
-0.007591446728978332   -0.00038717470345395514   0.0010499649149827927
-0.014523426122629248   -0.004259022786133073   0.012858960000443785
-0.014523426122629248   -0.004259022786133073   0.012858960000443785
-0.014523426122629248   -0.004259022786133073   0.012858960000443785
-0.014523426122629248   -0.004259022786133073   0.012858960000443785
0.0013136390360335704   0.00375157696675586   -0.0028366355461471307
0.0013136390360335704   0.00375157696675586   -0.0028366355461471307
0.0013136390360335704   0.00375157696675586   -0.0028366355461471307
0.0013136390360335704   0.00375157696675586   -0.0028366355461471307
0.004672556071112593   -0.002701863121192417   0.008652513786988465
0.004672556071112593   -0.002701863121192417   0.008652513786988465
0.004672556071112593   -0.002701863121192417   0.008652513786988465
0.004672556071112593   -0.002701863121192417   0.008652513786988465
-0.013193848775017478   0.000152141371778203   -0.0009566341711396068
-0.013193848775017478   0.000152141371778203   -0.0009566341711396068
-0.013193848775017478   0.000152141371778203   -0.0009566341711396068
-0.013193848775017478   0.000152141371778203   -0.0009566341711396068
-0.004688046527417241   -0.00017882723329947729   0.0025944886608582395
-0.004688046527417241   -0.00017882723329947729   0.0025944886608582395
-0.004688046527417241   -0.00017882723329947729   0.0025944886608582395
-0.004688046527417241   -0.00017882723329947729   0.0025944886608582395
              </DataArray>   
             <DataArray type="Float64" NumberOfComponents="3" Name="Displacements" format="ascii">   
0.0   0.0   0.0
-0.0019022974232711612   -0.0012563070229923703   -0.0006377611466564908
0.0   0.0   0.0
0.0   0.0   0.0
-0.0019022974232711612   -0.0012563070229923703   -0.0006377611466564908
-0.0012096945796597   -0.001130487224083905   -0.0004686622499327053
0.0   0.0   0.0
-0.0011852386401799992   -0.0011867366777907964   -0.00039281051594799077
0.0   0.0   0.0
0.0   0.0   0.0
-0.0011852386401799992   -0.0011867366777907964   -0.00039281051594799077
0.0   0.0   0.0
0.0   0.0   0.0
-0.0011852386401799992   -0.0011867366777907964   -0.00039281051594799077
-0.0019901862908301773   -0.0013380241105899623   -0.0005122917070120973
-0.0019022974232711612   -0.0012563070229923703   -0.0006377611466564908
0.0   0.0   0.0
-0.0011852386401799992   -0.0011867366777907964   -0.00039281051594799077
-0.0019022974232711612   -0.0012563070229923703   -0.0006377611466564908
0.0   0.0   0.0
0.0   0.0   0.0
-0.0019901862908301773   -0.0013380241105899623   -0.0005122917070120973
0.0   0.0   0.0
0.0   0.0   0.0
-0.0019901862908301773   -0.0013380241105899623   -0.0005122917070120973
-0.0011852386401799992   -0.0011867366777907964   -0.00039281051594799077
0.0   0.0   0.0
-0.0011880058530794038   -0.0012156289544589533   -0.00031713364311305206
0.0   0.0   0.0
0.0   0.0   0.0
-0.0011880058530794038   -0.0012156289544589533   -0.00031713364311305206
0.0   0.0   0.0
0.0   0.0   0.0
-0.0011880058530794038   -0.0012156289544589533   -0.00031713364311305206
-0.0020516456405147102   -0.0013777916008923116   -0.0003921969802885833
-0.0019901862908301773   -0.0013380241105899623   -0.0005122917070120973
0.0   0.0   0.0
-0.0011880058530794038   -0.0012156289544589533   -0.00031713364311305206
-0.0019901862908301773   -0.0013380241105899623   -0.0005122917070120973
0.0   0.0   0.0
0.0   0.0   0.0
-0.0020516456405147102   -0.0013777916008923116   -0.0003921969802885833
0.0   0.0   0.0
0.0   0.0   0.0
-0.0020516456405147102   -0.0013777916008923116   -0.0003921969802885833
-0.0011880058530794038   -0.0012156289544589533   -0.00031713364311305206
0.0   0.0   0.0
-0.0011867328085002297   -0.0012231438470450074   -0.00023896455260214288
0.0   0.0   0.0
0.0   0.0   0.0
-0.0011867328085002297   -0.0012231438470450074   -0.00023896455260214288
0.0   0.0   0.0
0.0   0.0   0.0
-0.0011867328085002297   -0.0012231438470450074   -0.00023896455260214288
-0.002184617003003148   -0.0014081331631703397   -0.0002529510186801661
-0.0020516456405147102   -0.0013777916008923116   -0.0003921969802885833
0.0   0.0   0.0
-0.0011867328085002297   -0.0012231438470450074   -0.00023896455260214288
-0.0020516456405147102   -0.0013777916008923116   -0.0003921969802885833
0.0   0.0   0.0
0.0   0.0   0.0
-0.0012096945796597   -0.001130487224083905   -0.0004686622499327053
0.0   0.0   0.0
0.0   0.0   0.0
-0.0012096945796597   -0.001130487224083905   -0.0004686622499327053
-0.0005515668263308662   -0.001084461681768574   -0.00035672095788145237
0.0   0.0   0.0
-0.0005299283929432239   -0.0011210053147438389   -0.00032084280729408754
0.0   0.0   0.0
0.0   0.0   0.0
-0.0005299283929432239   -0.0011210053147438389   -0.00032084280729408754
0.0   0.0   0.0
0.0   0.0   0.0
-0.0005299283929432239   -0.0011210053147438389   -0.00032084280729408754
-0.0011852386401799992   -0.0011867366777907964   -0.00039281051594799077
-0.0012096945796597   -0.001130487224083905   -0.0004686622499327053
0.0   0.0   0.0
-0.0005299283929432239   -0.0011210053147438389   -0.00032084280729408754
-0.0012096945796597   -0.001130487224083905   -0.0004686622499327053
0.0   0.0   0.0
0.0   0.0   0.0
-0.0011852386401799992   -0.0011867366777907964   -0.00039281051594799077
0.0   0.0   0.0
0.0   0.0   0.0
-0.0011852386401799992   -0.0011867366777907964   -0.00039281051594799077
-0.0005299283929432239   -0.0011210053147438389   -0.00032084280729408754
0.0   0.0   0.0
-0.0005175403858094443   -0.0011349579683847943   -0.0002859662159387648
0.0   0.0   0.0
0.0   0.0   0.0
-0.0005175403858094443   -0.0011349579683847943   -0.0002859662159387648
0.0   0.0   0.0
0.0   0.0   0.0
-0.0005175403858094443   -0.0011349579683847943   -0.0002859662159387648
-0.0011880058530794038   -0.0012156289544589533   -0.00031713364311305206
-0.0011852386401799992   -0.0011867366777907964   -0.00039281051594799077
0.0   0.0   0.0
-0.0005175403858094443   -0.0011349579683847943   -0.0002859662159387648
-0.0011852386401799992   -0.0011867366777907964   -0.00039281051594799077
0.0   0.0   0.0
0.0   0.0   0.0
-0.0011880058530794038   -0.0012156289544589533   -0.00031713364311305206
0.0   0.0   0.0
0.0   0.0   0.0
-0.0011880058530794038   -0.0012156289544589533   -0.00031713364311305206
-0.0005175403858094443   -0.0011349579683847943   -0.0002859662159387648
0.0   0.0   0.0
-0.0005061650871284909   -0.0011291918533921745   -0.0002499775478899173
0.0   0.0   0.0
0.0   0.0   0.0
-0.0005061650871284909   -0.0011291918533921745   -0.0002499775478899173
0.0   0.0   0.0
0.0   0.0   0.0
-0.0005061650871284909   -0.0011291918533921745   -0.0002499775478899173
-0.0011867328085002297   -0.0012231438470450074   -0.00023896455260214288
-0.0011880058530794038   -0.0012156289544589533   -0.00031713364311305206
0.0   0.0   0.0
-0.0005061650871284909   -0.0011291918533921745   -0.0002499775478899173
-0.0011880058530794038   -0.0012156289544589533   -0.00031713364311305206
0.0   0.0   0.0
0.0   0.0   0.0
-0.0005515668263308662   -0.001084461681768574   -0.00035672095788145237
0.0   0.0   0.0
0.0   0.0   0.0
-0.0005515668263308662   -0.001084461681768574   -0.00035672095788145237
6.974853738953514e-05   -0.0010904487079499783   -0.00028555879801294576
0.0   0.0   0.0
8.382702981738956e-05   -0.0011093123666596838   -0.0002903572548275278
0.0   0.0   0.0
0.0   0.0   0.0
8.382702981738956e-05   -0.0011093123666596838   -0.0002903572548275278
0.0   0.0   0.0
0.0   0.0   0.0
8.382702981738956e-05   -0.0011093123666596838   -0.0002903572548275278
-0.0005299283929432239   -0.0011210053147438389   -0.00032084280729408754
-0.0005515668263308662   -0.001084461681768574   -0.00035672095788145237
0.0   0.0   0.0
8.382702981738956e-05   -0.0011093123666596838   -0.0002903572548275278
-0.0005515668263308662   -0.001084461681768574   -0.00035672095788145237
0.0   0.0   0.0
0.0   0.0   0.0
-0.0005299283929432239   -0.0011210053147438389   -0.00032084280729408754
0.0   0.0   0.0
0.0   0.0   0.0
-0.0005299283929432239   -0.0011210053147438389   -0.00032084280729408754
8.382702981738956e-05   -0.0011093123666596838   -0.0002903572548275278
0.0   0.0   0.0
9.501471758188859e-05   -0.0011076811434490765   -0.0002947473903049515
0.0   0.0   0.0
0.0   0.0   0.0
9.501471758188859e-05   -0.0011076811434490765   -0.0002947473903049515
0.0   0.0   0.0
0.0   0.0   0.0
9.501471758188859e-05   -0.0011076811434490765   -0.0002947473903049515
-0.0005175403858094443   -0.0011349579683847943   -0.0002859662159387648
-0.0005299283929432239   -0.0011210053147438389   -0.00032084280729408754
0.0   0.0   0.0
9.501471758188859e-05   -0.0011076811434490765   -0.0002947473903049515
-0.0005299283929432239   -0.0011210053147438389   -0.00032084280729408754
0.0   0.0   0.0
0.0   0.0   0.0
-0.0005175403858094443   -0.0011349579683847943   -0.0002859662159387648
0.0   0.0   0.0
0.0   0.0   0.0
-0.0005175403858094443   -0.0011349579683847943   -0.0002859662159387648
9.501471758188859e-05   -0.0011076811434490765   -0.0002947473903049515
0.0   0.0   0.0
0.00010987680740289208   -0.0010838854530024575   -0.0002993268336105415
0.0   0.0   0.0
0.0   0.0   0.0
0.00010987680740289208   -0.0010838854530024575   -0.0002993268336105415
0.0   0.0   0.0
0.0   0.0   0.0
0.00010987680740289208   -0.0010838854530024575   -0.0002993268336105415
-0.0005061650871284909   -0.0011291918533921745   -0.0002499775478899173
-0.0005175403858094443   -0.0011349579683847943   -0.0002859662159387648
0.0   0.0   0.0
0.00010987680740289208   -0.0010838854530024575   -0.0002993268336105415
-0.0005175403858094443   -0.0011349579683847943   -0.0002859662159387648
0.0   0.0   0.0
0.0   0.0   0.0
6.974853738953514e-05   -0.0010904487079499783   -0.00028555879801294576
0.0   0.0   0.0
0.0   0.0   0.0
6.974853738953514e-05   -0.0010904487079499783   -0.00028555879801294576
0.000744666474096016   -0.0011428555897184057   -0.0002505898161960406
0.0   0.0   0.0
0.0007467020103061448   -0.0011487229123624577   -0.0002981944102152031
0.0   0.0   0.0
0.0   0.0   0.0
0.0007467020103061448   -0.0011487229123624577   -0.0002981944102152031
0.0   0.0   0.0
0.0   0.0   0.0
0.0007467020103061448   -0.0011487229123624577   -0.0002981944102152031
8.382702981738956e-05   -0.0011093123666596838   -0.0002903572548275278
6.974853738953514e-05   -0.0010904487079499783   -0.00028555879801294576
0.0   0.0   0.0
0.0007467020103061448   -0.0011487229123624577   -0.0002981944102152031
6.974853738953514e-05   -0.0010904487079499783   -0.00028555879801294576
0.0   0.0   0.0
0.0   0.0   0.0
8.382702981738956e-05   -0.0011093123666596838   -0.0002903572548275278
0.0   0.0   0.0
0.0   0.0   0.0
8.382702981738956e-05   -0.0011093123666596838   -0.0002903572548275278
0.0007467020103061448   -0.0011487229123624577   -0.0002981944102152031
0.0   0.0   0.0
0.0007441170596651009   -0.0011323246794174907   -0.00034394405037708895
0.0   0.0   0.0
0.0   0.0   0.0
0.0007441170596651009   -0.0011323246794174907   -0.00034394405037708895
0.0   0.0   0.0
0.0   0.0   0.0
0.0007441170596651009   -0.0011323246794174907   -0.00034394405037708895
9.501471758188859e-05   -0.0011076811434490765   -0.0002947473903049515
8.382702981738956e-05   -0.0011093123666596838   -0.0002903572548275278
0.0   0.0   0.0
0.0007441170596651009   -0.0011323246794174907   -0.00034394405037708895
8.382702981738956e-05   -0.0011093123666596838   -0.0002903572548275278
0.0   0.0   0.0
0.0   0.0   0.0
9.501471758188859e-05   -0.0011076811434490765   -0.0002947473903049515
0.0   0.0   0.0
0.0   0.0   0.0
9.501471758188859e-05   -0.0011076811434490765   -0.0002947473903049515
0.0007441170596651009   -0.0011323246794174907   -0.00034394405037708895
0.0   0.0   0.0
0.0007591174428375591   -0.0010887078406397886   -0.00038888717720440694
0.0   0.0   0.0
0.0   0.0   0.0
0.0007591174428375591   -0.0010887078406397886   -0.00038888717720440694
0.0   0.0   0.0
0.0   0.0   0.0
0.0007591174428375591   -0.0010887078406397886   -0.00038888717720440694
0.00010987680740289208   -0.0010838854530024575   -0.0002993268336105415
9.501471758188859e-05   -0.0011076811434490765   -0.0002947473903049515
0.0   0.0   0.0
0.0007591174428375591   -0.0010887078406397886   -0.00038888717720440694
9.501471758188859e-05   -0.0011076811434490765   -0.0002947473903049515
0.0   0.0   0.0
0.0   0.0   0.0
0.000744666474096016   -0.0011428555897184057   -0.0002505898161960406
0.0   0.0   0.0
0.0   0.0   0.0
0.000744666474096016   -0.0011428555897184057   -0.0002505898161960406
0.001684952317790322   -0.001275993942286321   -0.0002370116753366709
0.0   0.0   0.0
0.0015833661906232556   -0.0012617770206526978   -0.00034517073855407034
0.0   0.0   0.0
0.0   0.0   0.0
0.0015833661906232556   -0.0012617770206526978   -0.00034517073855407034
0.0   0.0   0.0
0.0   0.0   0.0
0.0015833661906232556   -0.0012617770206526978   -0.00034517073855407034
0.0007467020103061448   -0.0011487229123624577   -0.0002981944102152031
0.000744666474096016   -0.0011428555897184057   -0.0002505898161960406
0.0   0.0   0.0
0.0015833661906232556   -0.0012617770206526978   -0.00034517073855407034
0.000744666474096016   -0.0011428555897184057   -0.0002505898161960406
0.0   0.0   0.0
0.0   0.0   0.0
0.0007467020103061448   -0.0011487229123624577   -0.0002981944102152031
0.0   0.0   0.0
0.0   0.0   0.0
0.0007467020103061448   -0.0011487229123624577   -0.0002981944102152031
0.0015833661906232556   -0.0012617770206526978   -0.00034517073855407034
0.0   0.0   0.0
0.0015367976811275009   -0.0012355507063029237   -0.0004366977314827998
0.0   0.0   0.0
0.0   0.0   0.0
0.0015367976811275009   -0.0012355507063029237   -0.0004366977314827998
0.0   0.0   0.0
0.0   0.0   0.0
0.0015367976811275009   -0.0012355507063029237   -0.0004366977314827998
0.0007441170596651009   -0.0011323246794174907   -0.00034394405037708895
0.0007467020103061448   -0.0011487229123624577   -0.0002981944102152031
0.0   0.0   0.0
0.0015367976811275009   -0.0012355507063029237   -0.0004366977314827998
0.0007467020103061448   -0.0011487229123624577   -0.0002981944102152031
0.0   0.0   0.0
0.0   0.0   0.0
0.0007441170596651009   -0.0011323246794174907   -0.00034394405037708895
0.0   0.0   0.0
0.0   0.0   0.0
0.0007441170596651009   -0.0011323246794174907   -0.00034394405037708895
0.0015367976811275009   -0.0012355507063029237   -0.0004366977314827998
0.0   0.0   0.0
0.0014670417709341163   -0.001168672609859353   -0.0005336960225102472
0.0   0.0   0.0
0.0   0.0   0.0
0.0014670417709341163   -0.001168672609859353   -0.0005336960225102472
0.0   0.0   0.0
0.0   0.0   0.0
0.0014670417709341163   -0.001168672609859353   -0.0005336960225102472
0.0007591174428375591   -0.0010887078406397886   -0.00038888717720440694
0.0007441170596651009   -0.0011323246794174907   -0.00034394405037708895
0.0   0.0   0.0
0.0014670417709341163   -0.001168672609859353   -0.0005336960225102472
0.0007441170596651009   -0.0011323246794174907   -0.00034394405037708895
0.0   0.0   0.0
-0.0019022974232711612   -0.0012563070229923703   -0.0006377611466564908
-0.0035470172693592076   -0.0034949983156658078   -0.0008595277100724625
-0.0012096945796597   -0.001130487224083905   -0.0004686622499327053
-0.0019901862908301773   -0.0013380241105899623   -0.0005122917070120973
-0.0035470172693592076   -0.0034949983156658078   -0.0008595277100724625
-0.002263645166144995   -0.003382061188266924   -0.0007081153572857723
-0.0012096945796597   -0.001130487224083905   -0.0004686622499327053
-0.0022654000182302553   -0.0034394925879962655   -0.0006381212682905123
-0.0019901862908301773   -0.0013380241105899623   -0.0005122917070120973
-0.0011852386401799992   -0.0011867366777907964   -0.00039281051594799077
-0.0022654000182302553   -0.0034394925879962655   -0.0006381212682905123
-0.0012096945796597   -0.001130487224083905   -0.0004686622499327053
-0.0019901862908301773   -0.0013380241105899623   -0.0005122917070120973
-0.0022654000182302553   -0.0034394925879962655   -0.0006381212682905123
-0.0036520673472445328   -0.003575234318530896   -0.0007460068835438097
-0.0035470172693592076   -0.0034949983156658078   -0.0008595277100724625
-0.0019901862908301773   -0.0013380241105899623   -0.0005122917070120973
-0.0022654000182302553   -0.0034394925879962655   -0.0006381212682905123
-0.0035470172693592076   -0.0034949983156658078   -0.0008595277100724625
-0.0012096945796597   -0.001130487224083905   -0.0004686622499327053
-0.0019901862908301773   -0.0013380241105899623   -0.0005122917070120973
-0.0036520673472445328   -0.003575234318530896   -0.0007460068835438097
-0.0011852386401799992   -0.0011867366777907964   -0.00039281051594799077
-0.0020516456405147102   -0.0013777916008923116   -0.0003921969802885833
-0.0036520673472445328   -0.003575234318530896   -0.0007460068835438097
-0.0022654000182302553   -0.0034394925879962655   -0.0006381212682905123
-0.0011852386401799992   -0.0011867366777907964   -0.00039281051594799077
-0.0022733339291004287   -0.003474587741485146   -0.0005709197395835741
-0.0020516456405147102   -0.0013777916008923116   -0.0003921969802885833
-0.0011880058530794038   -0.0012156289544589533   -0.00031713364311305206
-0.0022733339291004287   -0.003474587741485146   -0.0005709197395835741
-0.0011852386401799992   -0.0011867366777907964   -0.00039281051594799077
-0.0020516456405147102   -0.0013777916008923116   -0.0003921969802885833
-0.0022733339291004287   -0.003474587741485146   -0.0005709197395835741
-0.0037246673383934475   -0.003620629223448996   -0.0006349333719103206
-0.0036520673472445328   -0.003575234318530896   -0.0007460068835438097
-0.0020516456405147102   -0.0013777916008923116   -0.0003921969802885833
-0.0022733339291004287   -0.003474587741485146   -0.0005709197395835741
-0.0036520673472445328   -0.003575234318530896   -0.0007460068835438097
-0.0011852386401799992   -0.0011867366777907964   -0.00039281051594799077
-0.0020516456405147102   -0.0013777916008923116   -0.0003921969802885833
-0.0037246673383934475   -0.003620629223448996   -0.0006349333719103206
-0.0011880058530794038   -0.0012156289544589533   -0.00031713364311305206
-0.002184617003003148   -0.0014081331631703397   -0.0002529510186801661
-0.0037246673383934475   -0.003620629223448996   -0.0006349333719103206
-0.0022733339291004287   -0.003474587741485146   -0.0005709197395835741
-0.0011880058530794038   -0.0012156289544589533   -0.00031713364311305206
-0.002265536004262898   -0.0034929402023559596   -0.0005080766639198152
-0.002184617003003148   -0.0014081331631703397   -0.0002529510186801661
-0.0011867328085002297   -0.0012231438470450074   -0.00023896455260214288
-0.002265536004262898   -0.0034929402023559596   -0.0005080766639198152
-0.0011880058530794038   -0.0012156289544589533   -0.00031713364311305206
-0.002184617003003148   -0.0014081331631703397   -0.0002529510186801661
-0.002265536004262898   -0.0034929402023559596   -0.0005080766639198152
-0.0038104355074655865   -0.003647274520442975   -0.000534010041648014
-0.0037246673383934475   -0.003620629223448996   -0.0006349333719103206
-0.002184617003003148   -0.0014081331631703397   -0.0002529510186801661
-0.002265536004262898   -0.0034929402023559596   -0.0005080766639198152
-0.0037246673383934475   -0.003620629223448996   -0.0006349333719103206
-0.0011880058530794038   -0.0012156289544589533   -0.00031713364311305206
-0.0012096945796597   -0.001130487224083905   -0.0004686622499327053
-0.002263645166144995   -0.003382061188266924   -0.0007081153572857723
-0.0005515668263308662   -0.001084461681768574   -0.00035672095788145237
-0.0011852386401799992   -0.0011867366777907964   -0.00039281051594799077
-0.002263645166144995   -0.003382061188266924   -0.0007081153572857723
-0.0010519180390803958   -0.0033295031987400753   -0.0006048439628684282
-0.0005515668263308662   -0.001084461681768574   -0.00035672095788145237
-0.0010419068757627904   -0.00336596878986883   -0.000568889244665096
-0.0011852386401799992   -0.0011867366777907964   -0.00039281051594799077
-0.0005299283929432239   -0.0011210053147438389   -0.00032084280729408754
-0.0010419068757627904   -0.00336596878986883   -0.000568889244665096
-0.0005515668263308662   -0.001084461681768574   -0.00035672095788145237
-0.0011852386401799992   -0.0011867366777907964   -0.00039281051594799077
-0.0010419068757627904   -0.00336596878986883   -0.000568889244665096
-0.0022654000182302553   -0.0034394925879962655   -0.0006381212682905123
-0.002263645166144995   -0.003382061188266924   -0.0007081153572857723
-0.0011852386401799992   -0.0011867366777907964   -0.00039281051594799077
-0.0010419068757627904   -0.00336596878986883   -0.000568889244665096
-0.002263645166144995   -0.003382061188266924   -0.0007081153572857723
-0.0005515668263308662   -0.001084461681768574   -0.00035672095788145237
-0.0011852386401799992   -0.0011867366777907964   -0.00039281051594799077
-0.0022654000182302553   -0.0034394925879962655   -0.0006381212682905123
-0.0005299283929432239   -0.0011210053147438389   -0.00032084280729408754
-0.0011880058530794038   -0.0012156289544589533   -0.00031713364311305206
-0.0022654000182302553   -0.0034394925879962655   -0.0006381212682905123
-0.0010419068757627904   -0.00336596878986883   -0.000568889244665096
-0.0005299283929432239   -0.0011210053147438389   -0.00032084280729408754
-0.001032929947766389   -0.003383686551807255   -0.000536335714087955
-0.0011880058530794038   -0.0012156289544589533   -0.00031713364311305206
-0.0005175403858094443   -0.0011349579683847943   -0.0002859662159387648
-0.001032929947766389   -0.003383686551807255   -0.000536335714087955
-0.0005299283929432239   -0.0011210053147438389   -0.00032084280729408754
-0.0011880058530794038   -0.0012156289544589533   -0.00031713364311305206
-0.001032929947766389   -0.003383686551807255   -0.000536335714087955
-0.0022733339291004287   -0.003474587741485146   -0.0005709197395835741
-0.0022654000182302553   -0.0034394925879962655   -0.0006381212682905123
-0.0011880058530794038   -0.0012156289544589533   -0.00031713364311305206
-0.001032929947766389   -0.003383686551807255   -0.000536335714087955
-0.0022654000182302553   -0.0034394925879962655   -0.0006381212682905123
-0.0005299283929432239   -0.0011210053147438389   -0.00032084280729408754
-0.0011880058530794038   -0.0012156289544589533   -0.00031713364311305206
-0.0022733339291004287   -0.003474587741485146   -0.0005709197395835741
-0.0005175403858094443   -0.0011349579683847943   -0.0002859662159387648
-0.0011867328085002297   -0.0012231438470450074   -0.00023896455260214288
-0.0022733339291004287   -0.003474587741485146   -0.0005709197395835741
-0.001032929947766389   -0.003383686551807255   -0.000536335714087955
-0.0005175403858094443   -0.0011349579683847943   -0.0002859662159387648
-0.001019970306233902   -0.003383321971206789   -0.0005080415876751414
-0.0011867328085002297   -0.0012231438470450074   -0.00023896455260214288
-0.0005061650871284909   -0.0011291918533921745   -0.0002499775478899173
-0.001019970306233902   -0.003383321971206789   -0.0005080415876751414
-0.0005175403858094443   -0.0011349579683847943   -0.0002859662159387648
-0.0011867328085002297   -0.0012231438470450074   -0.00023896455260214288
-0.001019970306233902   -0.003383321971206789   -0.0005080415876751414
-0.002265536004262898   -0.0034929402023559596   -0.0005080766639198152
-0.0022733339291004287   -0.003474587741485146   -0.0005709197395835741
-0.0011867328085002297   -0.0012231438470450074   -0.00023896455260214288
-0.001019970306233902   -0.003383321971206789   -0.0005080415876751414
-0.0022733339291004287   -0.003474587741485146   -0.0005709197395835741
-0.0005175403858094443   -0.0011349579683847943   -0.0002859662159387648
-0.0005515668263308662   -0.001084461681768574   -0.00035672095788145237
-0.0010519180390803958   -0.0033295031987400753   -0.0006048439628684282
6.974853738953514e-05   -0.0010904487079499783   -0.00028555879801294576
-0.0005299283929432239   -0.0011210053147438389   -0.00032084280729408754
-0.0010519180390803958   -0.0033295031987400753   -0.0006048439628684282
0.00011595739628399313   -0.003331124196117772   -0.0005397664552403681
6.974853738953514e-05   -0.0010904487079499783   -0.00028555879801294576
0.00012809975523966124   -0.003348262130737928   -0.0005372125998744353
-0.0005299283929432239   -0.0011210053147438389   -0.00032084280729408754
8.382702981738956e-05   -0.0011093123666596838   -0.0002903572548275278
0.00012809975523966124   -0.003348262130737928   -0.0005372125998744353
6.974853738953514e-05   -0.0010904487079499783   -0.00028555879801294576
-0.0005299283929432239   -0.0011210053147438389   -0.00032084280729408754
0.00012809975523966124   -0.003348262130737928   -0.0005372125998744353
-0.0010419068757627904   -0.00336596878986883   -0.000568889244665096
-0.0010519180390803958   -0.0033295031987400753   -0.0006048439628684282
-0.0005299283929432239   -0.0011210053147438389   -0.00032084280729408754
0.00012809975523966124   -0.003348262130737928   -0.0005372125998744353
-0.0010519180390803958   -0.0033295031987400753   -0.0006048439628684282
6.974853738953514e-05   -0.0010904487079499783   -0.00028555879801294576
-0.0005299283929432239   -0.0011210053147438389   -0.00032084280729408754
-0.0010419068757627904   -0.00336596878986883   -0.000568889244665096
8.382702981738956e-05   -0.0011093123666596838   -0.0002903572548275278
-0.0005175403858094443   -0.0011349579683847943   -0.0002859662159387648
-0.0010419068757627904   -0.00336596878986883   -0.000568889244665096
0.00012809975523966124   -0.003348262130737928   -0.0005372125998744353
8.382702981738956e-05   -0.0011093123666596838   -0.0002903572548275278
0.00013656695094156098   -0.0033470884655003117   -0.000538515473885003
-0.0005175403858094443   -0.0011349579683847943   -0.0002859662159387648
9.501471758188859e-05   -0.0011076811434490765   -0.0002947473903049515
0.00013656695094156098   -0.0033470884655003117   -0.000538515473885003
8.382702981738956e-05   -0.0011093123666596838   -0.0002903572548275278
-0.0005175403858094443   -0.0011349579683847943   -0.0002859662159387648
0.00013656695094156098   -0.0033470884655003117   -0.000538515473885003
-0.001032929947766389   -0.003383686551807255   -0.000536335714087955
-0.0010419068757627904   -0.00336596878986883   -0.000568889244665096
-0.0005175403858094443   -0.0011349579683847943   -0.0002859662159387648
0.00013656695094156098   -0.0033470884655003117   -0.000538515473885003
-0.0010419068757627904   -0.00336596878986883   -0.000568889244665096
8.382702981738956e-05   -0.0011093123666596838   -0.0002903572548275278
-0.0005175403858094443   -0.0011349579683847943   -0.0002859662159387648
-0.001032929947766389   -0.003383686551807255   -0.000536335714087955
9.501471758188859e-05   -0.0011076811434490765   -0.0002947473903049515
-0.0005061650871284909   -0.0011291918533921745   -0.0002499775478899173
-0.001032929947766389   -0.003383686551807255   -0.000536335714087955
0.00013656695094156098   -0.0033470884655003117   -0.000538515473885003
9.501471758188859e-05   -0.0011076811434490765   -0.0002947473903049515
0.00014558124670122077   -0.003327048983161787   -0.0005437348811603603
-0.0005061650871284909   -0.0011291918533921745   -0.0002499775478899173
0.00010987680740289208   -0.0010838854530024575   -0.0002993268336105415
0.00014558124670122077   -0.003327048983161787   -0.0005437348811603603
9.501471758188859e-05   -0.0011076811434490765   -0.0002947473903049515
-0.0005061650871284909   -0.0011291918533921745   -0.0002499775478899173
0.00014558124670122077   -0.003327048983161787   -0.0005437348811603603
-0.001019970306233902   -0.003383321971206789   -0.0005080415876751414
-0.001032929947766389   -0.003383686551807255   -0.000536335714087955
-0.0005061650871284909   -0.0011291918533921745   -0.0002499775478899173
0.00014558124670122077   -0.003327048983161787   -0.0005437348811603603
-0.001032929947766389   -0.003383686551807255   -0.000536335714087955
9.501471758188859e-05   -0.0011076811434490765   -0.0002947473903049515
6.974853738953514e-05   -0.0010904487079499783   -0.00028555879801294576
0.00011595739628399313   -0.003331124196117772   -0.0005397664552403681
0.000744666474096016   -0.0011428555897184057   -0.0002505898161960406
8.382702981738956e-05   -0.0011093123666596838   -0.0002903572548275278
0.00011595739628399313   -0.003331124196117772   -0.0005397664552403681
0.00135409821019639   -0.0033849868255687006   -0.0005097493982578065
0.000744666474096016   -0.0011428555897184057   -0.0002505898161960406
0.001361507029064104   -0.0033845247921406173   -0.0005416730265175953
8.382702981738956e-05   -0.0011093123666596838   -0.0002903572548275278
0.0007467020103061448   -0.0011487229123624577   -0.0002981944102152031
0.001361507029064104   -0.0033845247921406173   -0.0005416730265175953
0.000744666474096016   -0.0011428555897184057   -0.0002505898161960406
8.382702981738956e-05   -0.0011093123666596838   -0.0002903572548275278
0.001361507029064104   -0.0033845247921406173   -0.0005416730265175953
0.00012809975523966124   -0.003348262130737928   -0.0005372125998744353
0.00011595739628399313   -0.003331124196117772   -0.0005397664552403681
8.382702981738956e-05   -0.0011093123666596838   -0.0002903572548275278
0.001361507029064104   -0.0033845247921406173   -0.0005416730265175953
0.00011595739628399313   -0.003331124196117772   -0.0005397664552403681
0.000744666474096016   -0.0011428555897184057   -0.0002505898161960406
8.382702981738956e-05   -0.0011093123666596838   -0.0002903572548275278
0.00012809975523966124   -0.003348262130737928   -0.0005372125998744353
0.0007467020103061448   -0.0011487229123624577   -0.0002981944102152031
9.501471758188859e-05   -0.0011076811434490765   -0.0002947473903049515
0.00012809975523966124   -0.003348262130737928   -0.0005372125998744353
0.001361507029064104   -0.0033845247921406173   -0.0005416730265175953
0.0007467020103061448   -0.0011487229123624577   -0.0002981944102152031
0.0013562795448304119   -0.003366135396790877   -0.0005779593264360673
9.501471758188859e-05   -0.0011076811434490765   -0.0002947473903049515
0.0007441170596651009   -0.0011323246794174907   -0.00034394405037708895
0.0013562795448304119   -0.003366135396790877   -0.0005779593264360673
0.0007467020103061448   -0.0011487229123624577   -0.0002981944102152031
9.501471758188859e-05   -0.0011076811434490765   -0.0002947473903049515
0.0013562795448304119   -0.003366135396790877   -0.0005779593264360673
0.00013656695094156098   -0.0033470884655003117   -0.000538515473885003
0.00012809975523966124   -0.003348262130737928   -0.0005372125998744353
9.501471758188859e-05   -0.0011076811434490765   -0.0002947473903049515
0.0013562795448304119   -0.003366135396790877   -0.0005779593264360673
0.00012809975523966124   -0.003348262130737928   -0.0005372125998744353
0.0007467020103061448   -0.0011487229123624577   -0.0002981944102152031
9.501471758188859e-05   -0.0011076811434490765   -0.0002947473903049515
0.00013656695094156098   -0.0033470884655003117   -0.000538515473885003
0.0007441170596651009   -0.0011323246794174907   -0.00034394405037708895
0.00010987680740289208   -0.0010838854530024575   -0.0002993268336105415
0.00013656695094156098   -0.0033470884655003117   -0.000538515473885003
0.0013562795448304119   -0.003366135396790877   -0.0005779593264360673
0.0007441170596651009   -0.0011323246794174907   -0.00034394405037708895
0.001353669807990618   -0.003324832528760756   -0.000617262123472027
0.00010987680740289208   -0.0010838854530024575   -0.0002993268336105415
0.0007591174428375591   -0.0010887078406397886   -0.00038888717720440694
0.001353669807990618   -0.003324832528760756   -0.000617262123472027
0.0007441170596651009   -0.0011323246794174907   -0.00034394405037708895
0.00010987680740289208   -0.0010838854530024575   -0.0002993268336105415
0.001353669807990618   -0.003324832528760756   -0.000617262123472027
0.00014558124670122077   -0.003327048983161787   -0.0005437348811603603
0.00013656695094156098   -0.0033470884655003117   -0.000538515473885003
0.00010987680740289208   -0.0010838854530024575   -0.0002993268336105415
0.001353669807990618   -0.003324832528760756   -0.000617262123472027
0.00013656695094156098   -0.0033470884655003117   -0.000538515473885003
0.0007441170596651009   -0.0011323246794174907   -0.00034394405037708895
0.000744666474096016   -0.0011428555897184057   -0.0002505898161960406
0.00135409821019639   -0.0033849868255687006   -0.0005097493982578065
0.001684952317790322   -0.001275993942286321   -0.0002370116753366709
0.0007467020103061448   -0.0011487229123624577   -0.0002981944102152031
0.00135409821019639   -0.0033849868255687006   -0.0005097493982578065
0.0028495618426501667   -0.003484915798367993   -0.0005023608792256632
0.001684952317790322   -0.001275993942286321   -0.0002370116753366709
0.002793164388136607   -0.0034749979439112947   -0.0005743244906926994
0.0007467020103061448   -0.0011487229123624577   -0.0002981944102152031
0.0015833661906232556   -0.0012617770206526978   -0.00034517073855407034
0.002793164388136607   -0.0034749979439112947   -0.0005743244906926994
0.001684952317790322   -0.001275993942286321   -0.0002370116753366709
0.0007467020103061448   -0.0011487229123624577   -0.0002981944102152031
0.002793164388136607   -0.0034749979439112947   -0.0005743244906926994
0.001361507029064104   -0.0033845247921406173   -0.0005416730265175953
0.00135409821019639   -0.0033849868255687006   -0.0005097493982578065
0.0007467020103061448   -0.0011487229123624577   -0.0002981944102152031
0.002793164388136607   -0.0034749979439112947   -0.0005743244906926994
0.00135409821019639   -0.0033849868255687006   -0.0005097493982578065
0.001684952317790322   -0.001275993942286321   -0.0002370116753366709
0.0007467020103061448   -0.0011487229123624577   -0.0002981944102152031
0.001361507029064104   -0.0033845247921406173   -0.0005416730265175953
0.0015833661906232556   -0.0012617770206526978   -0.00034517073855407034
0.0007441170596651009   -0.0011323246794174907   -0.00034394405037708895
0.001361507029064104   -0.0033845247921406173   -0.0005416730265175953
0.002793164388136607   -0.0034749979439112947   -0.0005743244906926994
0.0015833661906232556   -0.0012617770206526978   -0.00034517073855407034
0.002742628491866735   -0.003446706333969029   -0.0006554547873105313
0.0007441170596651009   -0.0011323246794174907   -0.00034394405037708895
0.0015367976811275009   -0.0012355507063029237   -0.0004366977314827998
0.002742628491866735   -0.003446706333969029   -0.0006554547873105313
0.0015833661906232556   -0.0012617770206526978   -0.00034517073855407034
0.0007441170596651009   -0.0011323246794174907   -0.00034394405037708895
0.002742628491866735   -0.003446706333969029   -0.0006554547873105313
0.0013562795448304119   -0.003366135396790877   -0.0005779593264360673
0.001361507029064104   -0.0033845247921406173   -0.0005416730265175953
0.0007441170596651009   -0.0011323246794174907   -0.00034394405037708895
0.002742628491866735   -0.003446706333969029   -0.0006554547873105313
0.001361507029064104   -0.0033845247921406173   -0.0005416730265175953
0.0015833661906232556   -0.0012617770206526978   -0.00034517073855407034
0.0007441170596651009   -0.0011323246794174907   -0.00034394405037708895
0.0013562795448304119   -0.003366135396790877   -0.0005779593264360673
0.0015367976811275009   -0.0012355507063029237   -0.0004366977314827998
0.0007591174428375591   -0.0010887078406397886   -0.00038888717720440694
0.0013562795448304119   -0.003366135396790877   -0.0005779593264360673
0.002742628491866735   -0.003446706333969029   -0.0006554547873105313
0.0015367976811275009   -0.0012355507063029237   -0.0004366977314827998
0.002666231857520312   -0.003384110871095509   -0.0007400135647269138
0.0007591174428375591   -0.0010887078406397886   -0.00038888717720440694
0.0014670417709341163   -0.001168672609859353   -0.0005336960225102472
0.002666231857520312   -0.003384110871095509   -0.0007400135647269138
0.0015367976811275009   -0.0012355507063029237   -0.0004366977314827998
0.0007591174428375591   -0.0010887078406397886   -0.00038888717720440694
0.002666231857520312   -0.003384110871095509   -0.0007400135647269138
0.001353669807990618   -0.003324832528760756   -0.000617262123472027
0.0013562795448304119   -0.003366135396790877   -0.0005779593264360673
0.0007591174428375591   -0.0010887078406397886   -0.00038888717720440694
0.002666231857520312   -0.003384110871095509   -0.0007400135647269138
0.0013562795448304119   -0.003366135396790877   -0.0005779593264360673
0.0015367976811275009   -0.0012355507063029237   -0.0004366977314827998
-0.0035470172693592076   -0.0034949983156658078   -0.0008595277100724625
-0.004852419979828894   -0.006538555260790672   -0.000979893508349251
-0.002263645166144995   -0.003382061188266924   -0.0007081153572857723
-0.0036520673472445328   -0.003575234318530896   -0.0007460068835438097
-0.004852419979828894   -0.006538555260790672   -0.000979893508349251
-0.0031206068341661426   -0.0064525080461492225   -0.0008575579044456801
-0.002263645166144995   -0.003382061188266924   -0.0007081153572857723
-0.003126323690256174   -0.006501913046982748   -0.0008034094096467926
-0.0036520673472445328   -0.003575234318530896   -0.0007460068835438097
-0.0022654000182302553   -0.0034394925879962655   -0.0006381212682905123
-0.003126323690256174   -0.006501913046982748   -0.0008034094096467926
-0.002263645166144995   -0.003382061188266924   -0.0007081153572857723
-0.0036520673472445328   -0.003575234318530896   -0.0007460068835438097
-0.003126323690256174   -0.006501913046982748   -0.0008034094096467926
-0.004937160355235257   -0.0066061399099237895   -0.0008955869684418456
-0.004852419979828894   -0.006538555260790672   -0.000979893508349251
-0.0036520673472445328   -0.003575234318530896   -0.0007460068835438097
-0.003126323690256174   -0.006501913046982748   -0.0008034094096467926
-0.004852419979828894   -0.006538555260790672   -0.000979893508349251
-0.002263645166144995   -0.003382061188266924   -0.0007081153572857723
-0.0036520673472445328   -0.003575234318530896   -0.0007460068835438097
-0.004937160355235257   -0.0066061399099237895   -0.0008955869684418456
-0.0022654000182302553   -0.0034394925879962655   -0.0006381212682905123
-0.0037246673383934475   -0.003620629223448996   -0.0006349333719103206
-0.004937160355235257   -0.0066061399099237895   -0.0008955869684418456
-0.003126323690256174   -0.006501913046982748   -0.0008034094096467926
-0.0022654000182302553   -0.0034394925879962655   -0.0006381212682905123
-0.0031331929788678513   -0.0065363875913157276   -0.0007532205824545413
-0.0037246673383934475   -0.003620629223448996   -0.0006349333719103206
-0.0022733339291004287   -0.003474587741485146   -0.0005709197395835741
-0.0031331929788678513   -0.0065363875913157276   -0.0007532205824545413
-0.0022654000182302553   -0.0034394925879962655   -0.0006381212682905123
-0.0037246673383934475   -0.003620629223448996   -0.0006349333719103206
-0.0031331929788678513   -0.0065363875913157276   -0.0007532205824545413
-0.0049900654178281845   -0.00664862528102813   -0.0008170807576933282
-0.004937160355235257   -0.0066061399099237895   -0.0008955869684418456
-0.0037246673383934475   -0.003620629223448996   -0.0006349333719103206
-0.0031331929788678513   -0.0065363875913157276   -0.0007532205824545413
-0.004937160355235257   -0.0066061399099237895   -0.0008955869684418456
-0.0022654000182302553   -0.0034394925879962655   -0.0006381212682905123
-0.0037246673383934475   -0.003620629223448996   -0.0006349333719103206
-0.0049900654178281845   -0.00664862528102813   -0.0008170807576933282
-0.0022733339291004287   -0.003474587741485146   -0.0005709197395835741
-0.0038104355074655865   -0.003647274520442975   -0.000534010041648014
-0.0049900654178281845   -0.00664862528102813   -0.0008170807576933282
-0.0031331929788678513   -0.0065363875913157276   -0.0007532205824545413
-0.0022733339291004287   -0.003474587741485146   -0.0005709197395835741
-0.003126129368950318   -0.006559211215597101   -0.0007061450546151357
-0.0038104355074655865   -0.003647274520442975   -0.000534010041648014
-0.002265536004262898   -0.0034929402023559596   -0.0005080766639198152
-0.003126129368950318   -0.006559211215597101   -0.0007061450546151357
-0.0022733339291004287   -0.003474587741485146   -0.0005709197395835741
-0.0038104355074655865   -0.003647274520442975   -0.000534010041648014
-0.003126129368950318   -0.006559211215597101   -0.0007061450546151357
-0.005050259760908125   -0.006679411081708254   -0.0007449183221925207
-0.0049900654178281845   -0.00664862528102813   -0.0008170807576933282
-0.0038104355074655865   -0.003647274520442975   -0.000534010041648014
-0.003126129368950318   -0.006559211215597101   -0.0007061450546151357
-0.0049900654178281845   -0.00664862528102813   -0.0008170807576933282
-0.0022733339291004287   -0.003474587741485146   -0.0005709197395835741
-0.002263645166144995   -0.003382061188266924   -0.0007081153572857723
-0.0031206068341661426   -0.0064525080461492225   -0.0008575579044456801
-0.0010519180390803958   -0.0033295031987400753   -0.0006048439628684282
-0.0022654000182302553   -0.0034394925879962655   -0.0006381212682905123
-0.0031206068341661426   -0.0064525080461492225   -0.0008575579044456801
-0.0014893316964713302   -0.00640950842049645   -0.0007726147056177771
-0.0010519180390803958   -0.0033295031987400753   -0.0006048439628684282
-0.0014844850430314608   -0.006441013888091986   -0.0007419027507742759
-0.0022654000182302553   -0.0034394925879962655   -0.0006381212682905123
-0.0010419068757627904   -0.00336596878986883   -0.000568889244665096
-0.0014844850430314608   -0.006441013888091986   -0.0007419027507742759
-0.0010519180390803958   -0.0033295031987400753   -0.0006048439628684282
-0.0022654000182302553   -0.0034394925879962655   -0.0006381212682905123
-0.0014844850430314608   -0.006441013888091986   -0.0007419027507742759
-0.003126323690256174   -0.006501913046982748   -0.0008034094096467926
-0.0031206068341661426   -0.0064525080461492225   -0.0008575579044456801
-0.0022654000182302553   -0.0034394925879962655   -0.0006381212682905123
-0.0014844850430314608   -0.006441013888091986   -0.0007419027507742759
-0.0031206068341661426   -0.0064525080461492225   -0.0008575579044456801
-0.0010519180390803958   -0.0033295031987400753   -0.0006048439628684282
-0.0022654000182302553   -0.0034394925879962655   -0.0006381212682905123
-0.003126323690256174   -0.006501913046982748   -0.0008034094096467926
-0.0010419068757627904   -0.00336596878986883   -0.000568889244665096
-0.0022733339291004287   -0.003474587741485146   -0.0005709197395835741
-0.003126323690256174   -0.006501913046982748   -0.0008034094096467926
-0.0014844850430314608   -0.006441013888091986   -0.0007419027507742759
-0.0010419068757627904   -0.00336596878986883   -0.000568889244665096
-0.0014788060845680761   -0.006459556450212954   -0.0007149543267896494
-0.0022733339291004287   -0.003474587741485146   -0.0005709197395835741
-0.001032929947766389   -0.003383686551807255   -0.000536335714087955
-0.0014788060845680761   -0.006459556450212954   -0.0007149543267896494
-0.0010419068757627904   -0.00336596878986883   -0.000568889244665096
-0.0022733339291004287   -0.003474587741485146   -0.0005709197395835741
-0.0014788060845680761   -0.006459556450212954   -0.0007149543267896494
-0.0031331929788678513   -0.0065363875913157276   -0.0007532205824545413
-0.003126323690256174   -0.006501913046982748   -0.0008034094096467926
-0.0022733339291004287   -0.003474587741485146   -0.0005709197395835741
-0.0014788060845680761   -0.006459556450212954   -0.0007149543267896494
-0.003126323690256174   -0.006501913046982748   -0.0008034094096467926
-0.0010419068757627904   -0.00336596878986883   -0.000568889244665096
-0.0022733339291004287   -0.003474587741485146   -0.0005709197395835741
-0.0031331929788678513   -0.0065363875913157276   -0.0007532205824545413
-0.001032929947766389   -0.003383686551807255   -0.000536335714087955
-0.002265536004262898   -0.0034929402023559596   -0.0005080766639198152
-0.0031331929788678513   -0.0065363875913157276   -0.0007532205824545413
-0.0014788060845680761   -0.006459556450212954   -0.0007149543267896494
-0.001032929947766389   -0.003383686551807255   -0.000536335714087955
-0.001470168959603473   -0.006465400950127541   -0.0006917614768344241
-0.002265536004262898   -0.0034929402023559596   -0.0005080766639198152
-0.001019970306233902   -0.003383321971206789   -0.0005080415876751414
-0.001470168959603473   -0.006465400950127541   -0.0006917614768344241
-0.001032929947766389   -0.003383686551807255   -0.000536335714087955
-0.002265536004262898   -0.0034929402023559596   -0.0005080766639198152
-0.001470168959603473   -0.006465400950127541   -0.0006917614768344241
-0.003126129368950318   -0.006559211215597101   -0.0007061450546151357
-0.0031331929788678513   -0.0065363875913157276   -0.0007532205824545413
-0.002265536004262898   -0.0034929402023559596   -0.0005080766639198152
-0.001470168959603473   -0.006465400950127541   -0.0006917614768344241
-0.0031331929788678513   -0.0065363875913157276   -0.0007532205824545413
-0.001032929947766389   -0.003383686551807255   -0.000536335714087955
-0.0010519180390803958   -0.0033295031987400753   -0.0006048439628684282
-0.0014893316964713302   -0.00640950842049645   -0.0007726147056177771
0.00011595739628399313   -0.003331124196117772   -0.0005397664552403681
-0.0010419068757627904   -0.00336596878986883   -0.000568889244665096
-0.0014893316964713302   -0.00640950842049645   -0.0007726147056177771
9.35572031586582e-05   -0.0064072007103351   -0.0007201771884880169
0.00011595739628399313   -0.003331124196117772   -0.0005397664552403681
0.00010157445990435523   -0.006421059417251712   -0.0007127834302096978
-0.0010419068757627904   -0.00336596878986883   -0.000568889244665096
0.00012809975523966124   -0.003348262130737928   -0.0005372125998744353
0.00010157445990435523   -0.006421059417251712   -0.0007127834302096978
0.00011595739628399313   -0.003331124196117772   -0.0005397664552403681
-0.0010419068757627904   -0.00336596878986883   -0.000568889244665096
0.00010157445990435523   -0.006421059417251712   -0.0007127834302096978
-0.0014844850430314608   -0.006441013888091986   -0.0007419027507742759
-0.0014893316964713302   -0.00640950842049645   -0.0007726147056177771
-0.0010419068757627904   -0.00336596878986883   -0.000568889244665096
0.00010157445990435523   -0.006421059417251712   -0.0007127834302096978
-0.0014893316964713302   -0.00640950842049645   -0.0007726147056177771
0.00011595739628399313   -0.003331124196117772   -0.0005397664552403681
-0.0010419068757627904   -0.00336596878986883   -0.000568889244665096
-0.0014844850430314608   -0.006441013888091986   -0.0007419027507742759
0.00012809975523966124   -0.003348262130737928   -0.0005372125998744353
-0.001032929947766389   -0.003383686551807255   -0.000536335714087955
-0.0014844850430314608   -0.006441013888091986   -0.0007419027507742759
0.00010157445990435523   -0.006421059417251712   -0.0007127834302096978
0.00012809975523966124   -0.003348262130737928   -0.0005372125998744353
0.00010711248819841811   -0.00642200501369581   -0.0007090586976880678
-0.001032929947766389   -0.003383686551807255   -0.000536335714087955
0.00013656695094156098   -0.0033470884655003117   -0.000538515473885003
0.00010711248819841811   -0.00642200501369581   -0.0007090586976880678
0.00012809975523966124   -0.003348262130737928   -0.0005372125998744353
-0.001032929947766389   -0.003383686551807255   -0.000536335714087955
0.00010711248819841811   -0.00642200501369581   -0.0007090586976880678
-0.0014788060845680761   -0.006459556450212954   -0.0007149543267896494
-0.0014844850430314608   -0.006441013888091986   -0.0007419027507742759
-0.001032929947766389   -0.003383686551807255   -0.000536335714087955
0.00010711248819841811   -0.00642200501369581   -0.0007090586976880678
-0.0014844850430314608   -0.006441013888091986   -0.0007419027507742759
0.00012809975523966124   -0.003348262130737928   -0.0005372125998744353
-0.001032929947766389   -0.003383686551807255   -0.000536335714087955
-0.0014788060845680761   -0.006459556450212954   -0.0007149543267896494
0.00013656695094156098   -0.0033470884655003117   -0.000538515473885003
-0.001019970306233902   -0.003383321971206789   -0.0005080415876751414
-0.0014788060845680761   -0.006459556450212954   -0.0007149543267896494
0.00010711248819841811   -0.00642200501369581   -0.0007090586976880678
0.00013656695094156098   -0.0033470884655003117   -0.000538515473885003
0.00011144000801775942   -0.006409846496068244   -0.0007092217012283999
-0.001019970306233902   -0.003383321971206789   -0.0005080415876751414
0.00014558124670122077   -0.003327048983161787   -0.0005437348811603603
0.00011144000801775942   -0.006409846496068244   -0.0007092217012283999
0.00013656695094156098   -0.0033470884655003117   -0.000538515473885003
-0.001019970306233902   -0.003383321971206789   -0.0005080415876751414
0.00011144000801775942   -0.006409846496068244   -0.0007092217012283999
-0.001470168959603473   -0.006465400950127541   -0.0006917614768344241
-0.0014788060845680761   -0.006459556450212954   -0.0007149543267896494
-0.001019970306233902   -0.003383321971206789   -0.0005080415876751414
0.00011144000801775942   -0.006409846496068244   -0.0007092217012283999
-0.0014788060845680761   -0.006459556450212954   -0.0007149543267896494
0.00013656695094156098   -0.0033470884655003117   -0.000538515473885003
0.00011595739628399313   -0.003331124196117772   -0.0005397664552403681
9.35572031586582e-05   -0.0064072007103351   -0.0007201771884880169
0.00135409821019639   -0.0033849868255687006   -0.0005097493982578065
0.00012809975523966124   -0.003348262130737928   -0.0005372125998744353
9.35572031586582e-05   -0.0064072007103351   -0.0007201771884880169
0.0017443212626115877   -0.006443156026562409   -0.0006993822402817296
0.00135409821019639   -0.0033849868255687006   -0.0005097493982578065
0.0017515780489367938   -0.006440800418442212   -0.0007157818451760979
0.00012809975523966124   -0.003348262130737928   -0.0005372125998744353
0.001361507029064104   -0.0033845247921406173   -0.0005416730265175953
0.0017515780489367938   -0.006440800418442212   -0.0007157818451760979
0.00135409821019639   -0.0033849868255687006   -0.0005097493982578065
0.00012809975523966124   -0.003348262130737928   -0.0005372125998744353
0.0017515780489367938   -0.006440800418442212   -0.0007157818451760979
0.00010157445990435523   -0.006421059417251712   -0.0007127834302096978
9.35572031586582e-05   -0.0064072007103351   -0.0007201771884880169
0.00012809975523966124   -0.003348262130737928   -0.0005372125998744353
0.0017515780489367938   -0.006440800418442212   -0.0007157818451760979
9.35572031586582e-05   -0.0064072007103351   -0.0007201771884880169
0.00135409821019639   -0.0033849868255687006   -0.0005097493982578065
0.00012809975523966124   -0.003348262130737928   -0.0005372125998744353
0.00010157445990435523   -0.006421059417251712   -0.0007127834302096978
0.001361507029064104   -0.0033845247921406173   -0.0005416730265175953
0.00013656695094156098   -0.0033470884655003117   -0.000538515473885003
0.00010157445990435523   -0.006421059417251712   -0.0007127834302096978
0.0017515780489367938   -0.006440800418442212   -0.0007157818451760979
0.001361507029064104   -0.0033845247921406173   -0.0005416730265175953
0.0017484157734017308   -0.006425846571834123   -0.0007355808941783675
0.00013656695094156098   -0.0033470884655003117   -0.000538515473885003
0.0013562795448304119   -0.003366135396790877   -0.0005779593264360673
0.0017484157734017308   -0.006425846571834123   -0.0007355808941783675
0.001361507029064104   -0.0033845247921406173   -0.0005416730265175953
0.00013656695094156098   -0.0033470884655003117   -0.000538515473885003
0.0017484157734017308   -0.006425846571834123   -0.0007355808941783675
0.00010711248819841811   -0.00642200501369581   -0.0007090586976880678
0.00010157445990435523   -0.006421059417251712   -0.0007127834302096978
0.00013656695094156098   -0.0033470884655003117   -0.000538515473885003
0.0017484157734017308   -0.006425846571834123   -0.0007355808941783675
0.00010157445990435523   -0.006421059417251712   -0.0007127834302096978
0.001361507029064104   -0.0033845247921406173   -0.0005416730265175953
0.00013656695094156098   -0.0033470884655003117   -0.000538515473885003
0.00010711248819841811   -0.00642200501369581   -0.0007090586976880678
0.0013562795448304119   -0.003366135396790877   -0.0005779593264360673
0.00014558124670122077   -0.003327048983161787   -0.0005437348811603603
0.00010711248819841811   -0.00642200501369581   -0.0007090586976880678
0.0017484157734017308   -0.006425846571834123   -0.0007355808941783675
0.0013562795448304119   -0.003366135396790877   -0.0005779593264360673
0.0017429641294940494   -0.006395132787823058   -0.0007591855719753595
0.00014558124670122077   -0.003327048983161787   -0.0005437348811603603
0.001353669807990618   -0.003324832528760756   -0.000617262123472027
0.0017429641294940494   -0.006395132787823058   -0.0007591855719753595
0.0013562795448304119   -0.003366135396790877   -0.0005779593264360673
0.00014558124670122077   -0.003327048983161787   -0.0005437348811603603
0.0017429641294940494   -0.006395132787823058   -0.0007591855719753595
0.00011144000801775942   -0.006409846496068244   -0.0007092217012283999
0.00010711248819841811   -0.00642200501369581   -0.0007090586976880678
0.00014558124670122077   -0.003327048983161787   -0.0005437348811603603
0.0017429641294940494   -0.006395132787823058   -0.0007591855719753595
0.00010711248819841811   -0.00642200501369581   -0.0007090586976880678
0.0013562795448304119   -0.003366135396790877   -0.0005779593264360673
0.00135409821019639   -0.0033849868255687006   -0.0005097493982578065
0.0017443212626115877   -0.006443156026562409   -0.0006993822402817296
0.0028495618426501667   -0.003484915798367993   -0.0005023608792256632
0.001361507029064104   -0.0033845247921406173   -0.0005416730265175953
0.0017443212626115877   -0.006443156026562409   -0.0006993822402817296
0.003624955315205142   -0.006508119132769129   -0.0007007138963412606
0.0028495618426501667   -0.003484915798367993   -0.0005023608792256632
0.0035952907727885585   -0.006496358641486476   -0.0007438455232986809
0.001361507029064104   -0.0033845247921406173   -0.0005416730265175953
0.002793164388136607   -0.0034749979439112947   -0.0005743244906926994
0.0035952907727885585   -0.006496358641486476   -0.0007438455232986809
0.0028495618426501667   -0.003484915798367993   -0.0005023608792256632
0.001361507029064104   -0.0033845247921406173   -0.0005416730265175953
0.0035952907727885585   -0.006496358641486476   -0.0007438455232986809
0.0017515780489367938   -0.006440800418442212   -0.0007157818451760979
0.0017443212626115877   -0.006443156026562409   -0.0006993822402817296
0.001361507029064104   -0.0033845247921406173   -0.0005416730265175953
0.0035952907727885585   -0.006496358641486476   -0.0007438455232986809
0.0017443212626115877   -0.006443156026562409   -0.0006993822402817296
0.0028495618426501667   -0.003484915798367993   -0.0005023608792256632
0.001361507029064104   -0.0033845247921406173   -0.0005416730265175953
0.0017515780489367938   -0.006440800418442212   -0.0007157818451760979
0.002793164388136607   -0.0034749979439112947   -0.0005743244906926994
0.0013562795448304119   -0.003366135396790877   -0.0005779593264360673
0.0017515780489367938   -0.006440800418442212   -0.0007157818451760979
0.0035952907727885585   -0.006496358641486476   -0.0007438455232986809
0.002793164388136607   -0.0034749979439112947   -0.0005743244906926994
0.0035654164795174467   -0.006473409226008715   -0.0007931081783706768
0.0013562795448304119   -0.003366135396790877   -0.0005779593264360673
0.002742628491866735   -0.003446706333969029   -0.0006554547873105313
0.0035654164795174467   -0.006473409226008715   -0.0007931081783706768
0.002793164388136607   -0.0034749979439112947   -0.0005743244906926994
0.0013562795448304119   -0.003366135396790877   -0.0005779593264360673
0.0035654164795174467   -0.006473409226008715   -0.0007931081783706768
0.0017484157734017308   -0.006425846571834123   -0.0007355808941783675
0.0017515780489367938   -0.006440800418442212   -0.0007157818451760979
0.0013562795448304119   -0.003366135396790877   -0.0005779593264360673
0.0035654164795174467   -0.006473409226008715   -0.0007931081783706768
0.0017515780489367938   -0.006440800418442212   -0.0007157818451760979
0.002793164388136607   -0.0034749979439112947   -0.0005743244906926994
0.0013562795448304119   -0.003366135396790877   -0.0005779593264360673
0.0017484157734017308   -0.006425846571834123   -0.0007355808941783675
0.002742628491866735   -0.003446706333969029   -0.0006554547873105313
0.001353669807990618   -0.003324832528760756   -0.000617262123472027
0.0017484157734017308   -0.006425846571834123   -0.0007355808941783675
0.0035654164795174467   -0.006473409226008715   -0.0007931081783706768
0.002742628491866735   -0.003446706333969029   -0.0006554547873105313
0.003511135006273954   -0.006425672621764969   -0.0008485088362793729
0.001353669807990618   -0.003324832528760756   -0.000617262123472027
0.002666231857520312   -0.003384110871095509   -0.0007400135647269138
0.003511135006273954   -0.006425672621764969   -0.0008485088362793729
0.002742628491866735   -0.003446706333969029   -0.0006554547873105313
0.001353669807990618   -0.003324832528760756   -0.000617262123472027
0.003511135006273954   -0.006425672621764969   -0.0008485088362793729
0.0017429641294940494   -0.006395132787823058   -0.0007591855719753595
0.0017484157734017308   -0.006425846571834123   -0.0007355808941783675
0.001353669807990618   -0.003324832528760756   -0.000617262123472027
0.003511135006273954   -0.006425672621764969   -0.0008485088362793729
0.0017484157734017308   -0.006425846571834123   -0.0007355808941783675
0.002742628491866735   -0.003446706333969029   -0.0006554547873105313
-0.004852419979828894   -0.006538555260790672   -0.000979893508349251
-0.0057864169450332304   -0.010138143930754922   -0.0010462643969590256
-0.0031206068341661426   -0.0064525080461492225   -0.0008575579044456801
-0.004937160355235257   -0.0066061399099237895   -0.0008955869684418456
-0.0057864169450332304   -0.010138143930754922   -0.0010462643969590256
-0.0037581561927004844   -0.010083640551733592   -0.0009469407446279736
-0.0031206068341661426   -0.0064525080461492225   -0.0008575579044456801
-0.0037615209620516367   -0.010125972254762342   -0.0009083056514087503
-0.004937160355235257   -0.0066061399099237895   -0.0008955869684418456
-0.003126323690256174   -0.006501913046982748   -0.0008034094096467926
-0.0037615209620516367   -0.010125972254762342   -0.0009083056514087503
-0.0031206068341661426   -0.0064525080461492225   -0.0008575579044456801
-0.004937160355235257   -0.0066061399099237895   -0.0008955869684418456
-0.0037615209620516367   -0.010125972254762342   -0.0009083056514087503
-0.005842841243625265   -0.010195470387865798   -0.0009905791738075553
-0.0057864169450332304   -0.010138143930754922   -0.0010462643969590256
-0.004937160355235257   -0.0066061399099237895   -0.0008955869684418456
-0.0037615209620516367   -0.010125972254762342   -0.0009083056514087503
-0.0057864169450332304   -0.010138143930754922   -0.0010462643969590256
-0.0031206068341661426   -0.0064525080461492225   -0.0008575579044456801
-0.004937160355235257   -0.0066061399099237895   -0.0008955869684418456
-0.005842841243625265   -0.010195470387865798   -0.0009905791738075553
-0.003126323690256174   -0.006501913046982748   -0.0008034094096467926
-0.0049900654178281845   -0.00664862528102813   -0.0008170807576933282
-0.005842841243625265   -0.010195470387865798   -0.0009905791738075553
-0.0037615209620516367   -0.010125972254762342   -0.0009083056514087503
-0.003126323690256174   -0.006501913046982748   -0.0008034094096467926
-0.00376355187005708   -0.010159631386559016   -0.0008735408754807476
-0.0049900654178281845   -0.00664862528102813   -0.0008170807576933282
-0.0031331929788678513   -0.0065363875913157276   -0.0007532205824545413
-0.00376355187005708   -0.010159631386559016   -0.0008735408754807476
-0.003126323690256174   -0.006501913046982748   -0.0008034094096467926
-0.0049900654178281845   -0.00664862528102813   -0.0008170807576933282
-0.00376355187005708   -0.010159631386559016   -0.0008735408754807476
-0.005874646434653382   -0.01023614915069055   -0.0009402867484990899
-0.005842841243625265   -0.010195470387865798   -0.0009905791738075553
-0.0049900654178281845   -0.00664862528102813   -0.0008170807576933282
-0.00376355187005708   -0.010159631386559016   -0.0008735408754807476
-0.005842841243625265   -0.010195470387865798   -0.0009905791738075553
-0.003126323690256174   -0.006501913046982748   -0.0008034094096467926
-0.0049900654178281845   -0.00664862528102813   -0.0008170807576933282
-0.005874646434653382   -0.01023614915069055   -0.0009402867484990899
-0.0031331929788678513   -0.0065363875913157276   -0.0007532205824545413
-0.005050259760908125   -0.006679411081708254   -0.0007449183221925207
-0.005874646434653382   -0.01023614915069055   -0.0009402867484990899
-0.00376355187005708   -0.010159631386559016   -0.0008735408754807476
-0.0031331929788678513   -0.0065363875913157276   -0.0007532205824545413
-0.003754595297165758   -0.010187420107308363   -0.0008421246313311999
-0.005050259760908125   -0.006679411081708254   -0.0007449183221925207
-0.003126129368950318   -0.006559211215597101   -0.0007061450546151357
-0.003754595297165758   -0.010187420107308363   -0.0008421246313311999
-0.0031331929788678513   -0.0065363875913157276   -0.0007532205824545413
-0.005050259760908125   -0.006679411081708254   -0.0007449183221925207
-0.003754595297165758   -0.010187420107308363   -0.0008421246313311999
-0.005907311409189315   -0.010272815939599752   -0.0008960348508700122
-0.005874646434653382   -0.01023614915069055   -0.0009402867484990899
-0.005050259760908125   -0.006679411081708254   -0.0007449183221925207
-0.003754595297165758   -0.010187420107308363   -0.0008421246313311999
-0.005874646434653382   -0.01023614915069055   -0.0009402867484990899
-0.0031331929788678513   -0.0065363875913157276   -0.0007532205824545413
-0.0031206068341661426   -0.0064525080461492225   -0.0008575579044456801
-0.0037581561927004844   -0.010083640551733592   -0.0009469407446279736
-0.0014893316964713302   -0.00640950842049645   -0.0007726147056177771
-0.003126323690256174   -0.006501913046982748   -0.0008034094096467926
-0.0037581561927004844   -0.010083640551733592   -0.0009469407446279736
-0.0018576828941850962   -0.010055304994085894   -0.0008782013477403478
-0.0014893316964713302   -0.00640950842049645   -0.0007726147056177771
-0.0018530305555643648   -0.010081783517876029   -0.0008525606229826993
-0.003126323690256174   -0.006501913046982748   -0.0008034094096467926
-0.0014844850430314608   -0.006441013888091986   -0.0007419027507742759
-0.0018530305555643648   -0.010081783517876029   -0.0008525606229826993
-0.0014893316964713302   -0.00640950842049645   -0.0007726147056177771
-0.003126323690256174   -0.006501913046982748   -0.0008034094096467926
-0.0018530305555643648   -0.010081783517876029   -0.0008525606229826993
-0.0037615209620516367   -0.010125972254762342   -0.0009083056514087503
-0.0037581561927004844   -0.010083640551733592   -0.0009469407446279736
-0.003126323690256174   -0.006501913046982748   -0.0008034094096467926
-0.0018530305555643648   -0.010081783517876029   -0.0008525606229826993
-0.0037581561927004844   -0.010083640551733592   -0.0009469407446279736
-0.0014893316964713302   -0.00640950842049645   -0.0007726147056177771
-0.003126323690256174   -0.006501913046982748   -0.0008034094096467926
-0.0037615209620516367   -0.010125972254762342   -0.0009083056514087503
-0.0014844850430314608   -0.006441013888091986   -0.0007419027507742759
-0.0031331929788678513   -0.0065363875913157276   -0.0007532205824545413
-0.0037615209620516367   -0.010125972254762342   -0.0009083056514087503
-0.0018530305555643648   -0.010081783517876029   -0.0008525606229826993
-0.0014844850430314608   -0.006441013888091986   -0.0007419027507742759
-0.0018471015644024157   -0.010100984154354632   -0.0008307262031554053
-0.0031331929788678513   -0.0065363875913157276   -0.0007532205824545413
-0.0014788060845680761   -0.006459556450212954   -0.0007149543267896494
-0.0018471015644024157   -0.010100984154354632   -0.0008307262031554053
-0.0014844850430314608   -0.006441013888091986   -0.0007419027507742759
-0.0031331929788678513   -0.0065363875913157276   -0.0007532205824545413
-0.0018471015644024157   -0.010100984154354632   -0.0008307262031554053
-0.00376355187005708   -0.010159631386559016   -0.0008735408754807476
-0.0037615209620516367   -0.010125972254762342   -0.0009083056514087503
-0.0031331929788678513   -0.0065363875913157276   -0.0007532205824545413
-0.0018471015644024157   -0.010100984154354632   -0.0008307262031554053
-0.0037615209620516367   -0.010125972254762342   -0.0009083056514087503
-0.0014844850430314608   -0.006441013888091986   -0.0007419027507742759
-0.0031331929788678513   -0.0065363875913157276   -0.0007532205824545413
-0.00376355187005708   -0.010159631386559016   -0.0008735408754807476
-0.0014788060845680761   -0.006459556450212954   -0.0007149543267896494
-0.003126129368950318   -0.006559211215597101   -0.0007061450546151357
-0.00376355187005708   -0.010159631386559016   -0.0008735408754807476
-0.0018471015644024157   -0.010100984154354632   -0.0008307262031554053
-0.0014788060845680761   -0.006459556450212954   -0.0007149543267896494
-0.0018387923350652977   -0.010113033990688407   -0.0008127653986962843
-0.003126129368950318   -0.006559211215597101   -0.0007061450546151357
-0.001470168959603473   -0.006465400950127541   -0.0006917614768344241
-0.0018387923350652977   -0.010113033990688407   -0.0008127653986962843
-0.0014788060845680761   -0.006459556450212954   -0.0007149543267896494
-0.003126129368950318   -0.006559211215597101   -0.0007061450546151357
-0.0018387923350652977   -0.010113033990688407   -0.0008127653986962843
-0.003754595297165758   -0.010187420107308363   -0.0008421246313311999
-0.00376355187005708   -0.010159631386559016   -0.0008735408754807476
-0.003126129368950318   -0.006559211215597101   -0.0007061450546151357
-0.0018387923350652977   -0.010113033990688407   -0.0008127653986962843
-0.00376355187005708   -0.010159631386559016   -0.0008735408754807476
-0.0014788060845680761   -0.006459556450212954   -0.0007149543267896494
-0.0014893316964713302   -0.00640950842049645   -0.0007726147056177771
-0.0018576828941850962   -0.010055304994085894   -0.0008782013477403478
9.35572031586582e-05   -0.0064072007103351   -0.0007201771884880169
-0.0014844850430314608   -0.006441013888091986   -0.0007419027507742759
-0.0018576828941850962   -0.010055304994085894   -0.0008782013477403478
-9.095454878088325e-06   -0.010050328676857533   -0.0008384099303051804
9.35572031586582e-05   -0.0064072007103351   -0.0007201771884880169
-1.2990575322427646e-06   -0.01006083332492203   -0.0008258783841549742
-0.0014844850430314608   -0.006441013888091986   -0.0007419027507742759
0.00010157445990435523   -0.006421059417251712   -0.0007127834302096978
-1.2990575322427646e-06   -0.01006083332492203   -0.0008258783841549742
9.35572031586582e-05   -0.0064072007103351   -0.0007201771884880169
-0.0014844850430314608   -0.006441013888091986   -0.0007419027507742759
-1.2990575322427646e-06   -0.01006083332492203   -0.0008258783841549742
-0.0018530305555643648   -0.010081783517876029   -0.0008525606229826993
-0.0018576828941850962   -0.010055304994085894   -0.0008782013477403478
-0.0014844850430314608   -0.006441013888091986   -0.0007419027507742759
-1.2990575322427646e-06   -0.01006083332492203   -0.0008258783841549742
-0.0018576828941850962   -0.010055304994085894   -0.0008782013477403478
9.35572031586582e-05   -0.0064072007103351   -0.0007201771884880169
-0.0014844850430314608   -0.006441013888091986   -0.0007419027507742759
-0.0018530305555643648   -0.010081783517876029   -0.0008525606229826993
0.00010157445990435523   -0.006421059417251712   -0.0007127834302096978
-0.0014788060845680761   -0.006459556450212954   -0.0007149543267896494
-0.0018530305555643648   -0.010081783517876029   -0.0008525606229826993
-1.2990575322427646e-06   -0.01006083332492203   -0.0008258783841549742
0.00010157445990435523   -0.006421059417251712   -0.0007127834302096978
4.572354848578042e-06   -0.010064008473451177   -0.0008171089645290353
-0.0014788060845680761   -0.006459556450212954   -0.0007149543267896494
0.00010711248819841811   -0.00642200501369581   -0.0007090586976880678
4.572354848578042e-06   -0.010064008473451177   -0.0008171089645290353
0.00010157445990435523   -0.006421059417251712   -0.0007127834302096978
-0.0014788060845680761   -0.006459556450212954   -0.0007149543267896494
4.572354848578042e-06   -0.010064008473451177   -0.0008171089645290353
-0.0018471015644024157   -0.010100984154354632   -0.0008307262031554053
-0.0018530305555643648   -0.010081783517876029   -0.0008525606229826993
-0.0014788060845680761   -0.006459556450212954   -0.0007149543267896494
4.572354848578042e-06   -0.010064008473451177   -0.0008171089645290353
-0.0018530305555643648   -0.010081783517876029   -0.0008525606229826993
0.00010157445990435523   -0.006421059417251712   -0.0007127834302096978
-0.0014788060845680761   -0.006459556450212954   -0.0007149543267896494
-0.0018471015644024157   -0.010100984154354632   -0.0008307262031554053
0.00010711248819841811   -0.00642200501369581   -0.0007090586976880678
-0.001470168959603473   -0.006465400950127541   -0.0006917614768344241
-0.0018471015644024157   -0.010100984154354632   -0.0008307262031554053
4.572354848578042e-06   -0.010064008473451177   -0.0008171089645290353
0.00010711248819841811   -0.00642200501369581   -0.0007090586976880678
8.730051932906837e-06   -0.010059752651837582   -0.0008122647217697604
-0.001470168959603473   -0.006465400950127541   -0.0006917614768344241
0.00011144000801775942   -0.006409846496068244   -0.0007092217012283999
8.730051932906837e-06   -0.010059752651837582   -0.0008122647217697604
0.00010711248819841811   -0.00642200501369581   -0.0007090586976880678
-0.001470168959603473   -0.006465400950127541   -0.0006917614768344241
8.730051932906837e-06   -0.010059752651837582   -0.0008122647217697604
-0.0018387923350652977   -0.010113033990688407   -0.0008127653986962843
-0.0018471015644024157   -0.010100984154354632   -0.0008307262031554053
-0.001470168959603473   -0.006465400950127541   -0.0006917614768344241
8.730051932906837e-06   -0.010059752651837582   -0.0008122647217697604
-0.0018471015644024157   -0.010100984154354632   -0.0008307262031554053
0.00010711248819841811   -0.00642200501369581   -0.0007090586976880678
9.35572031586582e-05   -0.0064072007103351   -0.0007201771884880169
-9.095454878088325e-06   -0.010050328676857533   -0.0008384099303051804
0.0017443212626115877   -0.006443156026562409   -0.0006993822402817296
0.00010157445990435523   -0.006421059417251712   -0.0007127834302096978
-9.095454878088325e-06   -0.010050328676857533   -0.0008384099303051804
0.0019031270569097535   -0.010066687960046655   -0.0008274483358855086
0.0017443212626115877   -0.006443156026562409   -0.0006993822402817296
0.0019125052334566612   -0.010062111785090854   -0.0008282932814807644
0.00010157445990435523   -0.006421059417251712   -0.0007127834302096978
0.0017515780489367938   -0.006440800418442212   -0.0007157818451760979
0.0019125052334566612   -0.010062111785090854   -0.0008282932814807644
0.0017443212626115877   -0.006443156026562409   -0.0006993822402817296
0.00010157445990435523   -0.006421059417251712   -0.0007127834302096978
0.0019125052334566612   -0.010062111785090854   -0.0008282932814807644
-1.2990575322427646e-06   -0.01006083332492203   -0.0008258783841549742
-9.095454878088325e-06   -0.010050328676857533   -0.0008384099303051804
0.00010157445990435523   -0.006421059417251712   -0.0007127834302096978
0.0019125052334566612   -0.010062111785090854   -0.0008282932814807644
-9.095454878088325e-06   -0.010050328676857533   -0.0008384099303051804
0.0017443212626115877   -0.006443156026562409   -0.0006993822402817296
0.00010157445990435523   -0.006421059417251712   -0.0007127834302096978
-1.2990575322427646e-06   -0.01006083332492203   -0.0008258783841549742
0.0017515780489367938   -0.006440800418442212   -0.0007157818451760979
0.00010711248819841811   -0.00642200501369581   -0.0007090586976880678
-1.2990575322427646e-06   -0.01006083332492203   -0.0008258783841549742
0.0019125052334566612   -0.010062111785090854   -0.0008282932814807644
0.0017515780489367938   -0.006440800418442212   -0.0007157818451760979
0.001914436739276346   -0.010050811066662977   -0.0008326947934034333
0.00010711248819841811   -0.00642200501369581   -0.0007090586976880678
0.0017484157734017308   -0.006425846571834123   -0.0007355808941783675
0.001914436739276346   -0.010050811066662977   -0.0008326947934034333
0.0017515780489367938   -0.006440800418442212   -0.0007157818451760979
0.00010711248819841811   -0.00642200501369581   -0.0007090586976880678
0.001914436739276346   -0.010050811066662977   -0.0008326947934034333
4.572354848578042e-06   -0.010064008473451177   -0.0008171089645290353
-1.2990575322427646e-06   -0.01006083332492203   -0.0008258783841549742
0.00010711248819841811   -0.00642200501369581   -0.0007090586976880678
0.001914436739276346   -0.010050811066662977   -0.0008326947934034333
-1.2990575322427646e-06   -0.01006083332492203   -0.0008258783841549742
0.0017515780489367938   -0.006440800418442212   -0.0007157818451760979
0.00010711248819841811   -0.00642200501369581   -0.0007090586976880678
4.572354848578042e-06   -0.010064008473451177   -0.0008171089645290353
0.0017484157734017308   -0.006425846571834123   -0.0007355808941783675
0.00011144000801775942   -0.006409846496068244   -0.0007092217012283999
4.572354848578042e-06   -0.010064008473451177   -0.0008171089645290353
0.001914436739276346   -0.010050811066662977   -0.0008326947934034333
0.0017484157734017308   -0.006425846571834123   -0.0007355808941783675
0.0019115020006723806   -0.01003000014249615   -0.0008407923314284976
0.00011144000801775942   -0.006409846496068244   -0.0007092217012283999
0.0017429641294940494   -0.006395132787823058   -0.0007591855719753595
0.0019115020006723806   -0.01003000014249615   -0.0008407923314284976
0.0017484157734017308   -0.006425846571834123   -0.0007355808941783675
0.00011144000801775942   -0.006409846496068244   -0.0007092217012283999
0.0019115020006723806   -0.01003000014249615   -0.0008407923314284976
8.730051932906837e-06   -0.010059752651837582   -0.0008122647217697604
4.572354848578042e-06   -0.010064008473451177   -0.0008171089645290353
0.00011144000801775942   -0.006409846496068244   -0.0007092217012283999
0.0019115020006723806   -0.01003000014249615   -0.0008407923314284976
4.572354848578042e-06   -0.010064008473451177   -0.0008171089645290353
0.0017484157734017308   -0.006425846571834123   -0.0007355808941783675
0.0017443212626115877   -0.006443156026562409   -0.0006993822402817296
0.0019031270569097535   -0.010066687960046655   -0.0008274483358855086
0.003624955315205142   -0.006508119132769129   -0.0007007138963412606
0.0017515780489367938   -0.006440800418442212   -0.0007157818451760979
0.0019031270569097535   -0.010066687960046655   -0.0008274483358855086
0.004014571740911383   -0.01009654883907383   -0.0008392275962948041
0.003624955315205142   -0.006508119132769129   -0.0007007138963412606
0.004012821274035555   -0.010081712794710313   -0.0008543731060754277
0.0017515780489367938   -0.006440800418442212   -0.0007157818451760979
0.0035952907727885585   -0.006496358641486476   -0.0007438455232986809
0.004012821274035555   -0.010081712794710313   -0.0008543731060754277
0.003624955315205142   -0.006508119132769129   -0.0007007138963412606
0.0017515780489367938   -0.006440800418442212   -0.0007157818451760979
0.004012821274035555   -0.010081712794710313   -0.0008543731060754277
0.0019125052334566612   -0.010062111785090854   -0.0008282932814807644
0.0019031270569097535   -0.010066687960046655   -0.0008274483358855086
0.0017515780489367938   -0.006440800418442212   -0.0007157818451760979
0.004012821274035555   -0.010081712794710313   -0.0008543731060754277
0.0019031270569097535   -0.010066687960046655   -0.0008274483358855086
0.003624955315205142   -0.006508119132769129   -0.0007007138963412606
0.0017515780489367938   -0.006440800418442212   -0.0007157818451760979
0.0019125052334566612   -0.010062111785090854   -0.0008282932814807644
0.0035952907727885585   -0.006496358641486476   -0.0007438455232986809
0.0017484157734017308   -0.006425846571834123   -0.0007355808941783675
0.0019125052334566612   -0.010062111785090854   -0.0008282932814807644
0.004012821274035555   -0.010081712794710313   -0.0008543731060754277
0.0035952907727885585   -0.006496358641486476   -0.0007438455232986809
0.004004493952258165   -0.010063369363200134   -0.0008752971297929675
0.0017484157734017308   -0.006425846571834123   -0.0007355808941783675
0.0035654164795174467   -0.006473409226008715   -0.0007931081783706768
0.004004493952258165   -0.010063369363200134   -0.0008752971297929675
0.0035952907727885585   -0.006496358641486476   -0.0007438455232986809
0.0017484157734017308   -0.006425846571834123   -0.0007355808941783675
0.004004493952258165   -0.010063369363200134   -0.0008752971297929675
0.001914436739276346   -0.010050811066662977   -0.0008326947934034333
0.0019125052334566612   -0.010062111785090854   -0.0008282932814807644
0.0017484157734017308   -0.006425846571834123   -0.0007355808941783675
0.004004493952258165   -0.010063369363200134   -0.0008752971297929675
0.0019125052334566612   -0.010062111785090854   -0.0008282932814807644
0.0035952907727885585   -0.006496358641486476   -0.0007438455232986809
0.0017484157734017308   -0.006425846571834123   -0.0007355808941783675
0.001914436739276346   -0.010050811066662977   -0.0008326947934034333
0.0035654164795174467   -0.006473409226008715   -0.0007931081783706768
0.0017429641294940494   -0.006395132787823058   -0.0007591855719753595
0.001914436739276346   -0.010050811066662977   -0.0008326947934034333
0.004004493952258165   -0.010063369363200134   -0.0008752971297929675
0.0035654164795174467   -0.006473409226008715   -0.0007931081783706768
0.003978933769633379   -0.010028790020008537   -0.0009019575916147701
0.0017429641294940494   -0.006395132787823058   -0.0007591855719753595
0.003511135006273954   -0.006425672621764969   -0.0008485088362793729
0.003978933769633379   -0.010028790020008537   -0.0009019575916147701
0.0035654164795174467   -0.006473409226008715   -0.0007931081783706768
0.0017429641294940494   -0.006395132787823058   -0.0007591855719753595
0.003978933769633379   -0.010028790020008537   -0.0009019575916147701
0.0019115020006723806   -0.01003000014249615   -0.0008407923314284976
0.001914436739276346   -0.010050811066662977   -0.0008326947934034333
0.0017429641294940494   -0.006395132787823058   -0.0007591855719753595
0.003978933769633379   -0.010028790020008537   -0.0009019575916147701
0.001914436739276346   -0.010050811066662977   -0.0008326947934034333
0.0035654164795174467   -0.006473409226008715   -0.0007931081783706768
-0.0057864169450332304   -0.010138143930754922   -0.0010462643969590256
-0.006348155646207545   -0.014047446871323137   -0.0010667813222971655
-0.0037581561927004844   -0.010083640551733592   -0.0009469407446279736
-0.005842841243625265   -0.010195470387865798   -0.0009905791738075553
-0.006348155646207545   -0.014047446871323137   -0.0010667813222971655
-0.004175086793119232   -0.014025456388525707   -0.0009880379584019637
-0.0037581561927004844   -0.010083640551733592   -0.0009469407446279736
-0.004172438919705732   -0.014061410768025875   -0.0009644270102019976
-0.005842841243625265   -0.010195470387865798   -0.0009905791738075553
-0.0037615209620516367   -0.010125972254762342   -0.0009083056514087503
-0.004172438919705732   -0.014061410768025875   -0.0009644270102019976
-0.0037581561927004844   -0.010083640551733592   -0.0009469407446279736
-0.005842841243625265   -0.010195470387865798   -0.0009905791738075553
-0.004172438919705732   -0.014061410768025875   -0.0009644270102019976
-0.006373790876701297   -0.014095832192205818   -0.0010383353736594391
-0.006348155646207545   -0.014047446871323137   -0.0010667813222971655
-0.005842841243625265   -0.010195470387865798   -0.0009905791738075553
-0.004172438919705732   -0.014061410768025875   -0.0009644270102019976
-0.006348155646207545   -0.014047446871323137   -0.0010667813222971655
-0.0037581561927004844   -0.010083640551733592   -0.0009469407446279736
-0.005842841243625265   -0.010195470387865798   -0.0009905791738075553
-0.006373790876701297   -0.014095832192205818   -0.0010383353736594391
-0.0037615209620516367   -0.010125972254762342   -0.0009083056514087503
-0.005874646434653382   -0.01023614915069055   -0.0009402867484990899
-0.006373790876701297   -0.014095832192205818   -0.0010383353736594391
-0.004172438919705732   -0.014061410768025875   -0.0009644270102019976
-0.0037615209620516367   -0.010125972254762342   -0.0009083056514087503
-0.004165851644141914   -0.01409469484230843   -0.0009447402249908853
-0.005874646434653382   -0.01023614915069055   -0.0009402867484990899
-0.00376355187005708   -0.010159631386559016   -0.0008735408754807476
-0.004165851644141914   -0.01409469484230843   -0.0009447402249908853
-0.0037615209620516367   -0.010125972254762342   -0.0009083056514087503
-0.005874646434653382   -0.01023614915069055   -0.0009402867484990899
-0.004165851644141914   -0.01409469484230843   -0.0009447402249908853
-0.006381143947904094   -0.014135437459041864   -0.0010155340697953683
-0.006373790876701297   -0.014095832192205818   -0.0010383353736594391
-0.005874646434653382   -0.01023614915069055   -0.0009402867484990899
-0.004165851644141914   -0.01409469484230843   -0.0009447402249908853
-0.006373790876701297   -0.014095832192205818   -0.0010383353736594391
-0.0037615209620516367   -0.010125972254762342   -0.0009083056514087503
-0.005874646434653382   -0.01023614915069055   -0.0009402867484990899
-0.006381143947904094   -0.014135437459041864   -0.0010155340697953683
-0.00376355187005708   -0.010159631386559016   -0.0008735408754807476
-0.005907311409189315   -0.010272815939599752   -0.0008960348508700122
-0.006381143947904094   -0.014135437459041864   -0.0010155340697953683
-0.004165851644141914   -0.01409469484230843   -0.0009447402249908853
-0.00376355187005708   -0.010159631386559016   -0.0008735408754807476
-0.004151119951247586   -0.014127856640530064   -0.000928692702287655
-0.005907311409189315   -0.010272815939599752   -0.0008960348508700122
-0.003754595297165758   -0.010187420107308363   -0.0008421246313311999
-0.004151119951247586   -0.014127856640530064   -0.000928692702287655
-0.00376355187005708   -0.010159631386559016   -0.0008735408754807476
-0.005907311409189315   -0.010272815939599752   -0.0008960348508700122
-0.004151119951247586   -0.014127856640530064   -0.000928692702287655
-0.006382698821109018   -0.0141786322106486   -0.0009988733689395555
-0.006381143947904094   -0.014135437459041864   -0.0010155340697953683
-0.005907311409189315   -0.010272815939599752   -0.0008960348508700122
-0.004151119951247586   -0.014127856640530064   -0.000928692702287655
-0.006381143947904094   -0.014135437459041864   -0.0010155340697953683
-0.00376355187005708   -0.010159631386559016   -0.0008735408754807476
-0.0037581561927004844   -0.010083640551733592   -0.0009469407446279736
-0.004175086793119232   -0.014025456388525707   -0.0009880379584019637
-0.0018576828941850962   -0.010055304994085894   -0.0008782013477403478
-0.0037615209620516367   -0.010125972254762342   -0.0009083056514087503
-0.004175086793119232   -0.014025456388525707   -0.0009880379584019637
-0.002156690484412926   -0.01401261299704373   -0.000934464478354456
-0.0018576828941850962   -0.010055304994085894   -0.0008782013477403478
-0.002148183720827643   -0.014034291264903978   -0.0009137188450109278
-0.0037615209620516367   -0.010125972254762342   -0.0009083056514087503
-0.0018530305555643648   -0.010081783517876029   -0.0008525606229826993
-0.002148183720827643   -0.014034291264903978   -0.0009137188450109278
-0.0018576828941850962   -0.010055304994085894   -0.0008782013477403478
-0.0037615209620516367   -0.010125972254762342   -0.0009083056514087503
-0.002148183720827643   -0.014034291264903978   -0.0009137188450109278
-0.004172438919705732   -0.014061410768025875   -0.0009644270102019976
-0.004175086793119232   -0.014025456388525707   -0.0009880379584019637
-0.0037615209620516367   -0.010125972254762342   -0.0009083056514087503
-0.002148183720827643   -0.014034291264903978   -0.0009137188450109278
-0.004175086793119232   -0.014025456388525707   -0.0009880379584019637
-0.0018576828941850962   -0.010055304994085894   -0.0008782013477403478
-0.0037615209620516367   -0.010125972254762342   -0.0009083056514087503
-0.004172438919705732   -0.014061410768025875   -0.0009644270102019976
-0.0018530305555643648   -0.010081783517876029   -0.0008525606229826993
-0.00376355187005708   -0.010159631386559016   -0.0008735408754807476
-0.004172438919705732   -0.014061410768025875   -0.0009644270102019976
-0.002148183720827643   -0.014034291264903978   -0.0009137188450109278
-0.0018530305555643648   -0.010081783517876029   -0.0008525606229826993
-0.002137986599180553   -0.014054266821304878   -0.000896895320385068
-0.00376355187005708   -0.010159631386559016   -0.0008735408754807476
-0.0018471015644024157   -0.010100984154354632   -0.0008307262031554053
-0.002137986599180553   -0.014054266821304878   -0.000896895320385068
-0.0018530305555643648   -0.010081783517876029   -0.0008525606229826993
-0.00376355187005708   -0.010159631386559016   -0.0008735408754807476
-0.002137986599180553   -0.014054266821304878   -0.000896895320385068
-0.004165851644141914   -0.01409469484230843   -0.0009447402249908853
-0.004172438919705732   -0.014061410768025875   -0.0009644270102019976
-0.00376355187005708   -0.010159631386559016   -0.0008735408754807476
-0.002137986599180553   -0.014054266821304878   -0.000896895320385068
-0.004172438919705732   -0.014061410768025875   -0.0009644270102019976
-0.0018530305555643648   -0.010081783517876029   -0.0008525606229826993
-0.00376355187005708   -0.010159631386559016   -0.0008735408754807476
-0.004165851644141914   -0.01409469484230843   -0.0009447402249908853
-0.0018471015644024157   -0.010100984154354632   -0.0008307262031554053
-0.003754595297165758   -0.010187420107308363   -0.0008421246313311999
-0.004165851644141914   -0.01409469484230843   -0.0009447402249908853
-0.002137986599180553   -0.014054266821304878   -0.000896895320385068
-0.0018471015644024157   -0.010100984154354632   -0.0008307262031554053
-0.0021259137676220246   -0.014072607311152075   -0.0008840932488395326
-0.003754595297165758   -0.010187420107308363   -0.0008421246313311999
-0.0018387923350652977   -0.010113033990688407   -0.0008127653986962843
-0.0021259137676220246   -0.014072607311152075   -0.0008840932488395326
-0.0018471015644024157   -0.010100984154354632   -0.0008307262031554053
-0.003754595297165758   -0.010187420107308363   -0.0008421246313311999
-0.0021259137676220246   -0.014072607311152075   -0.0008840932488395326
-0.004151119951247586   -0.014127856640530064   -0.000928692702287655
-0.004165851644141914   -0.01409469484230843   -0.0009447402249908853
-0.003754595297165758   -0.010187420107308363   -0.0008421246313311999
-0.0021259137676220246   -0.014072607311152075   -0.0008840932488395326
-0.004165851644141914   -0.01409469484230843   -0.0009447402249908853
-0.0018471015644024157   -0.010100984154354632   -0.0008307262031554053
-0.0018576828941850962   -0.010055304994085894   -0.0008782013477403478
-0.002156690484412926   -0.01401261299704373   -0.000934464478354456
-9.095454878088325e-06   -0.010050328676857533   -0.0008384099303051804
-0.0018530305555643648   -0.010081783517876029   -0.0008525606229826993
-0.002156690484412926   -0.01401261299704373   -0.000934464478354456
-0.000192967645006762   -0.01400510745936231   -0.0009070197674957541
-9.095454878088325e-06   -0.010050328676857533   -0.0008384099303051804
-0.00018143456308941772   -0.014012207110417918   -0.0008893586628004456
-0.0018530305555643648   -0.010081783517876029   -0.0008525606229826993
-1.2990575322427646e-06   -0.01006083332492203   -0.0008258783841549742
-0.00018143456308941772   -0.014012207110417918   -0.0008893586628004456
-9.095454878088325e-06   -0.010050328676857533   -0.0008384099303051804
-0.0018530305555643648   -0.010081783517876029   -0.0008525606229826993
-0.00018143456308941772   -0.014012207110417918   -0.0008893586628004456
-0.002148183720827643   -0.014034291264903978   -0.0009137188450109278
-0.002156690484412926   -0.01401261299704373   -0.000934464478354456
-0.0018530305555643648   -0.010081783517876029   -0.0008525606229826993
-0.00018143456308941772   -0.014012207110417918   -0.0008893586628004456
-0.002156690484412926   -0.01401261299704373   -0.000934464478354456
-9.095454878088325e-06   -0.010050328676857533   -0.0008384099303051804
-0.0018530305555643648   -0.010081783517876029   -0.0008525606229826993
-0.002148183720827643   -0.014034291264903978   -0.0009137188450109278
-1.2990575322427646e-06   -0.01006083332492203   -0.0008258783841549742
-0.0018471015644024157   -0.010100984154354632   -0.0008307262031554053
-0.002148183720827643   -0.014034291264903978   -0.0009137188450109278
-0.00018143456308941772   -0.014012207110417918   -0.0008893586628004456
-1.2990575322427646e-06   -0.01006083332492203   -0.0008258783841549742
-0.00017132320514619842   -0.014017478080059638   -0.0008755901700247509
-0.0018471015644024157   -0.010100984154354632   -0.0008307262031554053
4.572354848578042e-06   -0.010064008473451177   -0.0008171089645290353
-0.00017132320514619842   -0.014017478080059638   -0.0008755901700247509
-1.2990575322427646e-06   -0.01006083332492203   -0.0008258783841549742
-0.0018471015644024157   -0.010100984154354632   -0.0008307262031554053
-0.00017132320514619842   -0.014017478080059638   -0.0008755901700247509
-0.002137986599180553   -0.014054266821304878   -0.000896895320385068
-0.002148183720827643   -0.014034291264903978   -0.0009137188450109278
-0.0018471015644024157   -0.010100984154354632   -0.0008307262031554053
-0.00017132320514619842   -0.014017478080059638   -0.0008755901700247509
-0.002148183720827643   -0.014034291264903978   -0.0009137188450109278
-1.2990575322427646e-06   -0.01006083332492203   -0.0008258783841549742
-0.0018471015644024157   -0.010100984154354632   -0.0008307262031554053
-0.002137986599180553   -0.014054266821304878   -0.000896895320385068
4.572354848578042e-06   -0.010064008473451177   -0.0008171089645290353
-0.0018387923350652977   -0.010113033990688407   -0.0008127653986962843
-0.002137986599180553   -0.014054266821304878   -0.000896895320385068
-0.00017132320514619842   -0.014017478080059638   -0.0008755901700247509
4.572354848578042e-06   -0.010064008473451177   -0.0008171089645290353
-0.00016336658641872797   -0.014020890043105931   -0.0008658534549882221
-0.0018387923350652977   -0.010113033990688407   -0.0008127653986962843
8.730051932906837e-06   -0.010059752651837582   -0.0008122647217697604
-0.00016336658641872797   -0.014020890043105931   -0.0008658534549882221
4.572354848578042e-06   -0.010064008473451177   -0.0008171089645290353
-0.0018387923350652977   -0.010113033990688407   -0.0008127653986962843
-0.00016336658641872797   -0.014020890043105931   -0.0008658534549882221
-0.0021259137676220246   -0.014072607311152075   -0.0008840932488395326
-0.002137986599180553   -0.014054266821304878   -0.000896895320385068
-0.0018387923350652977   -0.010113033990688407   -0.0008127653986962843
-0.00016336658641872797   -0.014020890043105931   -0.0008658534549882221
-0.002137986599180553   -0.014054266821304878   -0.000896895320385068
4.572354848578042e-06   -0.010064008473451177   -0.0008171089645290353
-9.095454878088325e-06   -0.010050328676857533   -0.0008384099303051804
-0.000192967645006762   -0.01400510745936231   -0.0009070197674957541
0.0019031270569097535   -0.010066687960046655   -0.0008274483358855086
-1.2990575322427646e-06   -0.01006083332492203   -0.0008258783841549742
-0.000192967645006762   -0.01400510745936231   -0.0009070197674957541
0.0018304742848820916   -0.014001638974173385   -0.0009059885599409462
0.0019031270569097535   -0.010066687960046655   -0.0008274483358855086
0.0018455216885030269   -0.01399458736404616   -0.000891561619721586
-1.2990575322427646e-06   -0.01006083332492203   -0.0008258783841549742
0.0019125052334566612   -0.010062111785090854   -0.0008282932814807644
0.0018455216885030269   -0.01399458736404616   -0.000891561619721586
0.0019031270569097535   -0.010066687960046655   -0.0008274483358855086
-1.2990575322427646e-06   -0.01006083332492203   -0.0008258783841549742
0.0018455216885030269   -0.01399458736404616   -0.000891561619721586
-0.00018143456308941772   -0.014012207110417918   -0.0008893586628004456
-0.000192967645006762   -0.01400510745936231   -0.0009070197674957541
-1.2990575322427646e-06   -0.01006083332492203   -0.0008258783841549742
0.0018455216885030269   -0.01399458736404616   -0.000891561619721586
-0.000192967645006762   -0.01400510745936231   -0.0009070197674957541
0.0019031270569097535   -0.010066687960046655   -0.0008274483358855086
-1.2990575322427646e-06   -0.01006083332492203   -0.0008258783841549742
-0.00018143456308941772   -0.014012207110417918   -0.0008893586628004456
0.0019125052334566612   -0.010062111785090854   -0.0008282932814807644
4.572354848578042e-06   -0.010064008473451177   -0.0008171089645290353
-0.00018143456308941772   -0.014012207110417918   -0.0008893586628004456
0.0018455216885030269   -0.01399458736404616   -0.000891561619721586
0.0019125052334566612   -0.010062111785090854   -0.0008282932814807644
0.0018560101981629764   -0.013986552100738773   -0.000880912318810372
4.572354848578042e-06   -0.010064008473451177   -0.0008171089645290353
0.001914436739276346   -0.010050811066662977   -0.0008326947934034333
0.0018560101981629764   -0.013986552100738773   -0.000880912318810372
0.0019125052334566612   -0.010062111785090854   -0.0008282932814807644
4.572354848578042e-06   -0.010064008473451177   -0.0008171089645290353
0.0018560101981629764   -0.013986552100738773   -0.000880912318810372
-0.00017132320514619842   -0.014017478080059638   -0.0008755901700247509
-0.00018143456308941772   -0.014012207110417918   -0.0008893586628004456
4.572354848578042e-06   -0.010064008473451177   -0.0008171089645290353
0.0018560101981629764   -0.013986552100738773   -0.000880912318810372
-0.00018143456308941772   -0.014012207110417918   -0.0008893586628004456
0.0019125052334566612   -0.010062111785090854   -0.0008282932814807644
4.572354848578042e-06   -0.010064008473451177   -0.0008171089645290353
-0.00017132320514619842   -0.014017478080059638   -0.0008755901700247509
0.001914436739276346   -0.010050811066662977   -0.0008326947934034333
8.730051932906837e-06   -0.010059752651837582   -0.0008122647217697604
-0.00017132320514619842   -0.014017478080059638   -0.0008755901700247509
0.0018560101981629764   -0.013986552100738773   -0.000880912318810372
0.001914436739276346   -0.010050811066662977   -0.0008326947934034333
0.0018590262138665763   -0.013974955465060094   -0.0008739657151758131
8.730051932906837e-06   -0.010059752651837582   -0.0008122647217697604
0.0019115020006723806   -0.01003000014249615   -0.0008407923314284976
0.0018590262138665763   -0.013974955465060094   -0.0008739657151758131
0.001914436739276346   -0.010050811066662977   -0.0008326947934034333
8.730051932906837e-06   -0.010059752651837582   -0.0008122647217697604
0.0018590262138665763   -0.013974955465060094   -0.0008739657151758131
-0.00016336658641872797   -0.014020890043105931   -0.0008658534549882221
-0.00017132320514619842   -0.014017478080059638   -0.0008755901700247509
8.730051932906837e-06   -0.010059752651837582   -0.0008122647217697604
0.0018590262138665763   -0.013974955465060094   -0.0008739657151758131
-0.00017132320514619842   -0.014017478080059638   -0.0008755901700247509
0.001914436739276346   -0.010050811066662977   -0.0008326947934034333
0.0019031270569097535   -0.010066687960046655   -0.0008274483358855086
0.0018304742848820916   -0.014001638974173385   -0.0009059885599409462
0.004014571740911383   -0.01009654883907383   -0.0008392275962948041
0.0019125052334566612   -0.010062111785090854   -0.0008282932814807644
0.0018304742848820916   -0.014001638974173385   -0.0009059885599409462
0.004022395116832863   -0.013996538453954663   -0.0009288938775541344
0.004014571740911383   -0.01009654883907383   -0.0008392275962948041
0.00405146516182363   -0.013978265110508566   -0.000916680980749818
0.0019125052334566612   -0.010062111785090854   -0.0008282932814807644
0.004012821274035555   -0.010081712794710313   -0.0008543731060754277
0.00405146516182363   -0.013978265110508566   -0.000916680980749818
0.004014571740911383   -0.01009654883907383   -0.0008392275962948041
0.0019125052334566612   -0.010062111785090854   -0.0008282932814807644
0.00405146516182363   -0.013978265110508566   -0.000916680980749818
0.0018455216885030269   -0.01399458736404616   -0.000891561619721586
0.0018304742848820916   -0.014001638974173385   -0.0009059885599409462
0.0019125052334566612   -0.010062111785090854   -0.0008282932814807644
0.00405146516182363   -0.013978265110508566   -0.000916680980749818
0.0018304742848820916   -0.014001638974173385   -0.0009059885599409462
0.004014571740911383   -0.01009654883907383   -0.0008392275962948041
0.0019125052334566612   -0.010062111785090854   -0.0008282932814807644
0.0018455216885030269   -0.01399458736404616   -0.000891561619721586
0.004012821274035555   -0.010081712794710313   -0.0008543731060754277
0.001914436739276346   -0.010050811066662977   -0.0008326947934034333
0.0018455216885030269   -0.01399458736404616   -0.000891561619721586
0.00405146516182363   -0.013978265110508566   -0.000916680980749818
0.004012821274035555   -0.010081712794710313   -0.0008543731060754277
0.00406749459171378   -0.013963937740152121   -0.0009102199425984528
0.001914436739276346   -0.010050811066662977   -0.0008326947934034333
0.004004493952258165   -0.010063369363200134   -0.0008752971297929675
0.00406749459171378   -0.013963937740152121   -0.0009102199425984528
0.004012821274035555   -0.010081712794710313   -0.0008543731060754277
0.001914436739276346   -0.010050811066662977   -0.0008326947934034333
0.00406749459171378   -0.013963937740152121   -0.0009102199425984528
0.0018560101981629764   -0.013986552100738773   -0.000880912318810372
0.0018455216885030269   -0.01399458736404616   -0.000891561619721586
0.001914436739276346   -0.010050811066662977   -0.0008326947934034333
0.00406749459171378   -0.013963937740152121   -0.0009102199425984528
0.0018455216885030269   -0.01399458736404616   -0.000891561619721586
0.004012821274035555   -0.010081712794710313   -0.0008543731060754277
0.001914436739276346   -0.010050811066662977   -0.0008326947934034333
0.0018560101981629764   -0.013986552100738773   -0.000880912318810372
0.004004493952258165   -0.010063369363200134   -0.0008752971297929675
0.0019115020006723806   -0.01003000014249615   -0.0008407923314284976
0.0018560101981629764   -0.013986552100738773   -0.000880912318810372
0.00406749459171378   -0.013963937740152121   -0.0009102199425984528
0.004004493952258165   -0.010063369363200134   -0.0008752971297929675
0.0040727958119458575   -0.013941271433492698   -0.0009096093016894244
0.0019115020006723806   -0.01003000014249615   -0.0008407923314284976
0.003978933769633379   -0.010028790020008537   -0.0009019575916147701
0.0040727958119458575   -0.013941271433492698   -0.0009096093016894244
0.004004493952258165   -0.010063369363200134   -0.0008752971297929675
0.0019115020006723806   -0.01003000014249615   -0.0008407923314284976
0.0040727958119458575   -0.013941271433492698   -0.0009096093016894244
0.0018590262138665763   -0.013974955465060094   -0.0008739657151758131
0.0018560101981629764   -0.013986552100738773   -0.000880912318810372
0.0019115020006723806   -0.01003000014249615   -0.0008407923314284976
0.0040727958119458575   -0.013941271433492698   -0.0009096093016894244
0.0018560101981629764   -0.013986552100738773   -0.000880912318810372
0.004004493952258165   -0.010063369363200134   -0.0008752971297929675
-0.006348155646207545   -0.014047446871323137   -0.0010667813222971655
-0.006539956631340884   -0.01801876668385938   -0.0010500574931261238
-0.004175086793119232   -0.014025456388525707   -0.0009880379584019637
-0.006373790876701297   -0.014095832192205818   -0.0010383353736594391
-0.006539956631340884   -0.01801876668385938   -0.0010500574931261238
-0.004373220212300705   -0.01802933714844931   -0.000992152257790403
-0.004175086793119232   -0.014025456388525707   -0.0009880379584019637
-0.00436086670598953   -0.01805883976455679   -0.000983253750578146
-0.006373790876701297   -0.014095832192205818   -0.0010383353736594391
-0.004172438919705732   -0.014061410768025875   -0.0009644270102019976
-0.00436086670598953   -0.01805883976455679   -0.000983253750578146
-0.004175086793119232   -0.014025456388525707   -0.0009880379584019637
-0.006373790876701297   -0.014095832192205818   -0.0010383353736594391
-0.00436086670598953   -0.01805883976455679   -0.000983253750578146
-0.006531423986266131   -0.018058281153156264   -0.0010485750990444655
-0.006539956631340884   -0.01801876668385938   -0.0010500574931261238
-0.006373790876701297   -0.014095832192205818   -0.0010383353736594391
-0.00436086670598953   -0.01805883976455679   -0.000983253750578146
-0.006539956631340884   -0.01801876668385938   -0.0010500574931261238
-0.004175086793119232   -0.014025456388525707   -0.0009880379584019637
-0.006373790876701297   -0.014095832192205818   -0.0010383353736594391
-0.006531423986266131   -0.018058281153156264   -0.0010485750990444655
-0.004172438919705732   -0.014061410768025875   -0.0009644270102019976
-0.006381143947904094   -0.014135437459041864   -0.0010155340697953683
-0.006531423986266131   -0.018058281153156264   -0.0010485750990444655
-0.00436086670598953   -0.01805883976455679   -0.000983253750578146
-0.004172438919705732   -0.014061410768025875   -0.0009644270102019976
-0.004341990976108828   -0.018091673121252715   -0.0009783699133019397
-0.006381143947904094   -0.014135437459041864   -0.0010155340697953683
-0.004165851644141914   -0.01409469484230843   -0.0009447402249908853
-0.004341990976108828   -0.018091673121252715   -0.0009783699133019397
-0.004172438919705732   -0.014061410768025875   -0.0009644270102019976
-0.006381143947904094   -0.014135437459041864   -0.0010155340697953683
-0.004341990976108828   -0.018091673121252715   -0.0009783699133019397
-0.00651064910342066   -0.018096824714575358   -0.00105308861734068
-0.006531423986266131   -0.018058281153156264   -0.0010485750990444655
-0.006381143947904094   -0.014135437459041864   -0.0010155340697953683
-0.004341990976108828   -0.018091673121252715   -0.0009783699133019397
-0.006531423986266131   -0.018058281153156264   -0.0010485750990444655
-0.004172438919705732   -0.014061410768025875   -0.0009644270102019976
-0.006381143947904094   -0.014135437459041864   -0.0010155340697953683
-0.00651064910342066   -0.018096824714575358   -0.00105308861734068
-0.004165851644141914   -0.01409469484230843   -0.0009447402249908853
-0.006382698821109018   -0.0141786322106486   -0.0009988733689395555
-0.00651064910342066   -0.018096824714575358   -0.00105308861734068
-0.004341990976108828   -0.018091673121252715   -0.0009783699133019397
-0.004165851644141914   -0.01409469484230843   -0.0009447402249908853
-0.004317780043193338   -0.01813010822061942   -0.0009774250653288782
-0.006382698821109018   -0.0141786322106486   -0.0009988733689395555
-0.004151119951247586   -0.014127856640530064   -0.000928692702287655
-0.004317780043193338   -0.01813010822061942   -0.0009774250653288782
-0.004165851644141914   -0.01409469484230843   -0.0009447402249908853
-0.006382698821109018   -0.0141786322106486   -0.0009988733689395555
-0.004317780043193338   -0.01813010822061942   -0.0009774250653288782
-0.006477474816271432   -0.018146632270810398   -0.0010639145465667539
-0.00651064910342066   -0.018096824714575358   -0.00105308861734068
-0.006382698821109018   -0.0141786322106486   -0.0009988733689395555
-0.004317780043193338   -0.01813010822061942   -0.0009774250653288782
-0.00651064910342066   -0.018096824714575358   -0.00105308861734068
-0.004165851644141914   -0.01409469484230843   -0.0009447402249908853
-0.004175086793119232   -0.014025456388525707   -0.0009880379584019637
-0.004373220212300705   -0.01802933714844931   -0.000992152257790403
-0.002156690484412926   -0.01401261299704373   -0.000934464478354456
-0.004172438919705732   -0.014061410768025875   -0.0009644270102019976
-0.004373220212300705   -0.01802933714844931   -0.000992152257790403
-0.0023878884945623493   -0.01803147468783802   -0.0009537047841105381
-0.002156690484412926   -0.01401261299704373   -0.000934464478354456
-0.002371623739639478   -0.018048314527300338   -0.0009376872679471211
-0.004172438919705732   -0.014061410768025875   -0.0009644270102019976
-0.002148183720827643   -0.014034291264903978   -0.0009137188450109278
-0.002371623739639478   -0.018048314527300338   -0.0009376872679471211
-0.002156690484412926   -0.01401261299704373   -0.000934464478354456
-0.004172438919705732   -0.014061410768025875   -0.0009644270102019976
-0.002371623739639478   -0.018048314527300338   -0.0009376872679471211
-0.00436086670598953   -0.01805883976455679   -0.000983253750578146
-0.004373220212300705   -0.01802933714844931   -0.000992152257790403
-0.004172438919705732   -0.014061410768025875   -0.0009644270102019976
-0.002371623739639478   -0.018048314527300338   -0.0009376872679471211
-0.004373220212300705   -0.01802933714844931   -0.000992152257790403
-0.002156690484412926   -0.01401261299704373   -0.000934464478354456
-0.004172438919705732   -0.014061410768025875   -0.0009644270102019976
-0.00436086670598953   -0.01805883976455679   -0.000983253750578146
-0.002148183720827643   -0.014034291264903978   -0.0009137188450109278
-0.004165851644141914   -0.01409469484230843   -0.0009447402249908853
-0.00436086670598953   -0.01805883976455679   -0.000983253750578146
-0.002371623739639478   -0.018048314527300338   -0.0009376872679471211
-0.002148183720827643   -0.014034291264903978   -0.0009137188450109278
-0.0023533505466379672   -0.01806892570333778   -0.0009256955725844275
-0.004165851644141914   -0.01409469484230843   -0.0009447402249908853
-0.002137986599180553   -0.014054266821304878   -0.000896895320385068
-0.0023533505466379672   -0.01806892570333778   -0.0009256955725844275
-0.002148183720827643   -0.014034291264903978   -0.0009137188450109278
-0.004165851644141914   -0.01409469484230843   -0.0009447402249908853
-0.0023533505466379672   -0.01806892570333778   -0.0009256955725844275
-0.004341990976108828   -0.018091673121252715   -0.0009783699133019397
-0.00436086670598953   -0.01805883976455679   -0.000983253750578146
-0.004165851644141914   -0.01409469484230843   -0.0009447402249908853
-0.0023533505466379672   -0.01806892570333778   -0.0009256955725844275
-0.00436086670598953   -0.01805883976455679   -0.000983253750578146
-0.002148183720827643   -0.014034291264903978   -0.0009137188450109278
-0.004165851644141914   -0.01409469484230843   -0.0009447402249908853
-0.004341990976108828   -0.018091673121252715   -0.0009783699133019397
-0.002137986599180553   -0.014054266821304878   -0.000896895320385068
-0.004151119951247586   -0.014127856640530064   -0.000928692702287655
-0.004341990976108828   -0.018091673121252715   -0.0009783699133019397
-0.0023533505466379672   -0.01806892570333778   -0.0009256955725844275
-0.002137986599180553   -0.014054266821304878   -0.000896895320385068
-0.002333700857064885   -0.018093372784014954   -0.0009178658119532609
-0.004151119951247586   -0.014127856640530064   -0.000928692702287655
-0.0021259137676220246   -0.014072607311152075   -0.0008840932488395326
-0.002333700857064885   -0.018093372784014954   -0.0009178658119532609
-0.002137986599180553   -0.014054266821304878   -0.000896895320385068
-0.004151119951247586   -0.014127856640530064   -0.000928692702287655
-0.002333700857064885   -0.018093372784014954   -0.0009178658119532609
-0.004317780043193338   -0.01813010822061942   -0.0009774250653288782
-0.004341990976108828   -0.018091673121252715   -0.0009783699133019397
-0.004151119951247586   -0.014127856640530064   -0.000928692702287655
-0.002333700857064885   -0.018093372784014954   -0.0009178658119532609
-0.004341990976108828   -0.018091673121252715   -0.0009783699133019397
-0.002137986599180553   -0.014054266821304878   -0.000896895320385068
-0.002156690484412926   -0.01401261299704373   -0.000934464478354456
-0.0023878884945623493   -0.01803147468783802   -0.0009537047841105381
-0.000192967645006762   -0.01400510745936231   -0.0009070197674957541
-0.002148183720827643   -0.014034291264903978   -0.0009137188450109278
-0.0023878884945623493   -0.01803147468783802   -0.0009537047841105381
-0.0004585865781273368   -0.018020762147390054   -0.0009382970622725863
-0.000192967645006762   -0.01400510745936231   -0.0009070197674957541
-0.00043944907733187535   -0.018024474274210976   -0.0009155168310119394
-0.002148183720827643   -0.014034291264903978   -0.0009137188450109278
-0.00018143456308941772   -0.014012207110417918   -0.0008893586628004456
-0.00043944907733187535   -0.018024474274210976   -0.0009155168310119394
-0.000192967645006762   -0.01400510745936231   -0.0009070197674957541
-0.002148183720827643   -0.014034291264903978   -0.0009137188450109278
-0.00043944907733187535   -0.018024474274210976   -0.0009155168310119394
-0.002371623739639478   -0.018048314527300338   -0.0009376872679471211
-0.0023878884945623493   -0.01803147468783802   -0.0009537047841105381
-0.002148183720827643   -0.014034291264903978   -0.0009137188450109278
-0.00043944907733187535   -0.018024474274210976   -0.0009155168310119394
-0.0023878884945623493   -0.01803147468783802   -0.0009537047841105381
-0.000192967645006762   -0.01400510745936231   -0.0009070197674957541
-0.002148183720827643   -0.014034291264903978   -0.0009137188450109278
-0.002371623739639478   -0.018048314527300338   -0.0009376872679471211
-0.00018143456308941772   -0.014012207110417918   -0.0008893586628004456
-0.002137986599180553   -0.014054266821304878   -0.000896895320385068
-0.002371623739639478   -0.018048314527300338   -0.0009376872679471211
-0.00043944907733187535   -0.018024474274210976   -0.0009155168310119394
-0.00018143456308941772   -0.014012207110417918   -0.0008893586628004456
-0.00042130961048969474   -0.01803167544135616   -0.0008967385427446592
-0.002137986599180553   -0.014054266821304878   -0.000896895320385068
-0.00017132320514619842   -0.014017478080059638   -0.0008755901700247509
-0.00042130961048969474   -0.01803167544135616   -0.0008967385427446592
-0.00018143456308941772   -0.014012207110417918   -0.0008893586628004456
-0.002137986599180553   -0.014054266821304878   -0.000896895320385068
-0.00042130961048969474   -0.01803167544135616   -0.0008967385427446592
-0.0023533505466379672   -0.01806892570333778   -0.0009256955725844275
-0.002371623739639478   -0.018048314527300338   -0.0009376872679471211
-0.002137986599180553   -0.014054266821304878   -0.000896895320385068
-0.00042130961048969474   -0.01803167544135616   -0.0008967385427446592
-0.002371623739639478   -0.018048314527300338   -0.0009376872679471211
-0.00018143456308941772   -0.014012207110417918   -0.0008893586628004456
-0.002137986599180553   -0.014054266821304878   -0.000896895320385068
-0.0023533505466379672   -0.01806892570333778   -0.0009256955725844275
-0.00017132320514619842   -0.014017478080059638   -0.0008755901700247509
-0.0021259137676220246   -0.014072607311152075   -0.0008840932488395326
-0.0023533505466379672   -0.01806892570333778   -0.0009256955725844275
-0.00042130961048969474   -0.01803167544135616   -0.0008967385427446592
-0.00017132320514619842   -0.014017478080059638   -0.0008755901700247509
-0.00040578922039388553   -0.018042523872772883   -0.0008820994703930515
-0.0021259137676220246   -0.014072607311152075   -0.0008840932488395326
-0.00016336658641872797   -0.014020890043105931   -0.0008658534549882221
-0.00040578922039388553   -0.018042523872772883   -0.0008820994703930515
-0.00017132320514619842   -0.014017478080059638   -0.0008755901700247509
-0.0021259137676220246   -0.014072607311152075   -0.0008840932488395326
-0.00040578922039388553   -0.018042523872772883   -0.0008820994703930515
-0.002333700857064885   -0.018093372784014954   -0.0009178658119532609
-0.0023533505466379672   -0.01806892570333778   -0.0009256955725844275
-0.0021259137676220246   -0.014072607311152075   -0.0008840932488395326
-0.00040578922039388553   -0.018042523872772883   -0.0008820994703930515
-0.0023533505466379672   -0.01806892570333778   -0.0009256955725844275
-0.00017132320514619842   -0.014017478080059638   -0.0008755901700247509
-0.000192967645006762   -0.01400510745936231   -0.0009070197674957541
-0.0004585865781273368   -0.018020762147390054   -0.0009382970622725863
0.0018304742848820916   -0.014001638974173385   -0.0009059885599409462
-0.00018143456308941772   -0.014012207110417918   -0.0008893586628004456
-0.0004585865781273368   -0.018020762147390054   -0.0009382970622725863
0.0015282290159837866   -0.01799703705886325   -0.0009467133433652073
0.0018304742848820916   -0.014001638974173385   -0.0009059885599409462
0.0015525363516893887   -0.017987556165509226   -0.0009172720460951211
-0.00018143456308941772   -0.014012207110417918   -0.0008893586628004456
0.0018455216885030269   -0.01399458736404616   -0.000891561619721586
0.0015525363516893887   -0.017987556165509226   -0.0009172720460951211
0.0018304742848820916   -0.014001638974173385   -0.0009059885599409462
-0.00018143456308941772   -0.014012207110417918   -0.0008893586628004456
0.0015525363516893887   -0.017987556165509226   -0.0009172720460951211
-0.00043944907733187535   -0.018024474274210976   -0.0009155168310119394
-0.0004585865781273368   -0.018020762147390054   -0.0009382970622725863
-0.00018143456308941772   -0.014012207110417918   -0.0008893586628004456
0.0015525363516893887   -0.017987556165509226   -0.0009172720460951211
-0.0004585865781273368   -0.018020762147390054   -0.0009382970622725863
0.0018304742848820916   -0.014001638974173385   -0.0009059885599409462
-0.00018143456308941772   -0.014012207110417918   -0.0008893586628004456
-0.00043944907733187535   -0.018024474274210976   -0.0009155168310119394
0.0018455216885030269   -0.01399458736404616   -0.000891561619721586
-0.00017132320514619842   -0.014017478080059638   -0.0008755901700247509
-0.00043944907733187535   -0.018024474274210976   -0.0009155168310119394
0.0015525363516893887   -0.017987556165509226   -0.0009172720460951211
0.0018455216885030269   -0.01399458736404616   -0.000891561619721586
0.001575126480679496   -0.01798261198420551   -0.0008918177886024105
-0.00017132320514619842   -0.014017478080059638   -0.0008755901700247509
0.0018560101981629764   -0.013986552100738773   -0.000880912318810372
0.001575126480679496   -0.01798261198420551   -0.0008918177886024105
0.0018455216885030269   -0.01399458736404616   -0.000891561619721586
-0.00017132320514619842   -0.014017478080059638   -0.0008755901700247509
0.001575126480679496   -0.01798261198420551   -0.0008918177886024105
-0.00042130961048969474   -0.01803167544135616   -0.0008967385427446592
-0.00043944907733187535   -0.018024474274210976   -0.0009155168310119394
-0.00017132320514619842   -0.014017478080059638   -0.0008755901700247509
0.001575126480679496   -0.01798261198420551   -0.0008918177886024105
-0.00043944907733187535   -0.018024474274210976   -0.0009155168310119394
0.0018455216885030269   -0.01399458736404616   -0.000891561619721586
-0.00017132320514619842   -0.014017478080059638   -0.0008755901700247509
-0.00042130961048969474   -0.01803167544135616   -0.0008967385427446592
0.0018560101981629764   -0.013986552100738773   -0.000880912318810372
-0.00016336658641872797   -0.014020890043105931   -0.0008658534549882221
-0.00042130961048969474   -0.01803167544135616   -0.0008967385427446592
0.001575126480679496   -0.01798261198420551   -0.0008918177886024105
0.0018560101981629764   -0.013986552100738773   -0.000880912318810372
0.001587615247509428   -0.017979889184830063   -0.0008700902169739684
-0.00016336658641872797   -0.014020890043105931   -0.0008658534549882221
0.0018590262138665763   -0.013974955465060094   -0.0008739657151758131
0.001587615247509428   -0.017979889184830063   -0.0008700902169739684
0.0018560101981629764   -0.013986552100738773   -0.000880912318810372
-0.00016336658641872797   -0.014020890043105931   -0.0008658534549882221
0.001587615247509428   -0.017979889184830063   -0.0008700902169739684
-0.00040578922039388553   -0.018042523872772883   -0.0008820994703930515
-0.00042130961048969474   -0.01803167544135616   -0.0008967385427446592
-0.00016336658641872797   -0.014020890043105931   -0.0008658534549882221
0.001587615247509428   -0.017979889184830063   -0.0008700902169739684
-0.00042130961048969474   -0.01803167544135616   -0.0008967385427446592
0.0018560101981629764   -0.013986552100738773   -0.000880912318810372
0.0018304742848820916   -0.014001638974173385   -0.0009059885599409462
0.0015282290159837866   -0.01799703705886325   -0.0009467133433652073
0.004022395116832863   -0.013996538453954663   -0.0009288938775541344
0.0018455216885030269   -0.01399458736404616   -0.000891561619721586
0.0015282290159837866   -0.01799703705886325   -0.0009467133433652073
0.0036538279857350666   -0.017957011879247118   -0.0009803225866968869
0.004022395116832863   -0.013996538453954663   -0.0009288938775541344
0.0037166539671410342   -0.017935535073052324   -0.0009414977674249026
0.0018455216885030269   -0.01399458736404616   -0.000891561619721586
0.00405146516182363   -0.013978265110508566   -0.000916680980749818
0.0037166539671410342   -0.017935535073052324   -0.0009414977674249026
0.004022395116832863   -0.013996538453954663   -0.0009288938775541344
0.0018455216885030269   -0.01399458736404616   -0.000891561619721586
0.0037166539671410342   -0.017935535073052324   -0.0009414977674249026
0.0015525363516893887   -0.017987556165509226   -0.0009172720460951211
0.0015282290159837866   -0.01799703705886325   -0.0009467133433652073
0.0018455216885030269   -0.01399458736404616   -0.000891561619721586
0.0037166539671410342   -0.017935535073052324   -0.0009414977674249026
0.0015282290159837866   -0.01799703705886325   -0.0009467133433652073
0.004022395116832863   -0.013996538453954663   -0.0009288938775541344
0.0018455216885030269   -0.01399458736404616   -0.000891561619721586
0.0015525363516893887   -0.017987556165509226   -0.0009172720460951211
0.00405146516182363   -0.013978265110508566   -0.000916680980749818
0.0018560101981629764   -0.013986552100738773   -0.000880912318810372
0.0015525363516893887   -0.017987556165509226   -0.0009172720460951211
0.0037166539671410342   -0.017935535073052324   -0.0009414977674249026
0.00405146516182363   -0.013978265110508566   -0.000916680980749818
0.0037601390345122915   -0.017925101519931645   -0.0009083640939198901
0.0018560101981629764   -0.013986552100738773   -0.000880912318810372
0.00406749459171378   -0.013963937740152121   -0.0009102199425984528
0.0037601390345122915   -0.017925101519931645   -0.0009083640939198901
0.00405146516182363   -0.013978265110508566   -0.000916680980749818
0.0018560101981629764   -0.013986552100738773   -0.000880912318810372
0.0037601390345122915   -0.017925101519931645   -0.0009083640939198901
0.001575126480679496   -0.01798261198420551   -0.0008918177886024105
0.0015525363516893887   -0.017987556165509226   -0.0009172720460951211
0.0018560101981629764   -0.013986552100738773   -0.000880912318810372
0.0037601390345122915   -0.017925101519931645   -0.0009083640939198901
0.0015525363516893887   -0.017987556165509226   -0.0009172720460951211
0.00405146516182363   -0.013978265110508566   -0.000916680980749818
0.0018560101981629764   -0.013986552100738773   -0.000880912318810372
0.001575126480679496   -0.01798261198420551   -0.0008918177886024105
0.00406749459171378   -0.013963937740152121   -0.0009102199425984528
0.0018590262138665763   -0.013974955465060094   -0.0008739657151758131
0.001575126480679496   -0.01798261198420551   -0.0008918177886024105
0.0037601390345122915   -0.017925101519931645   -0.0009083640939198901
0.00406749459171378   -0.013963937740152121   -0.0009102199425984528
0.003799166257970744   -0.017913970471868622   -0.0008811610562339363
0.0018590262138665763   -0.013974955465060094   -0.0008739657151758131
0.0040727958119458575   -0.013941271433492698   -0.0009096093016894244
0.003799166257970744   -0.017913970471868622   -0.0008811610562339363
0.00406749459171378   -0.013963937740152121   -0.0009102199425984528
0.0018590262138665763   -0.013974955465060094   -0.0008739657151758131
0.003799166257970744   -0.017913970471868622   -0.0008811610562339363
0.001587615247509428   -0.017979889184830063   -0.0008700902169739684
0.001575126480679496   -0.01798261198420551   -0.0008918177886024105
0.0018590262138665763   -0.013974955465060094   -0.0008739657151758131
0.003799166257970744   -0.017913970471868622   -0.0008811610562339363
0.001575126480679496   -0.01798261198420551   -0.0008918177886024105
0.00406749459171378   -0.013963937740152121   -0.0009102199425984528
-0.006539956631340884   -0.01801876668385938   -0.0010500574931261238
-0.006361082069233545   -0.021803477508016606   -0.0010050317939966974
-0.004373220212300705   -0.01802933714844931   -0.000992152257790403
-0.006531423986266131   -0.018058281153156264   -0.0010485750990444655
-0.006361082069233545   -0.021803477508016606   -0.0010050317939966974
-0.0043541747959876765   -0.021846981206310092   -0.0009703985341202071
-0.004373220212300705   -0.01802933714844931   -0.000992152257790403
-0.004328567183366394   -0.021868920923342795   -0.0009757463925562904
-0.006531423986266131   -0.018058281153156264   -0.0010485750990444655
-0.00436086670598953   -0.01805883976455679   -0.000983253750578146
-0.004328567183366394   -0.021868920923342795   -0.0009757463925562904
-0.004373220212300705   -0.01802933714844931   -0.000992152257790403
-0.006531423986266131   -0.018058281153156264   -0.0010485750990444655
-0.004328567183366394   -0.021868920923342795   -0.0009757463925562904
-0.006314808070405055   -0.021833114731796482   -0.0010304065702980512
-0.006361082069233545   -0.021803477508016606   -0.0010050317939966974
-0.006531423986266131   -0.018058281153156264   -0.0010485750990444655
-0.004328567183366394   -0.021868920923342795   -0.0009757463925562904
-0.006361082069233545   -0.021803477508016606   -0.0010050317939966974
-0.004373220212300705   -0.01802933714844931   -0.000992152257790403
-0.006531423986266131   -0.018058281153156264   -0.0010485750990444655
-0.006314808070405055   -0.021833114731796482   -0.0010304065702980512
-0.00436086670598953   -0.01805883976455679   -0.000983253750578146
-0.00651064910342066   -0.018096824714575358   -0.00105308861734068
-0.006314808070405055   -0.021833114731796482   -0.0010304065702980512
-0.004328567183366394   -0.021868920923342795   -0.0009757463925562904
-0.00436086670598953   -0.01805883976455679   -0.000983253750578146
-0.004294026870010131   -0.0219003383091999   -0.0009851829084628954
-0.00651064910342066   -0.018096824714575358   -0.00105308861734068
-0.004341990976108828   -0.018091673121252715   -0.0009783699133019397
-0.004294026870010131   -0.0219003383091999   -0.0009851829084628954
-0.00436086670598953   -0.01805883976455679   -0.000983253750578146
-0.00651064910342066   -0.018096824714575358   -0.00105308861734068
-0.004294026870010131   -0.0219003383091999   -0.0009851829084628954
-0.006262265976543855   -0.021869717982075414   -0.0010622068205609313
-0.006314808070405055   -0.021833114731796482   -0.0010304065702980512
-0.00651064910342066   -0.018096824714575358   -0.00105308861734068
-0.004294026870010131   -0.0219003383091999   -0.0009851829084628954
-0.006314808070405055   -0.021833114731796482   -0.0010304065702980512
-0.00436086670598953   -0.01805883976455679   -0.000983253750578146
-0.00651064910342066   -0.018096824714575358   -0.00105308861734068
-0.006262265976543855   -0.021869717982075414   -0.0010622068205609313
-0.004341990976108828   -0.018091673121252715   -0.0009783699133019397
-0.006477474816271432   -0.018146632270810398   -0.0010639145465667539
-0.006262265976543855   -0.021869717982075414   -0.0010622068205609313
-0.004294026870010131   -0.0219003383091999   -0.0009851829084628954
-0.004341990976108828   -0.018091673121252715   -0.0009783699133019397
-0.004257024223577792   -0.021943158710290202   -0.0009988195458286951
-0.006477474816271432   -0.018146632270810398   -0.0010639145465667539
-0.004317780043193338   -0.01813010822061942   -0.0009774250653288782
-0.004257024223577792   -0.021943158710290202   -0.0009988195458286951
-0.004341990976108828   -0.018091673121252715   -0.0009783699133019397
-0.006477474816271432   -0.018146632270810398   -0.0010639145465667539
-0.004257024223577792   -0.021943158710290202   -0.0009988195458286951
-0.006190919695920641   -0.02192555268776243   -0.0011005651739318938
-0.006262265976543855   -0.021869717982075414   -0.0010622068205609313
-0.006477474816271432   -0.018146632270810398   -0.0010639145465667539
-0.004257024223577792   -0.021943158710290202   -0.0009988195458286951
-0.006262265976543855   -0.021869717982075414   -0.0010622068205609313
-0.004341990976108828   -0.018091673121252715   -0.0009783699133019397
-0.004373220212300705   -0.01802933714844931   -0.000992152257790403
-0.0043541747959876765   -0.021846981206310092   -0.0009703985341202071
-0.0023878884945623493   -0.01803147468783802   -0.0009537047841105381
-0.00436086670598953   -0.01805883976455679   -0.000983253750578146
-0.0043541747959876765   -0.021846981206310092   -0.0009703985341202071
-0.0025536944295839505   -0.021863966727142393   -0.000948288119898343
-0.0023878884945623493   -0.01803147468783802   -0.0009537047841105381
-0.0025258811833588236   -0.021875293971659476   -0.0009366143082438046
-0.00436086670598953   -0.01805883976455679   -0.000983253750578146
-0.002371623739639478   -0.018048314527300338   -0.0009376872679471211
-0.0025258811833588236   -0.021875293971659476   -0.0009366143082438046
-0.0023878884945623493   -0.01803147468783802   -0.0009537047841105381
-0.00436086670598953   -0.01805883976455679   -0.000983253750578146
-0.0025258811833588236   -0.021875293971659476   -0.0009366143082438046
-0.004328567183366394   -0.021868920923342795   -0.0009757463925562904
-0.0043541747959876765   -0.021846981206310092   -0.0009703985341202071
-0.00436086670598953   -0.01805883976455679   -0.000983253750578146
-0.0025258811833588236   -0.021875293971659476   -0.0009366143082438046
-0.0043541747959876765   -0.021846981206310092   -0.0009703985341202071
-0.0023878884945623493   -0.01803147468783802   -0.0009537047841105381
-0.00436086670598953   -0.01805883976455679   -0.000983253750578146
-0.004328567183366394   -0.021868920923342795   -0.0009757463925562904
-0.002371623739639478   -0.018048314527300338   -0.0009376872679471211
-0.004341990976108828   -0.018091673121252715   -0.0009783699133019397
-0.004328567183366394   -0.021868920923342795   -0.0009757463925562904
-0.0025258811833588236   -0.021875293971659476   -0.0009366143082438046
-0.002371623739639478   -0.018048314527300338   -0.0009376872679471211
-0.0024959903666744963   -0.021895718822778926   -0.0009289776169540829
-0.004341990976108828   -0.018091673121252715   -0.0009783699133019397
-0.0023533505466379672   -0.01806892570333778   -0.0009256955725844275
-0.0024959903666744963   -0.021895718822778926   -0.0009289776169540829
-0.002371623739639478   -0.018048314527300338   -0.0009376872679471211
-0.004341990976108828   -0.018091673121252715   -0.0009783699133019397
-0.0024959903666744963   -0.021895718822778926   -0.0009289776169540829
-0.004294026870010131   -0.0219003383091999   -0.0009851829084628954
-0.004328567183366394   -0.021868920923342795   -0.0009757463925562904
-0.004341990976108828   -0.018091673121252715   -0.0009783699133019397
-0.0024959903666744963   -0.021895718822778926   -0.0009289776169540829
-0.004328567183366394   -0.021868920923342795   -0.0009757463925562904
-0.002371623739639478   -0.018048314527300338   -0.0009376872679471211
-0.004341990976108828   -0.018091673121252715   -0.0009783699133019397
-0.004294026870010131   -0.0219003383091999   -0.0009851829084628954
-0.0023533505466379672   -0.01806892570333778   -0.0009256955725844275
-0.004317780043193338   -0.01813010822061942   -0.0009774250653288782
-0.004294026870010131   -0.0219003383091999   -0.0009851829084628954
-0.0024959903666744963   -0.021895718822778926   -0.0009289776169540829
-0.0023533505466379672   -0.01806892570333778   -0.0009256955725844275
-0.002465267644453944   -0.02192549205265115   -0.0009255812947047729
-0.004317780043193338   -0.01813010822061942   -0.0009774250653288782
-0.002333700857064885   -0.018093372784014954   -0.0009178658119532609
-0.002465267644453944   -0.02192549205265115   -0.0009255812947047729
-0.0023533505466379672   -0.01806892570333778   -0.0009256955725844275
-0.004317780043193338   -0.01813010822061942   -0.0009774250653288782
-0.002465267644453944   -0.02192549205265115   -0.0009255812947047729
-0.004257024223577792   -0.021943158710290202   -0.0009988195458286951
-0.004294026870010131   -0.0219003383091999   -0.0009851829084628954
-0.004317780043193338   -0.01813010822061942   -0.0009774250653288782
-0.002465267644453944   -0.02192549205265115   -0.0009255812947047729
-0.004294026870010131   -0.0219003383091999   -0.0009851829084628954
-0.0023533505466379672   -0.01806892570333778   -0.0009256955725844275
-0.0023878884945623493   -0.01803147468783802   -0.0009537047841105381
-0.0025536944295839505   -0.021863966727142393   -0.000948288119898343
-0.0004585865781273368   -0.018020762147390054   -0.0009382970622725863
-0.002371623739639478   -0.018048314527300338   -0.0009376872679471211
-0.0025536944295839505   -0.021863966727142393   -0.000948288119898343
-0.0008074955203263778   -0.02185047640545965   -0.0009450239852090887
-0.0004585865781273368   -0.018020762147390054   -0.0009382970622725863
-0.0007767449287326728   -0.021850537427380013   -0.0009169123357827255
-0.002371623739639478   -0.018048314527300338   -0.0009376872679471211
-0.00043944907733187535   -0.018024474274210976   -0.0009155168310119394
-0.0007767449287326728   -0.021850537427380013   -0.0009169123357827255
-0.0004585865781273368   -0.018020762147390054   -0.0009382970622725863
-0.002371623739639478   -0.018048314527300338   -0.0009376872679471211
-0.0007767449287326728   -0.021850537427380013   -0.0009169123357827255
-0.0025258811833588236   -0.021875293971659476   -0.0009366143082438046
-0.0025536944295839505   -0.021863966727142393   -0.000948288119898343
-0.002371623739639478   -0.018048314527300338   -0.0009376872679471211
-0.0007767449287326728   -0.021850537427380013   -0.0009169123357827255
-0.0025536944295839505   -0.021863966727142393   -0.000948288119898343
-0.0004585865781273368   -0.018020762147390054   -0.0009382970622725863
-0.002371623739639478   -0.018048314527300338   -0.0009376872679471211
-0.0025258811833588236   -0.021875293971659476   -0.0009366143082438046
-0.00043944907733187535   -0.018024474274210976   -0.0009155168310119394
-0.0023533505466379672   -0.01806892570333778   -0.0009256955725844275
-0.0025258811833588236   -0.021875293971659476   -0.0009366143082438046
-0.0007767449287326728   -0.021850537427380013   -0.0009169123357827255
-0.00043944907733187535   -0.018024474274210976   -0.0009155168310119394
-0.00074678095350475   -0.021859051778256276   -0.0008928517186571681
-0.0023533505466379672   -0.01806892570333778   -0.0009256955725844275
-0.00042130961048969474   -0.01803167544135616   -0.0008967385427446592
-0.00074678095350475   -0.021859051778256276   -0.0008928517186571681
-0.00043944907733187535   -0.018024474274210976   -0.0009155168310119394
-0.0023533505466379672   -0.01806892570333778   -0.0009256955725844275
-0.00074678095350475   -0.021859051778256276   -0.0008928517186571681
-0.0024959903666744963   -0.021895718822778926   -0.0009289776169540829
-0.0025258811833588236   -0.021875293971659476   -0.0009366143082438046
-0.0023533505466379672   -0.01806892570333778   -0.0009256955725844275
-0.00074678095350475   -0.021859051778256276   -0.0008928517186571681
-0.0025258811833588236   -0.021875293971659476   -0.0009366143082438046
-0.00043944907733187535   -0.018024474274210976   -0.0009155168310119394
-0.0023533505466379672   -0.01806892570333778   -0.0009256955725844275
-0.0024959903666744963   -0.021895718822778926   -0.0009289776169540829
-0.00042130961048969474   -0.01803167544135616   -0.0008967385427446592
-0.002333700857064885   -0.018093372784014954   -0.0009178658119532609
-0.0024959903666744963   -0.021895718822778926   -0.0009289776169540829
-0.00074678095350475   -0.021859051778256276   -0.0008928517186571681
-0.00042130961048969474   -0.01803167544135616   -0.0008967385427446592
-0.0007199899212979137   -0.021876706698035302   -0.0008729811852248606
-0.002333700857064885   -0.018093372784014954   -0.0009178658119532609
-0.00040578922039388553   -0.018042523872772883   -0.0008820994703930515
-0.0007199899212979137   -0.021876706698035302   -0.0008729811852248606
-0.00042130961048969474   -0.01803167544135616   -0.0008967385427446592
-0.002333700857064885   -0.018093372784014954   -0.0009178658119532609
-0.0007199899212979137   -0.021876706698035302   -0.0008729811852248606
-0.002465267644453944   -0.02192549205265115   -0.0009255812947047729
-0.0024959903666744963   -0.021895718822778926   -0.0009289776169540829
-0.002333700857064885   -0.018093372784014954   -0.0009178658119532609
-0.0007199899212979137   -0.021876706698035302   -0.0008729811852248606
-0.0024959903666744963   -0.021895718822778926   -0.0009289776169540829
-0.00042130961048969474   -0.01803167544135616   -0.0008967385427446592
-0.0004585865781273368   -0.018020762147390054   -0.0009382970622725863
-0.0008074955203263778   -0.02185047640545965   -0.0009450239852090887
0.0015282290159837866   -0.01799703705886325   -0.0009467133433652073
-0.00043944907733187535   -0.018024474274210976   -0.0009155168310119394
-0.0008074955203263778   -0.02185047640545965   -0.0009450239852090887
0.0009978411043235443   -0.021807310042281425   -0.0009620780810837291
0.0015282290159837866   -0.01799703705886325   -0.0009467133433652073
0.001035461193752275   -0.02179534243032562   -0.0009176631337947822
-0.00043944907733187535   -0.018024474274210976   -0.0009155168310119394
0.0015525363516893887   -0.017987556165509226   -0.0009172720460951211
0.001035461193752275   -0.02179534243032562   -0.0009176631337947822
0.0015282290159837866   -0.01799703705886325   -0.0009467133433652073
-0.00043944907733187535   -0.018024474274210976   -0.0009155168310119394
0.001035461193752275   -0.02179534243032562   -0.0009176631337947822
-0.0007767449287326728   -0.021850537427380013   -0.0009169123357827255
-0.0008074955203263778   -0.02185047640545965   -0.0009450239852090887
-0.00043944907733187535   -0.018024474274210976   -0.0009155168310119394
0.001035461193752275   -0.02179534243032562   -0.0009176631337947822
-0.0008074955203263778   -0.02185047640545965   -0.0009450239852090887
0.0015282290159837866   -0.01799703705886325   -0.0009467133433652073
-0.00043944907733187535   -0.018024474274210976   -0.0009155168310119394
-0.0007767449287326728   -0.021850537427380013   -0.0009169123357827255
0.0015525363516893887   -0.017987556165509226   -0.0009172720460951211
-0.00042130961048969474   -0.01803167544135616   -0.0008967385427446592
-0.0007767449287326728   -0.021850537427380013   -0.0009169123357827255
0.001035461193752275   -0.02179534243032562   -0.0009176631337947822
0.0015525363516893887   -0.017987556165509226   -0.0009172720460951211
0.0010741130470409295   -0.02179304237357684   -0.0008775532959840976
-0.00042130961048969474   -0.01803167544135616   -0.0008967385427446592
0.001575126480679496   -0.01798261198420551   -0.0008918177886024105
0.0010741130470409295   -0.02179304237357684   -0.0008775532959840976
0.0015525363516893887   -0.017987556165509226   -0.0009172720460951211
-0.00042130961048969474   -0.01803167544135616   -0.0008967385427446592
0.0010741130470409295   -0.02179304237357684   -0.0008775532959840976
-0.00074678095350475   -0.021859051778256276   -0.0008928517186571681
-0.0007767449287326728   -0.021850537427380013   -0.0009169123357827255
-0.00042130961048969474   -0.01803167544135616   -0.0008967385427446592
0.0010741130470409295   -0.02179304237357684   -0.0008775532959840976
-0.0007767449287326728   -0.021850537427380013   -0.0009169123357827255
0.0015525363516893887   -0.017987556165509226   -0.0009172720460951211
-0.00042130961048969474   -0.01803167544135616   -0.0008967385427446592
-0.00074678095350475   -0.021859051778256276   -0.0008928517186571681
0.001575126480679496   -0.01798261198420551   -0.0008918177886024105
-0.00040578922039388553   -0.018042523872772883   -0.0008820994703930515
-0.00074678095350475   -0.021859051778256276   -0.0008928517186571681
0.0010741130470409295   -0.02179304237357684   -0.0008775532959840976
0.001575126480679496   -0.01798261198420551   -0.0008918177886024105
0.0010999517929159938   -0.021798642191743822   -0.0008411791529068435
-0.00040578922039388553   -0.018042523872772883   -0.0008820994703930515
0.001587615247509428   -0.017979889184830063   -0.0008700902169739684
0.0010999517929159938   -0.021798642191743822   -0.0008411791529068435
0.001575126480679496   -0.01798261198420551   -0.0008918177886024105
-0.00040578922039388553   -0.018042523872772883   -0.0008820994703930515
0.0010999517929159938   -0.021798642191743822   -0.0008411791529068435
-0.0007199899212979137   -0.021876706698035302   -0.0008729811852248606
-0.00074678095350475   -0.021859051778256276   -0.0008928517186571681
-0.00040578922039388553   -0.018042523872772883   -0.0008820994703930515
0.0010999517929159938   -0.021798642191743822   -0.0008411791529068435
-0.00074678095350475   -0.021859051778256276   -0.0008928517186571681
0.001575126480679496   -0.01798261198420551   -0.0008918177886024105
0.0015282290159837866   -0.01799703705886325   -0.0009467133433652073
0.0009978411043235443   -0.021807310042281425   -0.0009620780810837291
0.0036538279857350666   -0.017957011879247118   -0.0009803225866968869
0.0015525363516893887   -0.017987556165509226   -0.0009172720460951211
0.0009978411043235443   -0.021807310042281425   -0.0009620780810837291
0.002916003639443309   -0.021733032994562276   -0.0010053798507359286
0.0036538279857350666   -0.017957011879247118   -0.0009803225866968869
0.0030161786643940476   -0.021708540763549163   -0.0009406361054301804
0.0015525363516893887   -0.017987556165509226   -0.0009172720460951211
0.0037166539671410342   -0.017935535073052324   -0.0009414977674249026
0.0030161786643940476   -0.021708540763549163   -0.0009406361054301804
0.0036538279857350666   -0.017957011879247118   -0.0009803225866968869
0.0015525363516893887   -0.017987556165509226   -0.0009172720460951211
0.0030161786643940476   -0.021708540763549163   -0.0009406361054301804
0.001035461193752275   -0.02179534243032562   -0.0009176631337947822
0.0009978411043235443   -0.021807310042281425   -0.0009620780810837291
0.0015525363516893887   -0.017987556165509226   -0.0009172720460951211
0.0030161786643940476   -0.021708540763549163   -0.0009406361054301804
0.0009978411043235443   -0.021807310042281425   -0.0009620780810837291
0.0036538279857350666   -0.017957011879247118   -0.0009803225866968869
0.0015525363516893887   -0.017987556165509226   -0.0009172720460951211
0.001035461193752275   -0.02179534243032562   -0.0009176631337947822
0.0037166539671410342   -0.017935535073052324   -0.0009414977674249026
0.001575126480679496   -0.01798261198420551   -0.0008918177886024105
0.001035461193752275   -0.02179534243032562   -0.0009176631337947822
0.0030161786643940476   -0.021708540763549163   -0.0009406361054301804
0.0037166539671410342   -0.017935535073052324   -0.0009414977674249026
0.00309052798462519   -0.021701741046806233   -0.0008816291130449791
0.001575126480679496   -0.01798261198420551   -0.0008918177886024105
0.0037601390345122915   -0.017925101519931645   -0.0009083640939198901
0.00309052798462519   -0.021701741046806233   -0.0008816291130449791
0.0037166539671410342   -0.017935535073052324   -0.0009414977674249026
0.001575126480679496   -0.01798261198420551   -0.0008918177886024105
0.00309052798462519   -0.021701741046806233   -0.0008816291130449791
0.0010741130470409295   -0.02179304237357684   -0.0008775532959840976
0.001035461193752275   -0.02179534243032562   -0.0009176631337947822
0.001575126480679496   -0.01798261198420551   -0.0008918177886024105
0.00309052798462519   -0.021701741046806233   -0.0008816291130449791
0.001035461193752275   -0.02179534243032562   -0.0009176631337947822
0.0037166539671410342   -0.017935535073052324   -0.0009414977674249026
0.001575126480679496   -0.01798261198420551   -0.0008918177886024105
0.0010741130470409295   -0.02179304237357684   -0.0008775532959840976
0.0037601390345122915   -0.017925101519931645   -0.0009083640939198901
0.001587615247509428   -0.017979889184830063   -0.0008700902169739684
0.0010741130470409295   -0.02179304237357684   -0.0008775532959840976
0.00309052798462519   -0.021701741046806233   -0.0008816291130449791
0.0037601390345122915   -0.017925101519931645   -0.0009083640939198901
0.0031662139876264604   -0.021701740096887977   -0.0008286287574874957
0.001587615247509428   -0.017979889184830063   -0.0008700902169739684
0.003799166257970744   -0.017913970471868622   -0.0008811610562339363
0.0031662139876264604   -0.021701740096887977   -0.0008286287574874957
0.0037601390345122915   -0.017925101519931645   -0.0009083640939198901
0.001587615247509428   -0.017979889184830063   -0.0008700902169739684
0.0031662139876264604   -0.021701740096887977   -0.0008286287574874957
0.0010999517929159938   -0.021798642191743822   -0.0008411791529068435
0.0010741130470409295   -0.02179304237357684   -0.0008775532959840976
0.001587615247509428   -0.017979889184830063   -0.0008700902169739684
0.0031662139876264604   -0.021701740096887977   -0.0008286287574874957
0.0010741130470409295   -0.02179304237357684   -0.0008775532959840976
0.0037601390345122915   -0.017925101519931645   -0.0009083640939198901
-0.006361082069233545   -0.021803477508016606   -0.0010050317939966974
-0.005806445419693847   -0.02514652152469377   -0.0009380447603090923
-0.0043541747959876765   -0.021846981206310092   -0.0009703985341202071
-0.006314808070405055   -0.021833114731796482   -0.0010304065702980512
-0.005806445419693847   -0.02514652152469377   -0.0009380447603090923
-0.004118842803502306   -0.025224519521322583   -0.0009326321345782423
-0.0043541747959876765   -0.021846981206310092   -0.0009703985341202071
-0.004077107657605302   -0.025235768890215945   -0.0009511454652421405
-0.006314808070405055   -0.021833114731796482   -0.0010304065702980512
-0.004328567183366394   -0.021868920923342795   -0.0009757463925562904
-0.004077107657605302   -0.025235768890215945   -0.0009511454652421405
-0.0043541747959876765   -0.021846981206310092   -0.0009703985341202071
-0.006314808070405055   -0.021833114731796482   -0.0010304065702980512
-0.004077107657605302   -0.025235768890215945   -0.0009511454652421405
-0.005719154537691071   -0.025163175633745052   -0.000990040612718888
-0.005806445419693847   -0.02514652152469377   -0.0009380447603090923
-0.006314808070405055   -0.021833114731796482   -0.0010304065702980512
-0.004077107657605302   -0.025235768890215945   -0.0009511454652421405
-0.005806445419693847   -0.02514652152469377   -0.0009380447603090923
-0.0043541747959876765   -0.021846981206310092   -0.0009703985341202071
-0.006314808070405055   -0.021833114731796482   -0.0010304065702980512
-0.005719154537691071   -0.025163175633745052   -0.000990040612718888
-0.004328567183366394   -0.021868920923342795   -0.0009757463925562904
-0.006262265976543855   -0.021869717982075414   -0.0010622068205609313
-0.005719154537691071   -0.025163175633745052   -0.000990040612718888
-0.004077107657605302   -0.025235768890215945   -0.0009511454652421405
-0.004328567183366394   -0.021868920923342795   -0.0009757463925562904
-0.004024671946778068   -0.02526288177825572   -0.0009737818660395211
-0.006262265976543855   -0.021869717982075414   -0.0010622068205609313
-0.004294026870010131   -0.0219003383091999   -0.0009851829084628954
-0.004024671946778068   -0.02526288177825572   -0.0009737818660395211
-0.004328567183366394   -0.021868920923342795   -0.0009757463925562904
-0.006262265976543855   -0.021869717982075414   -0.0010622068205609313
-0.004024671946778068   -0.02526288177825572   -0.0009737818660395211
-0.0056322754426573595   -0.025195001636681938   -0.0010487476530391556
-0.005719154537691071   -0.025163175633745052   -0.000990040612718888
-0.006262265976543855   -0.021869717982075414   -0.0010622068205609313
-0.004024671946778068   -0.02526288177825572   -0.0009737818660395211
-0.005719154537691071   -0.025163175633745052   -0.000990040612718888
-0.004328567183366394   -0.021868920923342795   -0.0009757463925562904
-0.006262265976543855   -0.021869717982075414   -0.0010622068205609313
-0.0056322754426573595   -0.025195001636681938   -0.0010487476530391556
-0.004294026870010131   -0.0219003383091999   -0.0009851829084628954
-0.006190919695920641   -0.02192555268776243   -0.0011005651739318938
-0.0056322754426573595   -0.025195001636681938   -0.0010487476530391556
-0.004024671946778068   -0.02526288177825572   -0.0009737818660395211
-0.004294026870010131   -0.0219003383091999   -0.0009851829084628954
-0.003972970808377608   -0.02530740144388138   -0.0010005020538587925
-0.006190919695920641   -0.02192555268776243   -0.0011005651739318938
-0.004257024223577792   -0.021943158710290202   -0.0009988195458286951
-0.003972970808377608   -0.02530740144388138   -0.0010005020538587925
-0.004294026870010131   -0.0219003383091999   -0.0009851829084628954
-0.006190919695920641   -0.02192555268776243   -0.0011005651739318938
-0.003972970808377608   -0.02530740144388138   -0.0010005020538587925
-0.005521043078105525   -0.025254349435570006   -0.0011140572481484073
-0.0056322754426573595   -0.025195001636681938   -0.0010487476530391556
-0.006190919695920641   -0.02192555268776243   -0.0011005651739318938
-0.003972970808377608   -0.02530740144388138   -0.0010005020538587925
-0.0056322754426573595   -0.025195001636681938   -0.0010487476530391556
-0.004294026870010131   -0.0219003383091999   -0.0009851829084628954
-0.0043541747959876765   -0.021846981206310092   -0.0009703985341202071
-0.004118842803502306   -0.025224519521322583   -0.0009326321345782423
-0.0025536944295839505   -0.021863966727142393   -0.000948288119898343
-0.004328567183366394   -0.021868920923342795   -0.0009757463925562904
-0.004118842803502306   -0.025224519521322583   -0.0009326321345782423
-0.002655245979534012   -0.025260692045288104   -0.0009305953635979935
-0.0025536944295839505   -0.021863966727142393   -0.000948288119898343
-0.002612494292658188   -0.02526432476701468   -0.0009222215223718958
-0.004328567183366394   -0.021868920923342795   -0.0009757463925562904
-0.0025258811833588236   -0.021875293971659476   -0.0009366143082438046
-0.002612494292658188   -0.02526432476701468   -0.0009222215223718958
-0.0025536944295839505   -0.021863966727142393   -0.000948288119898343
-0.004328567183366394   -0.021868920923342795   -0.0009757463925562904
-0.002612494292658188   -0.02526432476701468   -0.0009222215223718958
-0.004077107657605302   -0.025235768890215945   -0.0009511454652421405
-0.004118842803502306   -0.025224519521322583   -0.0009326321345782423
-0.004328567183366394   -0.021868920923342795   -0.0009757463925562904
-0.002612494292658188   -0.02526432476701468   -0.0009222215223718958
-0.004118842803502306   -0.025224519521322583   -0.0009326321345782423
-0.0025536944295839505   -0.021863966727142393   -0.000948288119898343
-0.004328567183366394   -0.021868920923342795   -0.0009757463925562904
-0.004077107657605302   -0.025235768890215945   -0.0009511454652421405
-0.0025258811833588236   -0.021875293971659476   -0.0009366143082438046
-0.004294026870010131   -0.0219003383091999   -0.0009851829084628954
-0.004077107657605302   -0.025235768890215945   -0.0009511454652421405
-0.002612494292658188   -0.02526432476701468   -0.0009222215223718958
-0.0025258811833588236   -0.021875293971659476   -0.0009366143082438046
-0.0025683427760340672   -0.025282137570884194   -0.0009178482965239366
-0.004294026870010131   -0.0219003383091999   -0.0009851829084628954
-0.0024959903666744963   -0.021895718822778926   -0.0009289776169540829
-0.0025683427760340672   -0.025282137570884194   -0.0009178482965239366
-0.0025258811833588236   -0.021875293971659476   -0.0009366143082438046
-0.004294026870010131   -0.0219003383091999   -0.0009851829084628954
-0.0025683427760340672   -0.025282137570884194   -0.0009178482965239366
-0.004024671946778068   -0.02526288177825572   -0.0009737818660395211
-0.004077107657605302   -0.025235768890215945   -0.0009511454652421405
-0.004294026870010131   -0.0219003383091999   -0.0009851829084628954
-0.0025683427760340672   -0.025282137570884194   -0.0009178482965239366
-0.004077107657605302   -0.025235768890215945   -0.0009511454652421405
-0.0025258811833588236   -0.021875293971659476   -0.0009366143082438046
-0.004294026870010131   -0.0219003383091999   -0.0009851829084628954
-0.004024671946778068   -0.02526288177825572   -0.0009737818660395211
-0.0024959903666744963   -0.021895718822778926   -0.0009289776169540829
-0.004257024223577792   -0.021943158710290202   -0.0009988195458286951
-0.004024671946778068   -0.02526288177825572   -0.0009737818660395211
-0.0025683427760340672   -0.025282137570884194   -0.0009178482965239366
-0.0024959903666744963   -0.021895718822778926   -0.0009289776169540829
-0.0025242492283064208   -0.02531493202615342   -0.0009174353488833636
-0.004257024223577792   -0.021943158710290202   -0.0009988195458286951
-0.002465267644453944   -0.02192549205265115   -0.0009255812947047729
-0.0025242492283064208   -0.02531493202615342   -0.0009174353488833636
-0.0024959903666744963   -0.021895718822778926   -0.0009289776169540829
-0.004257024223577792   -0.021943158710290202   -0.0009988195458286951
-0.0025242492283064208   -0.02531493202615342   -0.0009174353488833636
-0.003972970808377608   -0.02530740144388138   -0.0010005020538587925
-0.004024671946778068   -0.02526288177825572   -0.0009737818660395211
-0.004257024223577792   -0.021943158710290202   -0.0009988195458286951
-0.0025242492283064208   -0.02531493202615342   -0.0009174353488833636
-0.004024671946778068   -0.02526288177825572   -0.0009737818660395211
-0.0024959903666744963   -0.021895718822778926   -0.0009289776169540829
-0.0025536944295839505   -0.021863966727142393   -0.000948288119898343
-0.002655245979534012   -0.025260692045288104   -0.0009305953635979935
-0.0008074955203263778   -0.02185047640545965   -0.0009450239852090887
-0.0025258811833588236   -0.021875293971659476   -0.0009366143082438046
-0.002655245979534012   -0.025260692045288104   -0.0009305953635979935
-0.0012399922606335   -0.02525340791165294   -0.0009413809884914024
-0.0008074955203263778   -0.02185047640545965   -0.0009450239852090887
-0.0011931714133771075   -0.02524845930797846   -0.000907055981127581
-0.0025258811833588236   -0.021875293971659476   -0.0009366143082438046
-0.0007767449287326728   -0.021850537427380013   -0.0009169123357827255
-0.0011931714133771075   -0.02524845930797846   -0.000907055981127581
-0.0008074955203263778   -0.02185047640545965   -0.0009450239852090887
-0.0025258811833588236   -0.021875293971659476   -0.0009366143082438046
-0.0011931714133771075   -0.02524845930797846   -0.000907055981127581
-0.002612494292658188   -0.02526432476701468   -0.0009222215223718958
-0.002655245979534012   -0.025260692045288104   -0.0009305953635979935
-0.0025258811833588236   -0.021875293971659476   -0.0009366143082438046
-0.0011931714133771075   -0.02524845930797846   -0.000907055981127581
-0.002655245979534012   -0.025260692045288104   -0.0009305953635979935
-0.0008074955203263778   -0.02185047640545965   -0.0009450239852090887
-0.0025258811833588236   -0.021875293971659476   -0.0009366143082438046
-0.002612494292658188   -0.02526432476701468   -0.0009222215223718958
-0.0007767449287326728   -0.021850537427380013   -0.0009169123357827255
-0.0024959903666744963   -0.021895718822778926   -0.0009289776169540829
-0.002612494292658188   -0.02526432476701468   -0.0009222215223718958
-0.0011931714133771075   -0.02524845930797846   -0.000907055981127581
-0.0007767449287326728   -0.021850537427380013   -0.0009169123357827255
-0.00114769188571342   -0.025256373752138284   -0.0008769970058817927
-0.0024959903666744963   -0.021895718822778926   -0.0009289776169540829
-0.00074678095350475   -0.021859051778256276   -0.0008928517186571681
-0.00114769188571342   -0.025256373752138284   -0.0008769970058817927
-0.0007767449287326728   -0.021850537427380013   -0.0009169123357827255
-0.0024959903666744963   -0.021895718822778926   -0.0009289776169540829
-0.00114769188571342   -0.025256373752138284   -0.0008769970058817927
-0.0025683427760340672   -0.025282137570884194   -0.0009178482965239366
-0.002612494292658188   -0.02526432476701468   -0.0009222215223718958
-0.0024959903666744963   -0.021895718822778926   -0.0009289776169540829
-0.00114769188571342   -0.025256373752138284   -0.0008769970058817927
-0.002612494292658188   -0.02526432476701468   -0.0009222215223718958
-0.0007767449287326728   -0.021850537427380013   -0.0009169123357827255
-0.0024959903666744963   -0.021895718822778926   -0.0009289776169540829
-0.0025683427760340672   -0.025282137570884194   -0.0009178482965239366
-0.00074678095350475   -0.021859051778256276   -0.0008928517186571681
-0.002465267644453944   -0.02192549205265115   -0.0009255812947047729
-0.0025683427760340672   -0.025282137570884194   -0.0009178482965239366
-0.00114769188571342   -0.025256373752138284   -0.0008769970058817927
-0.00074678095350475   -0.021859051778256276   -0.0008928517186571681
-0.0011065663059819692   -0.0252789459631002   -0.0008508403967037082
-0.002465267644453944   -0.02192549205265115   -0.0009255812947047729
-0.0007199899212979137   -0.021876706698035302   -0.0008729811852248606
-0.0011065663059819692   -0.0252789459631002   -0.0008508403967037082
-0.00074678095350475   -0.021859051778256276   -0.0008928517186571681
-0.002465267644453944   -0.02192549205265115   -0.0009255812947047729
-0.0011065663059819692   -0.0252789459631002   -0.0008508403967037082
-0.0025242492283064208   -0.02531493202615342   -0.0009174353488833636
-0.0025683427760340672   -0.025282137570884194   -0.0009178482965239366
-0.002465267644453944   -0.02192549205265115   -0.0009255812947047729
-0.0011065663059819692   -0.0252789459631002   -0.0008508403967037082
-0.0025683427760340672   -0.025282137570884194   -0.0009178482965239366
-0.00074678095350475   -0.021859051778256276   -0.0008928517186571681
-0.0008074955203263778   -0.02185047640545965   -0.0009450239852090887
-0.0012399922606335   -0.02525340791165294   -0.0009413809884914024
0.0009978411043235443   -0.021807310042281425   -0.0009620780810837291
-0.0007767449287326728   -0.021850537427380013   -0.0009169123357827255
-0.0012399922606335   -0.02525340791165294   -0.0009413809884914024
0.00023985575955341748   -0.0252010981427922   -0.000967244857504529
0.0009978411043235443   -0.021807310042281425   -0.0009620780810837291
0.00029688812218364654   -0.025185301062941205   -0.0009070364465601918
-0.0007767449287326728   -0.021850537427380013   -0.0009169123357827255
0.001035461193752275   -0.02179534243032562   -0.0009176631337947822
0.00029688812218364654   -0.025185301062941205   -0.0009070364465601918
0.0009978411043235443   -0.021807310042281425   -0.0009620780810837291
-0.0007767449287326728   -0.021850537427380013   -0.0009169123357827255
0.00029688812218364654   -0.025185301062941205   -0.0009070364465601918
-0.0011931714133771075   -0.02524845930797846   -0.000907055981127581
-0.0012399922606335   -0.02525340791165294   -0.0009413809884914024
-0.0007767449287326728   -0.021850537427380013   -0.0009169123357827255
0.00029688812218364654   -0.025185301062941205   -0.0009070364465601918
-0.0012399922606335   -0.02525340791165294   -0.0009413809884914024
0.0009978411043235443   -0.021807310042281425   -0.0009620780810837291
-0.0007767449287326728   -0.021850537427380013   -0.0009169123357827255
-0.0011931714133771075   -0.02524845930797846   -0.000907055981127581
0.001035461193752275   -0.02179534243032562   -0.0009176631337947822
-0.00074678095350475   -0.021859051778256276   -0.0008928517186571681
-0.0011931714133771075   -0.02524845930797846   -0.000907055981127581
0.00029688812218364654   -0.025185301062941205   -0.0009070364465601918
0.001035461193752275   -0.02179534243032562   -0.0009176631337947822
0.0003571144981067829   -0.02518388022576321   -0.0008522256556228134
-0.00074678095350475   -0.021859051778256276   -0.0008928517186571681
0.0010741130470409295   -0.02179304237357684   -0.0008775532959840976
0.0003571144981067829   -0.02518388022576321   -0.0008522256556228134
0.001035461193752275   -0.02179534243032562   -0.0009176631337947822
-0.00074678095350475   -0.021859051778256276   -0.0008928517186571681
0.0003571144981067829   -0.02518388022576321   -0.0008522256556228134
-0.00114769188571342   -0.025256373752138284   -0.0008769970058817927
-0.0011931714133771075   -0.02524845930797846   -0.000907055981127581
-0.00074678095350475   -0.021859051778256276   -0.0008928517186571681
0.0003571144981067829   -0.02518388022576321   -0.0008522256556228134
-0.0011931714133771075   -0.02524845930797846   -0.000907055981127581
0.001035461193752275   -0.02179534243032562   -0.0009176631337947822
-0.00074678095350475   -0.021859051778256276   -0.0008928517186571681
-0.00114769188571342   -0.025256373752138284   -0.0008769970058817927
0.0010741130470409295   -0.02179304237357684   -0.0008775532959840976
-0.0007199899212979137   -0.021876706698035302   -0.0008729811852248606
-0.00114769188571342   -0.025256373752138284   -0.0008769970058817927
0.0003571144981067829   -0.02518388022576321   -0.0008522256556228134
0.0010741130470409295   -0.02179304237357684   -0.0008775532959840976
0.00040115897997658717   -0.025196163607017   -0.0008011266813600407
-0.0007199899212979137   -0.021876706698035302   -0.0008729811852248606
0.0010999517929159938   -0.021798642191743822   -0.0008411791529068435
0.00040115897997658717   -0.025196163607017   -0.0008011266813600407
0.0010741130470409295   -0.02179304237357684   -0.0008775532959840976
-0.0007199899212979137   -0.021876706698035302   -0.0008729811852248606
0.00040115897997658717   -0.025196163607017   -0.0008011266813600407
-0.0011065663059819692   -0.0252789459631002   -0.0008508403967037082
-0.00114769188571342   -0.025256373752138284   -0.0008769970058817927
-0.0007199899212979137   -0.021876706698035302   -0.0008729811852248606
0.00040115897997658717   -0.025196163607017   -0.0008011266813600407
-0.00114769188571342   -0.025256373752138284   -0.0008769970058817927
0.0010741130470409295   -0.02179304237357684   -0.0008775532959840976
0.0009978411043235443   -0.021807310042281425   -0.0009620780810837291
0.00023985575955341748   -0.0252010981427922   -0.000967244857504529
0.002916003639443309   -0.021733032994562276   -0.0010053798507359286
0.001035461193752275   -0.02179534243032562   -0.0009176631337947822
0.00023985575955341748   -0.0252010981427922   -0.000967244857504529
0.0018142530947623233   -0.02509885528333548   -0.0010219509851157145
0.002916003639443309   -0.021733032994562276   -0.0010053798507359286
0.001959672247754709   -0.02506863678988153   -0.0009297481953716228
0.001035461193752275   -0.02179534243032562   -0.0009176631337947822
0.0030161786643940476   -0.021708540763549163   -0.0009406361054301804
0.001959672247754709   -0.02506863678988153   -0.0009297481953716228
0.002916003639443309   -0.021733032994562276   -0.0010053798507359286
0.001035461193752275   -0.02179534243032562   -0.0009176631337947822
0.001959672247754709   -0.02506863678988153   -0.0009297481953716228
0.00029688812218364654   -0.025185301062941205   -0.0009070364465601918
0.00023985575955341748   -0.0252010981427922   -0.000967244857504529
0.001035461193752275   -0.02179534243032562   -0.0009176631337947822
0.001959672247754709   -0.02506863678988153   -0.0009297481953716228
0.00023985575955341748   -0.0252010981427922   -0.000967244857504529
0.002916003639443309   -0.021733032994562276   -0.0010053798507359286
0.001035461193752275   -0.02179534243032562   -0.0009176631337947822
0.00029688812218364654   -0.025185301062941205   -0.0009070364465601918
0.0030161786643940476   -0.021708540763549163   -0.0009406361054301804
0.0010741130470409295   -0.02179304237357684   -0.0008775532959840976
0.00029688812218364654   -0.025185301062941205   -0.0009070364465601918
0.001959672247754709   -0.02506863678988153   -0.0009297481953716228
0.0030161786643940476   -0.021708540763549163   -0.0009406361054301804
0.002071239385383841   -0.02506340048767993   -0.0008442429727711443
0.0010741130470409295   -0.02179304237357684   -0.0008775532959840976
0.00309052798462519   -0.021701741046806233   -0.0008816291130449791
0.002071239385383841   -0.02506340048767993   -0.0008442429727711443
0.0030161786643940476   -0.021708540763549163   -0.0009406361054301804
0.0010741130470409295   -0.02179304237357684   -0.0008775532959840976
0.002071239385383841   -0.02506340048767993   -0.0008442429727711443
0.0003571144981067829   -0.02518388022576321   -0.0008522256556228134
0.00029688812218364654   -0.025185301062941205   -0.0009070364465601918
0.0010741130470409295   -0.02179304237357684   -0.0008775532959840976
0.002071239385383841   -0.02506340048767993   -0.0008442429727711443
0.00029688812218364654   -0.025185301062941205   -0.0009070364465601918
0.0030161786643940476   -0.021708540763549163   -0.0009406361054301804
0.0010741130470409295   -0.02179304237357684   -0.0008775532959840976
0.0003571144981067829   -0.02518388022576321   -0.0008522256556228134
0.00309052798462519   -0.021701741046806233   -0.0008816291130449791
0.0010999517929159938   -0.021798642191743822   -0.0008411791529068435
0.0003571144981067829   -0.02518388022576321   -0.0008522256556228134
0.002071239385383841   -0.02506340048767993   -0.0008442429727711443
0.00309052798462519   -0.021701741046806233   -0.0008816291130449791
0.0021872432972585114   -0.025072516100940346   -0.0007661264466298775
0.0010999517929159938   -0.021798642191743822   -0.0008411791529068435
0.0031662139876264604   -0.021701740096887977   -0.0008286287574874957
0.0021872432972585114   -0.025072516100940346   -0.0007661264466298775
0.00309052798462519   -0.021701741046806233   -0.0008816291130449791
0.0010999517929159938   -0.021798642191743822   -0.0008411791529068435
0.0021872432972585114   -0.025072516100940346   -0.0007661264466298775
0.00040115897997658717   -0.025196163607017   -0.0008011266813600407
0.0003571144981067829   -0.02518388022576321   -0.0008522256556228134
0.0010999517929159938   -0.021798642191743822   -0.0008411791529068435
0.0021872432972585114   -0.025072516100940346   -0.0007661264466298775
0.0003571144981067829   -0.02518388022576321   -0.0008522256556228134
0.00309052798462519   -0.021701741046806233   -0.0008816291130449791
-0.005806445419693847   -0.02514652152469377   -0.0009380447603090923
-0.004871710927151649   -0.02776796810638408   -0.0008517665889616246
-0.004118842803502306   -0.025224519521322583   -0.0009326321345782423
-0.005719154537691071   -0.025163175633745052   -0.000990040612718888
-0.004871710927151649   -0.02776796810638408   -0.0008517665889616246
-0.003669702646142126   -0.02788292414408095   -0.000886132624503982
-0.004118842803502306   -0.025224519521322583   -0.0009326321345782423
-0.0036101306567015786   -0.027877188007320714   -0.0009145944322237618
-0.005719154537691071   -0.025163175633745052   -0.000990040612718888
-0.004077107657605302   -0.025235768890215945   -0.0009511454652421405
-0.0036101306567015786   -0.027877188007320714   -0.0009145944322237618
-0.004118842803502306   -0.025224519521322583   -0.0009326321345782423
-0.005719154537691071   -0.025163175633745052   -0.000990040612718888
-0.0036101306567015786   -0.027877188007320714   -0.0009145944322237618
-0.004742487248539717   -0.02776485343307534   -0.0009284716069176068
-0.004871710927151649   -0.02776796810638408   -0.0008517665889616246
-0.005719154537691071   -0.025163175633745052   -0.000990040612718888
-0.0036101306567015786   -0.027877188007320714   -0.0009145944322237618
-0.004871710927151649   -0.02776796810638408   -0.0008517665889616246
-0.004118842803502306   -0.025224519521322583   -0.0009326321345782423
-0.005719154537691071   -0.025163175633745052   -0.000990040612718888
-0.004742487248539717   -0.02776485343307534   -0.0009284716069176068
-0.004077107657605302   -0.025235768890215945   -0.0009511454652421405
-0.0056322754426573595   -0.025195001636681938   -0.0010487476530391556
-0.004742487248539717   -0.02776485343307534   -0.0009284716069176068
-0.0036101306567015786   -0.027877188007320714   -0.0009145944322237618
-0.004077107657605302   -0.025235768890215945   -0.0009511454652421405
-0.0035399369234154986   -0.027894059208903692   -0.0009472447764980236
-0.0056322754426573595   -0.025195001636681938   -0.0010487476530391556
-0.004024671946778068   -0.02526288177825572   -0.0009737818660395211
-0.0035399369234154986   -0.027894059208903692   -0.0009472447764980236
-0.004077107657605302   -0.025235768890215945   -0.0009511454652421405
-0.0056322754426573595   -0.025195001636681938   -0.0010487476530391556
-0.0035399369234154986   -0.027894059208903692   -0.0009472447764980236
-0.004623501704599113   -0.027785645839768884   -0.0010110850512902076
-0.004742487248539717   -0.02776485343307534   -0.0009284716069176068
-0.0056322754426573595   -0.025195001636681938   -0.0010487476530391556
-0.0035399369234154986   -0.027894059208903692   -0.0009472447764980236
-0.004742487248539717   -0.02776485343307534   -0.0009284716069176068
-0.004077107657605302   -0.025235768890215945   -0.0009511454652421405
-0.0056322754426573595   -0.025195001636681938   -0.0010487476530391556
-0.004623501704599113   -0.027785645839768884   -0.0010110850512902076
-0.004024671946778068   -0.02526288177825572   -0.0009737818660395211
-0.005521043078105525   -0.025254349435570006   -0.0011140572481484073
-0.004623501704599113   -0.027785645839768884   -0.0010110850512902076
-0.0035399369234154986   -0.027894059208903692   -0.0009472447764980236
-0.004024671946778068   -0.02526288177825572   -0.0009737818660395211
-0.003476264489053088   -0.027933941531813933   -0.0009838184142565475
-0.005521043078105525   -0.025254349435570006   -0.0011140572481484073
-0.003972970808377608   -0.02530740144388138   -0.0010005020538587925
-0.003476264489053088   -0.027933941531813933   -0.0009838184142565475
-0.004024671946778068   -0.02526288177825572   -0.0009737818660395211
-0.005521043078105525   -0.025254349435570006   -0.0011140572481484073
-0.003476264489053088   -0.027933941531813933   -0.0009838184142565475
-0.00447828922871858   -0.027840745549009213   -0.001099273537676702
-0.004623501704599113   -0.027785645839768884   -0.0010110850512902076
-0.005521043078105525   -0.025254349435570006   -0.0011140572481484073
-0.003476264489053088   -0.027933941531813933   -0.0009838184142565475
-0.004623501704599113   -0.027785645839768884   -0.0010110850512902076
-0.004024671946778068   -0.02526288177825572   -0.0009737818660395211
-0.004118842803502306   -0.025224519521322583   -0.0009326321345782423
-0.003669702646142126   -0.02788292414408095   -0.000886132624503982
-0.002655245979534012   -0.025260692045288104   -0.0009305953635979935
-0.004077107657605302   -0.025235768890215945   -0.0009511454652421405
-0.003669702646142126   -0.02788292414408095   -0.000886132624503982
-0.0026847982220435137   -0.027956566645563875   -0.0009130573056699941
-0.002655245979534012   -0.025260692045288104   -0.0009305953635979935
-0.002623788804149613   -0.027947186044193825   -0.0009043726329200563
-0.004077107657605302   -0.025235768890215945   -0.0009511454652421405
-0.002612494292658188   -0.02526432476701468   -0.0009222215223718958
-0.002623788804149613   -0.027947186044193825   -0.0009043726329200563
-0.002655245979534012   -0.025260692045288104   -0.0009305953635979935
-0.004077107657605302   -0.025235768890215945   -0.0009511454652421405
-0.002623788804149613   -0.027947186044193825   -0.0009043726329200563
-0.0036101306567015786   -0.027877188007320714   -0.0009145944322237618
-0.003669702646142126   -0.02788292414408095   -0.000886132624503982
-0.004077107657605302   -0.025235768890215945   -0.0009511454652421405
-0.002623788804149613   -0.027947186044193825   -0.0009043726329200563
-0.003669702646142126   -0.02788292414408095   -0.000886132624503982
-0.002655245979534012   -0.025260692045288104   -0.0009305953635979935
-0.004077107657605302   -0.025235768890215945   -0.0009511454652421405
-0.0036101306567015786   -0.027877188007320714   -0.0009145944322237618
-0.002612494292658188   -0.02526432476701468   -0.0009222215223718958
-0.004024671946778068   -0.02526288177825572   -0.0009737818660395211
-0.0036101306567015786   -0.027877188007320714   -0.0009145944322237618
-0.002623788804149613   -0.027947186044193825   -0.0009043726329200563
-0.002612494292658188   -0.02526432476701468   -0.0009222215223718958
-0.002563564039325713   -0.0279573593081232   -0.0008997649048148998
-0.004024671946778068   -0.02526288177825572   -0.0009737818660395211
-0.0025683427760340672   -0.025282137570884194   -0.0009178482965239366
-0.002563564039325713   -0.0279573593081232   -0.0008997649048148998
-0.002612494292658188   -0.02526432476701468   -0.0009222215223718958
-0.004024671946778068   -0.02526288177825572   -0.0009737818660395211
-0.002563564039325713   -0.0279573593081232   -0.0008997649048148998
-0.0035399369234154986   -0.027894059208903692   -0.0009472447764980236
-0.0036101306567015786   -0.027877188007320714   -0.0009145944322237618
-0.004024671946778068   -0.02526288177825572   -0.0009737818660395211
-0.002563564039325713   -0.0279573593081232   -0.0008997649048148998
-0.0036101306567015786   -0.027877188007320714   -0.0009145944322237618
-0.002612494292658188   -0.02526432476701468   -0.0009222215223718958
-0.004024671946778068   -0.02526288177825572   -0.0009737818660395211
-0.0035399369234154986   -0.027894059208903692   -0.0009472447764980236
-0.0025683427760340672   -0.025282137570884194   -0.0009178482965239366
-0.003972970808377608   -0.02530740144388138   -0.0010005020538587925
-0.0035399369234154986   -0.027894059208903692   -0.0009472447764980236
-0.002563564039325713   -0.0279573593081232   -0.0008997649048148998
-0.0025683427760340672   -0.025282137570884194   -0.0009178482965239366
-0.0025080715238018675   -0.027987705201028862   -0.0009000752006350345
-0.003972970808377608   -0.02530740144388138   -0.0010005020538587925
-0.0025242492283064208   -0.02531493202615342   -0.0009174353488833636
-0.0025080715238018675   -0.027987705201028862   -0.0009000752006350345
-0.0025683427760340672   -0.025282137570884194   -0.0009178482965239366
-0.003972970808377608   -0.02530740144388138   -0.0010005020538587925
-0.0025080715238018675   -0.027987705201028862   -0.0009000752006350345
-0.003476264489053088   -0.027933941531813933   -0.0009838184142565475
-0.0035399369234154986   -0.027894059208903692   -0.0009472447764980236
-0.003972970808377608   -0.02530740144388138   -0.0010005020538587925
-0.0025080715238018675   -0.027987705201028862   -0.0009000752006350345
-0.0035399369234154986   -0.027894059208903692   -0.0009472447764980236
-0.0025683427760340672   -0.025282137570884194   -0.0009178482965239366
-0.002655245979534012   -0.025260692045288104   -0.0009305953635979935
-0.0026847982220435137   -0.027956566645563875   -0.0009130573056699941
-0.0012399922606335   -0.02525340791165294   -0.0009413809884914024
-0.002612494292658188   -0.02526432476701468   -0.0009222215223718958
-0.0026847982220435137   -0.027956566645563875   -0.0009130573056699941
-0.0017411724071174468   -0.027993911818084333   -0.0009451692446603136
-0.0012399922606335   -0.02525340791165294   -0.0009413809884914024
-0.0016724265069065008   -0.027980199884466567   -0.0009014008457805062
-0.002612494292658188   -0.02526432476701468   -0.0009222215223718958
-0.0011931714133771075   -0.02524845930797846   -0.000907055981127581
-0.0016724265069065008   -0.027980199884466567   -0.0009014008457805062
-0.0012399922606335   -0.02525340791165294   -0.0009413809884914024
-0.002612494292658188   -0.02526432476701468   -0.0009222215223718958
-0.0016724265069065008   -0.027980199884466567   -0.0009014008457805062
-0.002623788804149613   -0.027947186044193825   -0.0009043726329200563
-0.0026847982220435137   -0.027956566645563875   -0.0009130573056699941
-0.002612494292658188   -0.02526432476701468   -0.0009222215223718958
-0.0016724265069065008   -0.027980199884466567   -0.0009014008457805062
-0.0026847982220435137   -0.027956566645563875   -0.0009130573056699941
-0.0012399922606335   -0.02525340791165294   -0.0009413809884914024
-0.002612494292658188   -0.02526432476701468   -0.0009222215223718958
-0.002623788804149613   -0.027947186044193825   -0.0009043726329200563
-0.0011931714133771075   -0.02524845930797846   -0.000907055981127581
-0.0025683427760340672   -0.025282137570884194   -0.0009178482965239366
-0.002623788804149613   -0.027947186044193825   -0.0009043726329200563
-0.0016724265069065008   -0.027980199884466567   -0.0009014008457805062
-0.0011931714133771075   -0.02524845930797846   -0.000907055981127581
-0.0016068341905124274   -0.027983755924639513   -0.0008612678064670548
-0.0025683427760340672   -0.025282137570884194   -0.0009178482965239366
-0.00114769188571342   -0.025256373752138284   -0.0008769970058817927
-0.0016068341905124274   -0.027983755924639513   -0.0008612678064670548
-0.0011931714133771075   -0.02524845930797846   -0.000907055981127581
-0.0025683427760340672   -0.025282137570884194   -0.0009178482965239366
-0.0016068341905124274   -0.027983755924639513   -0.0008612678064670548
-0.002563564039325713   -0.0279573593081232   -0.0008997649048148998
-0.002623788804149613   -0.027947186044193825   -0.0009043726329200563
-0.0025683427760340672   -0.025282137570884194   -0.0009178482965239366
-0.0016068341905124274   -0.027983755924639513   -0.0008612678064670548
-0.002623788804149613   -0.027947186044193825   -0.0009043726329200563
-0.0011931714133771075   -0.02524845930797846   -0.000907055981127581
-0.0025683427760340672   -0.025282137570884194   -0.0009178482965239366
-0.002563564039325713   -0.0279573593081232   -0.0008997649048148998
-0.00114769188571342   -0.025256373752138284   -0.0008769970058817927
-0.0025242492283064208   -0.02531493202615342   -0.0009174353488833636
-0.002563564039325713   -0.0279573593081232   -0.0008997649048148998
-0.0016068341905124274   -0.027983755924639513   -0.0008612678064670548
-0.00114769188571342   -0.025256373752138284   -0.0008769970058817927
-0.0015521651903185035   -0.02800780902588916   -0.0008269687392833017
-0.0025242492283064208   -0.02531493202615342   -0.0009174353488833636
-0.0011065663059819692   -0.0252789459631002   -0.0008508403967037082
-0.0015521651903185035   -0.02800780902588916   -0.0008269687392833017
-0.00114769188571342   -0.025256373752138284   -0.0008769970058817927
-0.0025242492283064208   -0.02531493202615342   -0.0009174353488833636
-0.0015521651903185035   -0.02800780902588916   -0.0008269687392833017
-0.0025080715238018675   -0.027987705201028862   -0.0009000752006350345
-0.002563564039325713   -0.0279573593081232   -0.0008997649048148998
-0.0025242492283064208   -0.02531493202615342   -0.0009174353488833636
-0.0015521651903185035   -0.02800780902588916   -0.0008269687392833017
-0.002563564039325713   -0.0279573593081232   -0.0008997649048148998
-0.00114769188571342   -0.025256373752138284   -0.0008769970058817927
-0.0012399922606335   -0.02525340791165294   -0.0009413809884914024
-0.0017411724071174468   -0.027993911818084333   -0.0009451692446603136
0.00023985575955341748   -0.0252010981427922   -0.000967244857504529
-0.0011931714133771075   -0.02524845930797846   -0.000907055981127581
-0.0017411724071174468   -0.027993911818084333   -0.0009451692446603136
-0.0007398202600846468   -0.02798159238012527   -0.0009832461123804527
0.00023985575955341748   -0.0252010981427922   -0.000967244857504529
-0.0006515516729575727   -0.027960047510903977   -0.0009058403801787036
-0.0011931714133771075   -0.02524845930797846   -0.000907055981127581
0.00029688812218364654   -0.025185301062941205   -0.0009070364465601918
-0.0006515516729575727   -0.027960047510903977   -0.0009058403801787036
0.00023985575955341748   -0.0252010981427922   -0.000967244857504529
-0.0011931714133771075   -0.02524845930797846   -0.000907055981127581
-0.0006515516729575727   -0.027960047510903977   -0.0009058403801787036
-0.0016724265069065008   -0.027980199884466567   -0.0009014008457805062
-0.0017411724071174468   -0.027993911818084333   -0.0009451692446603136
-0.0011931714133771075   -0.02524845930797846   -0.000907055981127581
-0.0006515516729575727   -0.027960047510903977   -0.0009058403801787036
-0.0017411724071174468   -0.027993911818084333   -0.0009451692446603136
0.00023985575955341748   -0.0252010981427922   -0.000967244857504529
-0.0011931714133771075   -0.02524845930797846   -0.000907055981127581
-0.0016724265069065008   -0.027980199884466567   -0.0009014008457805062
0.00029688812218364654   -0.025185301062941205   -0.0009070364465601918
-0.00114769188571342   -0.025256373752138284   -0.0008769970058817927
-0.0016724265069065008   -0.027980199884466567   -0.0009014008457805062
-0.0006515516729575727   -0.027960047510903977   -0.0009058403801787036
0.00029688812218364654   -0.025185301062941205   -0.0009070364465601918
-0.0005610306429091965   -0.027956411221299483   -0.0008323047792731055
-0.00114769188571342   -0.025256373752138284   -0.0008769970058817927
0.0003571144981067829   -0.02518388022576321   -0.0008522256556228134
-0.0005610306429091965   -0.027956411221299483   -0.0008323047792731055
0.00029688812218364654   -0.025185301062941205   -0.0009070364465601918
-0.00114769188571342   -0.025256373752138284   -0.0008769970058817927
-0.0005610306429091965   -0.027956411221299483   -0.0008323047792731055
-0.0016068341905124274   -0.027983755924639513   -0.0008612678064670548
-0.0016724265069065008   -0.027980199884466567   -0.0009014008457805062
-0.00114769188571342   -0.025256373752138284   -0.0008769970058817927
-0.0005610306429091965   -0.027956411221299483   -0.0008323047792731055
-0.0016724265069065008   -0.027980199884466567   -0.0009014008457805062
0.00029688812218364654   -0.025185301062941205   -0.0009070364465601918
-0.00114769188571342   -0.025256373752138284   -0.0008769970058817927
-0.0016068341905124274   -0.027983755924639513   -0.0008612678064670548
0.0003571144981067829   -0.02518388022576321   -0.0008522256556228134
-0.0011065663059819692   -0.0252789459631002   -0.0008508403967037082
-0.0016068341905124274   -0.027983755924639513   -0.0008612678064670548
-0.0005610306429091965   -0.027956411221299483   -0.0008323047792731055
0.0003571144981067829   -0.02518388022576321   -0.0008522256556228134
-0.0004941491420498921   -0.02797441975475877   -0.0007653775890312126
-0.0011065663059819692   -0.0252789459631002   -0.0008508403967037082
0.00040115897997658717   -0.025196163607017   -0.0008011266813600407
-0.0004941491420498921   -0.02797441975475877   -0.0007653775890312126
0.0003571144981067829   -0.02518388022576321   -0.0008522256556228134
-0.0011065663059819692   -0.0252789459631002   -0.0008508403967037082
-0.0004941491420498921   -0.02797441975475877   -0.0007653775890312126
-0.0015521651903185035   -0.02800780902588916   -0.0008269687392833017
-0.0016068341905124274   -0.027983755924639513   -0.0008612678064670548
-0.0011065663059819692   -0.0252789459631002   -0.0008508403967037082
-0.0004941491420498921   -0.02797441975475877   -0.0007653775890312126
-0.0016068341905124274   -0.027983755924639513   -0.0008612678064670548
0.0003571144981067829   -0.02518388022576321   -0.0008522256556228134
0.00023985575955341748   -0.0252010981427922   -0.000967244857504529
-0.0007398202600846468   -0.02798159238012527   -0.0009832461123804527
0.0018142530947623233   -0.02509885528333548   -0.0010219509851157145
0.00029688812218364654   -0.025185301062941205   -0.0009070364465601918
-0.0007398202600846468   -0.02798159238012527   -0.0009832461123804527
0.00033379921414088793   -0.027884515841737803   -0.001060407413562625
0.0018142530947623233   -0.02509885528333548   -0.0010219509851157145
0.0005416289122380212   -0.02783790997222334   -0.0009339353580890242
0.00029688812218364654   -0.025185301062941205   -0.0009070364465601918
0.001959672247754709   -0.02506863678988153   -0.0009297481953716228
0.0005416289122380212   -0.02783790997222334   -0.0009339353580890242
0.0018142530947623233   -0.02509885528333548   -0.0010219509851157145
0.00029688812218364654   -0.025185301062941205   -0.0009070364465601918
0.0005416289122380212   -0.02783790997222334   -0.0009339353580890242
-0.0006515516729575727   -0.027960047510903977   -0.0009058403801787036
-0.0007398202600846468   -0.02798159238012527   -0.0009832461123804527
0.00029688812218364654   -0.025185301062941205   -0.0009070364465601918
0.0005416289122380212   -0.02783790997222334   -0.0009339353580890242
-0.0007398202600846468   -0.02798159238012527   -0.0009832461123804527
0.0018142530947623233   -0.02509885528333548   -0.0010219509851157145
0.00029688812218364654   -0.025185301062941205   -0.0009070364465601918
-0.0006515516729575727   -0.027960047510903977   -0.0009058403801787036
0.001959672247754709   -0.02506863678988153   -0.0009297481953716228
0.0003571144981067829   -0.02518388022576321   -0.0008522256556228134
-0.0006515516729575727   -0.027960047510903977   -0.0009058403801787036
0.0005416289122380212   -0.02783790997222334   -0.0009339353580890242
0.001959672247754709   -0.02506863678988153   -0.0009297481953716228
0.0007048396630294398   -0.027828607285237488   -0.0008150090488514114
0.0003571144981067829   -0.02518388022576321   -0.0008522256556228134
0.002071239385383841   -0.02506340048767993   -0.0008442429727711443
0.0007048396630294398   -0.027828607285237488   -0.0008150090488514114
0.001959672247754709   -0.02506863678988153   -0.0009297481953716228
0.0003571144981067829   -0.02518388022576321   -0.0008522256556228134
0.0007048396630294398   -0.027828607285237488   -0.0008150090488514114
-0.0005610306429091965   -0.027956411221299483   -0.0008323047792731055
-0.0006515516729575727   -0.027960047510903977   -0.0009058403801787036
0.0003571144981067829   -0.02518388022576321   -0.0008522256556228134
0.0007048396630294398   -0.027828607285237488   -0.0008150090488514114
-0.0006515516729575727   -0.027960047510903977   -0.0009058403801787036
0.001959672247754709   -0.02506863678988153   -0.0009297481953716228
0.0003571144981067829   -0.02518388022576321   -0.0008522256556228134
-0.0005610306429091965   -0.027956411221299483   -0.0008323047792731055
0.002071239385383841   -0.02506340048767993   -0.0008442429727711443
0.00040115897997658717   -0.025196163607017   -0.0008011266813600407
-0.0005610306429091965   -0.027956411221299483   -0.0008323047792731055
0.0007048396630294398   -0.027828607285237488   -0.0008150090488514114
0.002071239385383841   -0.02506340048767993   -0.0008442429727711443
0.0008749819976285759   -0.02783711016427705   -0.0007061831413132776
0.00040115897997658717   -0.025196163607017   -0.0008011266813600407
0.0021872432972585114   -0.025072516100940346   -0.0007661264466298775
0.0008749819976285759   -0.02783711016427705   -0.0007061831413132776
0.002071239385383841   -0.02506340048767993   -0.0008442429727711443
0.00040115897997658717   -0.025196163607017   -0.0008011266813600407
0.0008749819976285759   -0.02783711016427705   -0.0007061831413132776
-0.0004941491420498921   -0.02797441975475877   -0.0007653775890312126
-0.0005610306429091965   -0.027956411221299483   -0.0008323047792731055
0.00040115897997658717   -0.025196163607017   -0.0008011266813600407
0.0008749819976285759   -0.02783711016427705   -0.0007061831413132776
-0.0005610306429091965   -0.027956411221299483   -0.0008323047792731055
0.002071239385383841   -0.02506340048767993   -0.0008442429727711443
-0.004871710927151649   -0.02776796810638408   -0.0008517665889616246
-0.003591744473947361   -0.029329990087625855   -0.0007501810105924306
-0.003669702646142126   -0.02788292414408095   -0.000886132624503982
-0.004742487248539717   -0.02776485343307534   -0.0009284716069176068
-0.003591744473947361   -0.029329990087625855   -0.0007501810105924306
-0.003027730954533417   -0.029474951788347553   -0.0008366972741898417
-0.003669702646142126   -0.02788292414408095   -0.000886132624503982
-0.002952944515635852   -0.02944673990758334   -0.0008671345112209622
-0.004742487248539717   -0.02776485343307534   -0.0009284716069176068
-0.0036101306567015786   -0.027877188007320714   -0.0009145944322237618
-0.002952944515635852   -0.02944673990758334   -0.0008671345112209622
-0.003669702646142126   -0.02788292414408095   -0.000886132624503982
-0.004742487248539717   -0.02776485343307534   -0.0009284716069176068
-0.002952944515635852   -0.02944673990758334   -0.0008671345112209622
-0.0034312360249104568   -0.029298148947252894   -0.0008420999353789274
-0.003591744473947361   -0.029329990087625855   -0.0007501810105924306
-0.004742487248539717   -0.02776485343307534   -0.0009284716069176068
-0.002952944515635852   -0.02944673990758334   -0.0008671345112209622
-0.003591744473947361   -0.029329990087625855   -0.0007501810105924306
-0.003669702646142126   -0.02788292414408095   -0.000886132624503982
-0.004742487248539717   -0.02776485343307534   -0.0009284716069176068
-0.0034312360249104568   -0.029298148947252894   -0.0008420999353789274
-0.0036101306567015786   -0.027877188007320714   -0.0009145944322237618
-0.004623501704599113   -0.027785645839768884   -0.0010110850512902076
-0.0034312360249104568   -0.029298148947252894   -0.0008420999353789274
-0.002952944515635852   -0.02944673990758334   -0.0008671345112209622
-0.0036101306567015786   -0.027877188007320714   -0.0009145944322237618
-0.002869901874010202   -0.02944870878657034   -0.0008978902130431858
-0.004623501704599113   -0.027785645839768884   -0.0010110850512902076
-0.0035399369234154986   -0.027894059208903692   -0.0009472447764980236
-0.002869901874010202   -0.02944870878657034   -0.0008978902130431858
-0.0036101306567015786   -0.027877188007320714   -0.0009145944322237618
-0.004623501704599113   -0.027785645839768884   -0.0010110850512902076
-0.002869901874010202   -0.02944870878657034   -0.0008978902130431858
-0.0032928014204464226   -0.02930151909744825   -0.000933715512941569
-0.0034312360249104568   -0.029298148947252894   -0.0008420999353789274
-0.004623501704599113   -0.027785645839768884   -0.0010110850512902076
-0.002869901874010202   -0.02944870878657034   -0.0008978902130431858
-0.0034312360249104568   -0.029298148947252894   -0.0008420999353789274
-0.0036101306567015786   -0.027877188007320714   -0.0009145944322237618
-0.004623501704599113   -0.027785645839768884   -0.0010110850512902076
-0.0032928014204464226   -0.02930151909744825   -0.000933715512941569
-0.0035399369234154986   -0.027894059208903692   -0.0009472447764980236
-0.00447828922871858   -0.027840745549009213   -0.001099273537676702
-0.0032928014204464226   -0.02930151909744825   -0.000933715512941569
-0.002869901874010202   -0.02944870878657034   -0.0008978902130431858
-0.0035399369234154986   -0.027894059208903692   -0.0009472447764980236
-0.002792874492280533   -0.029481025478438505   -0.0009290918006050309
-0.00447828922871858   -0.027840745549009213   -0.001099273537676702
-0.003476264489053088   -0.027933941531813933   -0.0009838184142565475
-0.002792874492280533   -0.029481025478438505   -0.0009290918006050309
-0.0035399369234154986   -0.027894059208903692   -0.0009472447764980236
-0.00447828922871858   -0.027840745549009213   -0.001099273537676702
-0.002792874492280533   -0.029481025478438505   -0.0009290918006050309
-0.0031284326693425076   -0.02934218428048823   -0.0010272883569848778
-0.0032928014204464226   -0.02930151909744825   -0.000933715512941569
-0.00447828922871858   -0.027840745549009213   -0.001099273537676702
-0.002792874492280533   -0.029481025478438505   -0.0009290918006050309
-0.0032928014204464226   -0.02930151909744825   -0.000933715512941569
-0.0035399369234154986   -0.027894059208903692   -0.0009472447764980236
-0.003669702646142126   -0.02788292414408095   -0.000886132624503982
-0.003027730954533417   -0.029474951788347553   -0.0008366972741898417
-0.0026847982220435137   -0.027956566645563875   -0.0009130573056699941
-0.0036101306567015786   -0.027877188007320714   -0.0009145944322237618
-0.003027730954533417   -0.029474951788347553   -0.0008366972741898417
-0.002612418068889033   -0.029618336648175553   -0.0009130140434276304
-0.0026847982220435137   -0.027956566645563875   -0.0009130573056699941
-0.0025337212052970073   -0.02958927876820906   -0.0008922957439263164
-0.0036101306567015786   -0.027877188007320714   -0.0009145944322237618
-0.002623788804149613   -0.027947186044193825   -0.0009043726329200563
-0.0025337212052970073   -0.02958927876820906   -0.0008922957439263164
-0.0026847982220435137   -0.027956566645563875   -0.0009130573056699941
-0.0036101306567015786   -0.027877188007320714   -0.0009145944322237618
-0.0025337212052970073   -0.02958927876820906   -0.0008922957439263164
-0.002952944515635852   -0.02944673990758334   -0.0008671345112209622
-0.003027730954533417   -0.029474951788347553   -0.0008366972741898417
-0.0036101306567015786   -0.027877188007320714   -0.0009145944322237618
-0.0025337212052970073   -0.02958927876820906   -0.0008922957439263164
-0.003027730954533417   -0.029474951788347553   -0.0008366972741898417
-0.0026847982220435137   -0.027956566645563875   -0.0009130573056699941
-0.0036101306567015786   -0.027877188007320714   -0.0009145944322237618
-0.002952944515635852   -0.02944673990758334   -0.0008671345112209622
-0.002623788804149613   -0.027947186044193825   -0.0009043726329200563
-0.0035399369234154986   -0.027894059208903692   -0.0009472447764980236
-0.002952944515635852   -0.02944673990758334   -0.0008671345112209622
-0.0025337212052970073   -0.02958927876820906   -0.0008922957439263164
-0.002623788804149613   -0.027947186044193825   -0.0009043726329200563
-0.0024575362554487713   -0.02958918554691786   -0.0008713344747850084
-0.0035399369234154986   -0.027894059208903692   -0.0009472447764980236
-0.002563564039325713   -0.0279573593081232   -0.0008997649048148998
-0.0024575362554487713   -0.02958918554691786   -0.0008713344747850084
-0.002623788804149613   -0.027947186044193825   -0.0009043726329200563
-0.0035399369234154986   -0.027894059208903692   -0.0009472447764980236
-0.0024575362554487713   -0.02958918554691786   -0.0008713344747850084
-0.002869901874010202   -0.02944870878657034   -0.0008978902130431858
-0.002952944515635852   -0.02944673990758334   -0.0008671345112209622
-0.0035399369234154986   -0.027894059208903692   -0.0009472447764980236
-0.0024575362554487713   -0.02958918554691786   -0.0008713344747850084
-0.002952944515635852   -0.02944673990758334   -0.0008671345112209622
-0.002623788804149613   -0.027947186044193825   -0.0009043726329200563
-0.0035399369234154986   -0.027894059208903692   -0.0009472447764980236
-0.002869901874010202   -0.02944870878657034   -0.0008978902130431858
-0.002563564039325713   -0.0279573593081232   -0.0008997649048148998
-0.003476264489053088   -0.027933941531813933   -0.0009838184142565475
-0.002869901874010202   -0.02944870878657034   -0.0008978902130431858
-0.0024575362554487713   -0.02958918554691786   -0.0008713344747850084
-0.002563564039325713   -0.0279573593081232   -0.0008997649048148998
-0.0023781856086008755   -0.029617478928284372   -0.0008512369316027363
-0.003476264489053088   -0.027933941531813933   -0.0009838184142565475
-0.0025080715238018675   -0.027987705201028862   -0.0009000752006350345
-0.0023781856086008755   -0.029617478928284372   -0.0008512369316027363
-0.002563564039325713   -0.0279573593081232   -0.0008997649048148998
-0.003476264489053088   -0.027933941531813933   -0.0009838184142565475
-0.0023781856086008755   -0.029617478928284372   -0.0008512369316027363
-0.002792874492280533   -0.029481025478438505   -0.0009290918006050309
-0.002869901874010202   -0.02944870878657034   -0.0008978902130431858
-0.003476264489053088   -0.027933941531813933   -0.0009838184142565475
-0.0023781856086008755   -0.029617478928284372   -0.0008512369316027363
-0.002869901874010202   -0.02944870878657034   -0.0008978902130431858
-0.002563564039325713   -0.0279573593081232   -0.0008997649048148998
-0.0026847982220435137   -0.027956566645563875   -0.0009130573056699941
-0.002612418068889033   -0.029618336648175553   -0.0009130140434276304
-0.0017411724071174468   -0.027993911818084333   -0.0009451692446603136
-0.002623788804149613   -0.027947186044193825   -0.0009043726329200563
-0.002612418068889033   -0.029618336648175553   -0.0009130140434276304
-0.0022323362544517814   -0.029789143734377684   -0.0009973578692286302
-0.0017411724071174468   -0.027993911818084333   -0.0009451692446603136
-0.0021359975226852364   -0.02976369469148823   -0.0009226595338533289
-0.002623788804149613   -0.027947186044193825   -0.0009043726329200563
-0.0016724265069065008   -0.027980199884466567   -0.0009014008457805062
-0.0021359975226852364   -0.02976369469148823   -0.0009226595338533289
-0.0017411724071174468   -0.027993911818084333   -0.0009451692446603136
-0.002623788804149613   -0.027947186044193825   -0.0009043726329200563
-0.0021359975226852364   -0.02976369469148823   -0.0009226595338533289
-0.0025337212052970073   -0.02958927876820906   -0.0008922957439263164
-0.002612418068889033   -0.029618336648175553   -0.0009130140434276304
-0.002623788804149613   -0.027947186044193825   -0.0009043726329200563
-0.0021359975226852364   -0.02976369469148823   -0.0009226595338533289
-0.002612418068889033   -0.029618336648175553   -0.0009130140434276304
-0.0017411724071174468   -0.027993911818084333   -0.0009451692446603136
-0.002623788804149613   -0.027947186044193825   -0.0009043726329200563
-0.0025337212052970073   -0.02958927876820906   -0.0008922957439263164
-0.0016724265069065008   -0.027980199884466567   -0.0009014008457805062
-0.002563564039325713   -0.0279573593081232   -0.0008997649048148998
-0.0025337212052970073   -0.02958927876820906   -0.0008922957439263164
-0.0021359975226852364   -0.02976369469148823   -0.0009226595338533289
-0.0016724265069065008   -0.027980199884466567   -0.0009014008457805062
-0.0020465805292907186   -0.029762582102576682   -0.000848123602232224
-0.002563564039325713   -0.0279573593081232   -0.0008997649048148998
-0.0016068341905124274   -0.027983755924639513   -0.0008612678064670548
-0.0020465805292907186   -0.029762582102576682   -0.000848123602232224
-0.0016724265069065008   -0.027980199884466567   -0.0009014008457805062
-0.002563564039325713   -0.0279573593081232   -0.0008997649048148998
-0.0020465805292907186   -0.029762582102576682   -0.000848123602232224
-0.0024575362554487713   -0.02958918554691786   -0.0008713344747850084
-0.0025337212052970073   -0.02958927876820906   -0.0008922957439263164
-0.002563564039325713   -0.0279573593081232   -0.0008997649048148998
-0.0020465805292907186   -0.029762582102576682   -0.000848123602232224
-0.0025337212052970073   -0.02958927876820906   -0.0008922957439263164
-0.0016724265069065008   -0.027980199884466567   -0.0009014008457805062
-0.002563564039325713   -0.0279573593081232   -0.0008997649048148998
-0.0024575362554487713   -0.02958918554691786   -0.0008713344747850084
-0.0016068341905124274   -0.027983755924639513   -0.0008612678064670548
-0.0025080715238018675   -0.027987705201028862   -0.0009000752006350345
-0.0024575362554487713   -0.02958918554691786   -0.0008713344747850084
-0.0020465805292907186   -0.029762582102576682   -0.000848123602232224
-0.0016068341905124274   -0.027983755924639513   -0.0008612678064670548
-0.001950775590755961   -0.029784557018242182   -0.0007735744593949373
-0.0025080715238018675   -0.027987705201028862   -0.0009000752006350345
-0.0015521651903185035   -0.02800780902588916   -0.0008269687392833017
-0.001950775590755961   -0.029784557018242182   -0.0007735744593949373
-0.0016068341905124274   -0.027983755924639513   -0.0008612678064670548
-0.0025080715238018675   -0.027987705201028862   -0.0009000752006350345
-0.001950775590755961   -0.029784557018242182   -0.0007735744593949373
-0.0023781856086008755   -0.029617478928284372   -0.0008512369316027363
-0.0024575362554487713   -0.02958918554691786   -0.0008713344747850084
-0.0025080715238018675   -0.027987705201028862   -0.0009000752006350345
-0.001950775590755961   -0.029784557018242182   -0.0007735744593949373
-0.0024575362554487713   -0.02958918554691786   -0.0008713344747850084
-0.0016068341905124274   -0.027983755924639513   -0.0008612678064670548
-0.0017411724071174468   -0.027993911818084333   -0.0009451692446603136
-0.0022323362544517814   -0.029789143734377684   -0.0009973578692286302
-0.0007398202600846468   -0.02798159238012527   -0.0009832461123804527
-0.0016724265069065008   -0.027980199884466567   -0.0009014008457805062
-0.0022323362544517814   -0.029789143734377684   -0.0009973578692286302
-0.0018582636036534143   -0.03   -0.0010633207408805585
-0.0007398202600846468   -0.02798159238012527   -0.0009832461123804527
-0.001736763921330586   -0.03   -0.0009489471790379644
-0.0016724265069065008   -0.027980199884466567   -0.0009014008457805062
-0.0006515516729575727   -0.027960047510903977   -0.0009058403801787036
-0.001736763921330586   -0.03   -0.0009489471790379644
-0.0007398202600846468   -0.02798159238012527   -0.0009832461123804527
-0.0016724265069065008   -0.027980199884466567   -0.0009014008457805062
-0.001736763921330586   -0.03   -0.0009489471790379644
-0.0021359975226852364   -0.02976369469148823   -0.0009226595338533289
-0.0022323362544517814   -0.029789143734377684   -0.0009973578692286302
-0.0016724265069065008   -0.027980199884466567   -0.0009014008457805062
-0.001736763921330586   -0.03   -0.0009489471790379644
-0.0022323362544517814   -0.029789143734377684   -0.0009973578692286302
-0.0007398202600846468   -0.02798159238012527   -0.0009832461123804527
-0.0016724265069065008   -0.027980199884466567   -0.0009014008457805062
-0.0021359975226852364   -0.02976369469148823   -0.0009226595338533289
-0.0006515516729575727   -0.027960047510903977   -0.0009058403801787036
-0.0016068341905124274   -0.027983755924639513   -0.0008612678064670548
-0.0021359975226852364   -0.02976369469148823   -0.0009226595338533289
-0.001736763921330586   -0.03   -0.0009489471790379644
-0.0006515516729575727   -0.027960047510903977   -0.0009058403801787036
-0.0016144188701633308   -0.03   -0.0008332263441531793
-0.0016068341905124274   -0.027983755924639513   -0.0008612678064670548
-0.0005610306429091965   -0.027956411221299483   -0.0008323047792731055
-0.0016144188701633308   -0.03   -0.0008332263441531793
-0.0006515516729575727   -0.027960047510903977   -0.0009058403801787036
-0.0016068341905124274   -0.027983755924639513   -0.0008612678064670548
-0.0016144188701633308   -0.03   -0.0008332263441531793
-0.0020465805292907186   -0.029762582102576682   -0.000848123602232224
-0.0021359975226852364   -0.02976369469148823   -0.0009226595338533289
-0.0016068341905124274   -0.027983755924639513   -0.0008612678064670548
-0.0016144188701633308   -0.03   -0.0008332263441531793
-0.0021359975226852364   -0.02976369469148823   -0.0009226595338533289
-0.0006515516729575727   -0.027960047510903977   -0.0009058403801787036
-0.0016068341905124274   -0.027983755924639513   -0.0008612678064670548
-0.0020465805292907186   -0.029762582102576682   -0.000848123602232224
-0.0005610306429091965   -0.027956411221299483   -0.0008323047792731055
-0.0015521651903185035   -0.02800780902588916   -0.0008269687392833017
-0.0020465805292907186   -0.029762582102576682   -0.000848123602232224
-0.0016144188701633308   -0.03   -0.0008332263441531793
-0.0005610306429091965   -0.027956411221299483   -0.0008323047792731055
-0.0014951596573021114   -0.03   -0.000719058434931332
-0.0015521651903185035   -0.02800780902588916   -0.0008269687392833017
-0.0004941491420498921   -0.02797441975475877   -0.0007653775890312126
-0.0014951596573021114   -0.03   -0.000719058434931332
-0.0005610306429091965   -0.027956411221299483   -0.0008323047792731055
-0.0015521651903185035   -0.02800780902588916   -0.0008269687392833017
-0.0014951596573021114   -0.03   -0.000719058434931332
-0.001950775590755961   -0.029784557018242182   -0.0007735744593949373
-0.0020465805292907186   -0.029762582102576682   -0.000848123602232224
-0.0015521651903185035   -0.02800780902588916   -0.0008269687392833017
-0.0014951596573021114   -0.03   -0.000719058434931332
-0.0020465805292907186   -0.029762582102576682   -0.000848123602232224
-0.0005610306429091965   -0.027956411221299483   -0.0008323047792731055
-0.0007398202600846468   -0.02798159238012527   -0.0009832461123804527
-0.0018582636036534143   -0.03   -0.0010633207408805585
0.00033379921414088793   -0.027884515841737803   -0.001060407413562625
-0.0006515516729575727   -0.027960047510903977   -0.0009058403801787036
-0.0018582636036534143   -0.03   -0.0010633207408805585
-0.001583990863432241   -0.03   -0.0011431998637241047
0.00033379921414088793   -0.027884515841737803   -0.001060407413562625
-0.0013277938107395986   -0.03   -0.000977251758432829
-0.0006515516729575727   -0.027960047510903977   -0.0009058403801787036
0.0005416289122380212   -0.02783790997222334   -0.0009339353580890242
-0.0013277938107395986   -0.03   -0.000977251758432829
0.00033379921414088793   -0.027884515841737803   -0.001060407413562625
-0.0006515516729575727   -0.027960047510903977   -0.0009058403801787036
-0.0013277938107395986   -0.03   -0.000977251758432829
-0.001736763921330586   -0.03   -0.0009489471790379644
-0.0018582636036534143   -0.03   -0.0010633207408805585
-0.0006515516729575727   -0.027960047510903977   -0.0009058403801787036
-0.0013277938107395986   -0.03   -0.000977251758432829
-0.0018582636036534143   -0.03   -0.0010633207408805585
0.00033379921414088793   -0.027884515841737803   -0.001060407413562625
-0.0006515516729575727   -0.027960047510903977   -0.0009058403801787036
-0.001736763921330586   -0.03   -0.0009489471790379644
0.0005416289122380212   -0.02783790997222334   -0.0009339353580890242
-0.0005610306429091965   -0.027956411221299483   -0.0008323047792731055
-0.001736763921330586   -0.03   -0.0009489471790379644
-0.0013277938107395986   -0.03   -0.000977251758432829
0.0005416289122380212   -0.02783790997222334   -0.0009339353580890242
-0.0011235023061789376   -0.03   -0.0008185290345418217
-0.0005610306429091965   -0.027956411221299483   -0.0008323047792731055
0.0007048396630294398   -0.027828607285237488   -0.0008150090488514114
-0.0011235023061789376   -0.03   -0.0008185290345418217
0.0005416289122380212   -0.02783790997222334   -0.0009339353580890242
-0.0005610306429091965   -0.027956411221299483   -0.0008323047792731055
-0.0011235023061789376   -0.03   -0.0008185290345418217
-0.0016144188701633308   -0.03   -0.0008332263441531793
-0.001736763921330586   -0.03   -0.0009489471790379644
-0.0005610306429091965   -0.027956411221299483   -0.0008323047792731055
-0.0011235023061789376   -0.03   -0.0008185290345418217
-0.001736763921330586   -0.03   -0.0009489471790379644
0.0005416289122380212   -0.02783790997222334   -0.0009339353580890242
-0.0005610306429091965   -0.027956411221299483   -0.0008323047792731055
-0.0016144188701633308   -0.03   -0.0008332263441531793
0.0007048396630294398   -0.027828607285237488   -0.0008150090488514114
-0.0004941491420498921   -0.02797441975475877   -0.0007653775890312126
-0.0016144188701633308   -0.03   -0.0008332263441531793
-0.0011235023061789376   -0.03   -0.0008185290345418217
0.0007048396630294398   -0.027828607285237488   -0.0008150090488514114
-0.0008712276998314376   -0.03   -0.0006537332768085844
-0.0004941491420498921   -0.02797441975475877   -0.0007653775890312126
0.0008749819976285759   -0.02783711016427705   -0.0007061831413132776
-0.0008712276998314376   -0.03   -0.0006537332768085844
0.0007048396630294398   -0.027828607285237488   -0.0008150090488514114
-0.0004941491420498921   -0.02797441975475877   -0.0007653775890312126
-0.0008712276998314376   -0.03   -0.0006537332768085844
-0.0014951596573021114   -0.03   -0.000719058434931332
-0.0016144188701633308   -0.03   -0.0008332263441531793
-0.0004941491420498921   -0.02797441975475877   -0.0007653775890312126
-0.0008712276998314376   -0.03   -0.0006537332768085844
-0.0016144188701633308   -0.03   -0.0008332263441531793
0.0007048396630294398   -0.027828607285237488   -0.0008150090488514114
-0.003591744473947361   -0.029329990087625855   -0.0007501810105924306
-0.0021757865678373963   -0.029427618571628657   -0.0006424970604968876
-0.003027730954533417   -0.029474951788347553   -0.0008366972741898417
-0.0034312360249104568   -0.029298148947252894   -0.0008420999353789274
-0.0021757865678373963   -0.029427618571628657   -0.0006424970604968876
-0.002294904672546148   -0.029540167261098822   -0.0007539522975625142
-0.003027730954533417   -0.029474951788347553   -0.0008366972741898417
-0.002238182862741142   -0.029501543671329147   -0.0007951899582662193
-0.0034312360249104568   -0.029298148947252894   -0.0008420999353789274
-0.002952944515635852   -0.02944673990758334   -0.0008671345112209622
-0.002238182862741142   -0.029501543671329147   -0.0007951899582662193
-0.003027730954533417   -0.029474951788347553   -0.0008366972741898417
-0.0034312360249104568   -0.029298148947252894   -0.0008420999353789274
-0.002238182862741142   -0.029501543671329147   -0.0007951899582662193
-0.0020299075393679805   -0.029377958373153382   -0.0007391342836951952
-0.0021757865678373963   -0.029427618571628657   -0.0006424970604968876
-0.0034312360249104568   -0.029298148947252894   -0.0008420999353789274
-0.002238182862741142   -0.029501543671329147   -0.0007951899582662193
-0.0021757865678373963   -0.029427618571628657   -0.0006424970604968876
-0.003027730954533417   -0.029474951788347553   -0.0008366972741898417
-0.0034312360249104568   -0.029298148947252894   -0.0008420999353789274
-0.0020299075393679805   -0.029377958373153382   -0.0007391342836951952
-0.002952944515635852   -0.02944673990758334   -0.0008671345112209622
-0.0032928014204464226   -0.02930151909744825   -0.000933715512941569
-0.0020299075393679805   -0.029377958373153382   -0.0007391342836951952
-0.002238182862741142   -0.029501543671329147   -0.0007951899582662193
-0.002952944515635852   -0.02944673990758334   -0.0008671345112209622
-0.0021715167651468028   -0.02948786724349344   -0.0008333285568374601
-0.0032928014204464226   -0.02930151909744825   -0.000933715512941569
-0.002869901874010202   -0.02944870878657034   -0.0008978902130431858
-0.0021715167651468028   -0.02948786724349344   -0.0008333285568374601
-0.002952944515635852   -0.02944673990758334   -0.0008671345112209622
-0.0032928014204464226   -0.02930151909744825   -0.000933715512941569
-0.0021715167651468028   -0.02948786724349344   -0.0008333285568374601
-0.001908526208261586   -0.029363330499872078   -0.0008319309587562124
-0.0020299075393679805   -0.029377958373153382   -0.0007391342836951952
-0.0032928014204464226   -0.02930151909744825   -0.000933715512941569
-0.0021715167651468028   -0.02948786724349344   -0.0008333285568374601
-0.0020299075393679805   -0.029377958373153382   -0.0007391342836951952
-0.002952944515635852   -0.02944673990758334   -0.0008671345112209622
-0.0032928014204464226   -0.02930151909744825   -0.000933715512941569
-0.001908526208261586   -0.029363330499872078   -0.0008319309587562124
-0.002869901874010202   -0.02944870878657034   -0.0008978902130431858
-0.0031284326693425076   -0.02934218428048823   -0.0010272883569848778
-0.001908526208261586   -0.029363330499872078   -0.0008319309587562124
-0.0021715167651468028   -0.02948786724349344   -0.0008333285568374601
-0.002869901874010202   -0.02944870878657034   -0.0008978902130431858
-0.0021144880293649626   -0.02949936208653357   -0.0008681783865227767
-0.0031284326693425076   -0.02934218428048823   -0.0010272883569848778
-0.002792874492280533   -0.029481025478438505   -0.0009290918006050309
-0.0021144880293649626   -0.02949936208653357   -0.0008681783865227767
-0.002869901874010202   -0.02944870878657034   -0.0008978902130431858
-0.0031284326693425076   -0.02934218428048823   -0.0010272883569848778
-0.0021144880293649626   -0.02949936208653357   -0.0008681783865227767
-0.001770889228992826   -0.029377641929669674   -0.0009204948620834987
-0.001908526208261586   -0.029363330499872078   -0.0008319309587562124
-0.0031284326693425076   -0.02934218428048823   -0.0010272883569848778
-0.0021144880293649626   -0.02949936208653357   -0.0008681783865227767
-0.001908526208261586   -0.029363330499872078   -0.0008319309587562124
-0.002869901874010202   -0.02944870878657034   -0.0008978902130431858
-0.003027730954533417   -0.029474951788347553   -0.0008366972741898417
-0.002294904672546148   -0.029540167261098822   -0.0007539522975625142
-0.002612418068889033   -0.029618336648175553   -0.0009130140434276304
-0.002952944515635852   -0.02944673990758334   -0.0008671345112209622
-0.002294904672546148   -0.029540167261098822   -0.0007539522975625142
-0.0024614737159109686   -0.029608790463340966   -0.000842921895656655
-0.002612418068889033   -0.029618336648175553   -0.0009130140434276304
-0.002411358310043813   -0.029574260689628994   -0.0008438661810145614
-0.002952944515635852   -0.02944673990758334   -0.0008671345112209622
-0.0025337212052970073   -0.02958927876820906   -0.0008922957439263164
-0.002411358310043813   -0.029574260689628994   -0.0008438661810145614
-0.002612418068889033   -0.029618336648175553   -0.0009130140434276304
-0.002952944515635852   -0.02944673990758334   -0.0008671345112209622
-0.002411358310043813   -0.029574260689628994   -0.0008438661810145614
-0.002238182862741142   -0.029501543671329147   -0.0007951899582662193
-0.002294904672546148   -0.029540167261098822   -0.0007539522975625142
-0.002952944515635852   -0.02944673990758334   -0.0008671345112209622
-0.002411358310043813   -0.029574260689628994   -0.0008438661810145614
-0.002294904672546148   -0.029540167261098822   -0.0007539522975625142
-0.002612418068889033   -0.029618336648175553   -0.0009130140434276304
-0.002952944515635852   -0.02944673990758334   -0.0008671345112209622
-0.002238182862741142   -0.029501543671329147   -0.0007951899582662193
-0.0025337212052970073   -0.02958927876820906   -0.0008922957439263164
-0.002869901874010202   -0.02944870878657034   -0.0008978902130431858
-0.002238182862741142   -0.029501543671329147   -0.0007951899582662193
-0.002411358310043813   -0.029574260689628994   -0.0008438661810145614
-0.0025337212052970073   -0.02958927876820906   -0.0008922957439263164
-0.0023556118913284213   -0.029562319002311214   -0.0008407938612507884
-0.002869901874010202   -0.02944870878657034   -0.0008978902130431858
-0.0024575362554487713   -0.02958918554691786   -0.0008713344747850084
-0.0023556118913284213   -0.029562319002311214   -0.0008407938612507884
-0.0025337212052970073   -0.02958927876820906   -0.0008922957439263164
-0.002869901874010202   -0.02944870878657034   -0.0008978902130431858
-0.0023556118913284213   -0.029562319002311214   -0.0008407938612507884
-0.0021715167651468028   -0.02948786724349344   -0.0008333285568374601
-0.002238182862741142   -0.029501543671329147   -0.0007951899582662193
-0.002869901874010202   -0.02944870878657034   -0.0008978902130431858
-0.0023556118913284213   -0.029562319002311214   -0.0008407938612507884
-0.002238182862741142   -0.029501543671329147   -0.0007951899582662193
-0.0025337212052970073   -0.02958927876820906   -0.0008922957439263164
-0.002869901874010202   -0.02944870878657034   -0.0008978902130431858
-0.0021715167651468028   -0.02948786724349344   -0.0008333285568374601
-0.0024575362554487713   -0.02958918554691786   -0.0008713344747850084
-0.002792874492280533   -0.029481025478438505   -0.0009290918006050309
-0.0021715167651468028   -0.02948786724349344   -0.0008333285568374601
-0.0023556118913284213   -0.029562319002311214   -0.0008407938612507884
-0.0024575362554487713   -0.02958918554691786   -0.0008713344747850084
-0.0022989737454987423   -0.029571982590922176   -0.0008345675599798083
-0.002792874492280533   -0.029481025478438505   -0.0009290918006050309
-0.0023781856086008755   -0.029617478928284372   -0.0008512369316027363
-0.0022989737454987423   -0.029571982590922176   -0.0008345675599798083
-0.0024575362554487713   -0.02958918554691786   -0.0008713344747850084
-0.002792874492280533   -0.029481025478438505   -0.0009290918006050309
-0.0022989737454987423   -0.029571982590922176   -0.0008345675599798083
-0.0021144880293649626   -0.02949936208653357   -0.0008681783865227767
-0.0021715167651468028   -0.02948786724349344   -0.0008333285568374601
-0.002792874492280533   -0.029481025478438505   -0.0009290918006050309
-0.0022989737454987423   -0.029571982590922176   -0.0008345675599798083
-0.0021715167651468028   -0.02948786724349344   -0.0008333285568374601
-0.0024575362554487713   -0.02958918554691786   -0.0008713344747850084
-0.002612418068889033   -0.029618336648175553   -0.0009130140434276304
-0.0024614737159109686   -0.029608790463340966   -0.000842921895656655
-0.0022323362544517814   -0.029789143734377684   -0.0009973578692286302
-0.0025337212052970073   -0.02958927876820906   -0.0008922957439263164
-0.0024614737159109686   -0.029608790463340966   -0.000842921895656655
-0.0026407318032679174   -0.029636152137857773   -0.0009306426438859878
-0.0022323362544517814   -0.029789143734377684   -0.0009973578692286302
-0.0025888122155796078   -0.02960310564208293   -0.0008928292242891771
-0.0025337212052970073   -0.02958927876820906   -0.0008922957439263164
-0.0021359975226852364   -0.02976369469148823   -0.0009226595338533289
-0.0025888122155796078   -0.02960310564208293   -0.0008928292242891771
-0.0022323362544517814   -0.029789143734377684   -0.0009973578692286302
-0.0025337212052970073   -0.02958927876820906   -0.0008922957439263164
-0.0025888122155796078   -0.02960310564208293   -0.0008928292242891771
-0.002411358310043813   -0.029574260689628994   -0.0008438661810145614
-0.0024614737159109686   -0.029608790463340966   -0.000842921895656655
-0.0025337212052970073   -0.02958927876820906   -0.0008922957439263164
-0.0025888122155796078   -0.02960310564208293   -0.0008928292242891771
-0.0024614737159109686   -0.029608790463340966   -0.000842921895656655
-0.0022323362544517814   -0.029789143734377684   -0.0009973578692286302
-0.0025337212052970073   -0.02958927876820906   -0.0008922957439263164
-0.002411358310043813   -0.029574260689628994   -0.0008438661810145614
-0.0021359975226852364   -0.02976369469148823   -0.0009226595338533289
-0.0024575362554487713   -0.02958918554691786   -0.0008713344747850084
-0.002411358310043813   -0.029574260689628994   -0.0008438661810145614
-0.0025888122155796078   -0.02960310564208293   -0.0008928292242891771
-0.0021359975226852364   -0.02976369469148823   -0.0009226595338533289
-0.0025266387534324313   -0.02959300381314318   -0.0008501205121967905
-0.0024575362554487713   -0.02958918554691786   -0.0008713344747850084
-0.0020465805292907186   -0.029762582102576682   -0.000848123602232224
-0.0025266387534324313   -0.02959300381314318   -0.0008501205121967905
-0.0021359975226852364   -0.02976369469148823   -0.0009226595338533289
-0.0024575362554487713   -0.02958918554691786   -0.0008713344747850084
-0.0025266387534324313   -0.02959300381314318   -0.0008501205121967905
-0.0023556118913284213   -0.029562319002311214   -0.0008407938612507884
-0.002411358310043813   -0.029574260689628994   -0.0008438661810145614
-0.0024575362554487713   -0.02958918554691786   -0.0008713344747850084
-0.0025266387534324313   -0.02959300381314318   -0.0008501205121967905
-0.002411358310043813   -0.029574260689628994   -0.0008438661810145614
-0.0021359975226852364   -0.02976369469148823   -0.0009226595338533289
-0.0024575362554487713   -0.02958918554691786   -0.0008713344747850084
-0.0023556118913284213   -0.029562319002311214   -0.0008407938612507884
-0.0020465805292907186   -0.029762582102576682   -0.000848123602232224
-0.0023781856086008755   -0.029617478928284372   -0.0008512369316027363
-0.0023556118913284213   -0.029562319002311214   -0.0008407938612507884
-0.0025266387534324313   -0.02959300381314318   -0.0008501205121967905
-0.0020465805292907186   -0.029762582102576682   -0.000848123602232224
-0.0024627639705846523   -0.029602363644308193   -0.000804692140328775
-0.0023781856086008755   -0.029617478928284372   -0.0008512369316027363
-0.001950775590755961   -0.029784557018242182   -0.0007735744593949373
-0.0024627639705846523   -0.029602363644308193   -0.000804692140328775
-0.0020465805292907186   -0.029762582102576682   -0.000848123602232224
-0.0023781856086008755   -0.029617478928284372   -0.0008512369316027363
-0.0024627639705846523   -0.029602363644308193   -0.000804692140328775
-0.0022989737454987423   -0.029571982590922176   -0.0008345675599798083
-0.0023556118913284213   -0.029562319002311214   -0.0008407938612507884
-0.0023781856086008755   -0.029617478928284372   -0.0008512369316027363
-0.0024627639705846523   -0.029602363644308193   -0.000804692140328775
-0.0023556118913284213   -0.029562319002311214   -0.0008407938612507884
-0.0020465805292907186   -0.029762582102576682   -0.000848123602232224
-0.0022323362544517814   -0.029789143734377684   -0.0009973578692286302
-0.0026407318032679174   -0.029636152137857773   -0.0009306426438859878
-0.0018582636036534143   -0.03   -0.0010633207408805585
-0.0021359975226852364   -0.02976369469148823   -0.0009226595338533289
-0.0026407318032679174   -0.029636152137857773   -0.0009306426438859878
-0.0029008005787068804   -0.02960245749696727   -0.0010143886774777449
-0.0018582636036534143   -0.03   -0.0010633207408805585
-0.0028330298962819995   -0.029571034748240615   -0.0009395820235524427
-0.0021359975226852364   -0.02976369469148823   -0.0009226595338533289
-0.001736763921330586   -0.03   -0.0009489471790379644
-0.0028330298962819995   -0.029571034748240615   -0.0009395820235524427
-0.0018582636036534143   -0.03   -0.0010633207408805585
-0.0021359975226852364   -0.02976369469148823   -0.0009226595338533289
-0.0028330298962819995   -0.029571034748240615   -0.0009395820235524427
-0.0025888122155796078   -0.02960310564208293   -0.0008928292242891771
-0.0026407318032679174   -0.029636152137857773   -0.0009306426438859878
-0.0021359975226852364   -0.02976369469148823   -0.0009226595338533289
-0.0028330298962819995   -0.029571034748240615   -0.0009395820235524427
-0.0026407318032679174   -0.029636152137857773   -0.0009306426438859878
-0.0018582636036534143   -0.03   -0.0010633207408805585
-0.0021359975226852364   -0.02976369469148823   -0.0009226595338533289
-0.0025888122155796078   -0.02960310564208293   -0.0008928292242891771
-0.001736763921330586   -0.03   -0.0009489471790379644
-0.0020465805292907186   -0.029762582102576682   -0.000848123602232224
-0.0025888122155796078   -0.02960310564208293   -0.0008928292242891771
-0.0028330298962819995   -0.029571034748240615   -0.0009395820235524427
-0.001736763921330586   -0.03   -0.0009489471790379644
-0.002743363364984447   -0.029564195274072176   -0.0008592865427261657
-0.0020465805292907186   -0.029762582102576682   -0.000848123602232224
-0.0016144188701633308   -0.03   -0.0008332263441531793
-0.002743363364984447   -0.029564195274072176   -0.0008592865427261657
-0.001736763921330586   -0.03   -0.0009489471790379644
-0.0020465805292907186   -0.029762582102576682   -0.000848123602232224
-0.002743363364984447   -0.029564195274072176   -0.0008592865427261657
-0.0025266387534324313   -0.02959300381314318   -0.0008501205121967905
-0.0025888122155796078   -0.02960310564208293   -0.0008928292242891771
-0.0020465805292907186   -0.029762582102576682   -0.000848123602232224
-0.002743363364984447   -0.029564195274072176   -0.0008592865427261657
-0.0025888122155796078   -0.02960310564208293   -0.0008928292242891771
-0.001736763921330586   -0.03   -0.0009489471790379644
-0.0020465805292907186   -0.029762582102576682   -0.000848123602232224
-0.0025266387534324313   -0.02959300381314318   -0.0008501205121967905
-0.0016144188701633308   -0.03   -0.0008332263441531793
-0.001950775590755961   -0.029784557018242182   -0.0007735744593949373
-0.0025266387534324313   -0.02959300381314318   -0.0008501205121967905
-0.002743363364984447   -0.029564195274072176   -0.0008592865427261657
-0.0016144188701633308   -0.03   -0.0008332263441531793
-0.0026593944462637385   -0.02957728377948533   -0.0007759742696583913
-0.001950775590755961   -0.029784557018242182   -0.0007735744593949373
-0.0014951596573021114   -0.03   -0.000719058434931332
-0.0026593944462637385   -0.02957728377948533   -0.0007759742696583913
-0.0016144188701633308   -0.03   -0.0008332263441531793
-0.001950775590755961   -0.029784557018242182   -0.0007735744593949373
-0.0026593944462637385   -0.02957728377948533   -0.0007759742696583913
-0.0024627639705846523   -0.029602363644308193   -0.000804692140328775
-0.0025266387534324313   -0.02959300381314318   -0.0008501205121967905
-0.001950775590755961   -0.029784557018242182   -0.0007735744593949373
-0.0026593944462637385   -0.02957728377948533   -0.0007759742696583913
-0.0025266387534324313   -0.02959300381314318   -0.0008501205121967905
-0.0016144188701633308   -0.03   -0.0008332263441531793
-0.0018582636036534143   -0.03   -0.0010633207408805585
-0.0029008005787068804   -0.02960245749696727   -0.0010143886774777449
-0.001583990863432241   -0.03   -0.0011431998637241047
-0.001736763921330586   -0.03   -0.0009489471790379644
-0.0029008005787068804   -0.02960245749696727   -0.0010143886774777449
-0.0034118076193903196   -0.029458085769613524   -0.0011039564122692239
-0.001583990863432241   -0.03   -0.0011431998637241047
-0.003229045876100808   -0.029431217580582213   -0.0009812795646370063
-0.001736763921330586   -0.03   -0.0009489471790379644
-0.0013277938107395986   -0.03   -0.000977251758432829
-0.003229045876100808   -0.029431217580582213   -0.0009812795646370063
-0.001583990863432241   -0.03   -0.0011431998637241047
-0.001736763921330586   -0.03   -0.0009489471790379644
-0.003229045876100808   -0.029431217580582213   -0.0009812795646370063
-0.0028330298962819995   -0.029571034748240615   -0.0009395820235524427
-0.0029008005787068804   -0.02960245749696727   -0.0010143886774777449
-0.001736763921330586   -0.03   -0.0009489471790379644
-0.003229045876100808   -0.029431217580582213   -0.0009812795646370063
-0.0029008005787068804   -0.02960245749696727   -0.0010143886774777449
-0.001583990863432241   -0.03   -0.0011431998637241047
-0.001736763921330586   -0.03   -0.0009489471790379644
-0.0028330298962819995   -0.029571034748240615   -0.0009395820235524427
-0.0013277938107395986   -0.03   -0.000977251758432829
-0.0016144188701633308   -0.03   -0.0008332263441531793
-0.0028330298962819995   -0.029571034748240615   -0.0009395820235524427
-0.003229045876100808   -0.029431217580582213   -0.0009812795646370063
-0.0013277938107395986   -0.03   -0.000977251758432829
-0.003061657295398656   -0.029427787190786453   -0.0008505795380203901
-0.0016144188701633308   -0.03   -0.0008332263441531793
-0.0011235023061789376   -0.03   -0.0008185290345418217
-0.003061657295398656   -0.029427787190786453   -0.0008505795380203901
-0.0013277938107395986   -0.03   -0.000977251758432829
-0.0016144188701633308   -0.03   -0.0008332263441531793
-0.003061657295398656   -0.029427787190786453   -0.0008505795380203901
-0.002743363364984447   -0.029564195274072176   -0.0008592865427261657
-0.0028330298962819995   -0.029571034748240615   -0.0009395820235524427
-0.0016144188701633308   -0.03   -0.0008332263441531793
-0.003061657295398656   -0.029427787190786453   -0.0008505795380203901
-0.0028330298962819995   -0.029571034748240615   -0.0009395820235524427
-0.0013277938107395986   -0.03   -0.000977251758432829
-0.0016144188701633308   -0.03   -0.0008332263441531793
-0.002743363364984447   -0.029564195274072176   -0.0008592865427261657
-0.0011235023061789376   -0.03   -0.0008185290345418217
-0.0014951596573021114   -0.03   -0.000719058434931332
-0.002743363364984447   -0.029564195274072176   -0.0008592865427261657
-0.003061657295398656   -0.029427787190786453   -0.0008505795380203901
-0.0011235023061789376   -0.03   -0.0008185290345418217
-0.002850164480028835   -0.029462944773180753   -0.0007140965661800765
-0.0014951596573021114   -0.03   -0.000719058434931332
-0.0008712276998314376   -0.03   -0.0006537332768085844
-0.002850164480028835   -0.029462944773180753   -0.0007140965661800765
-0.0011235023061789376   -0.03   -0.0008185290345418217
-0.0014951596573021114   -0.03   -0.000719058434931332
-0.002850164480028835   -0.029462944773180753   -0.0007140965661800765
-0.0026593944462637385   -0.02957728377948533   -0.0007759742696583913
-0.002743363364984447   -0.029564195274072176   -0.0008592865427261657
-0.0014951596573021114   -0.03   -0.000719058434931332
-0.002850164480028835   -0.029462944773180753   -0.0007140965661800765
-0.002743363364984447   -0.029564195274072176   -0.0008592865427261657
-0.0011235023061789376   -0.03   -0.0008185290345418217
-0.0021757865678373963   -0.029427618571628657   -0.0006424970604968876
-0.0009242406978404939   -0.028345923346401045   -0.0005540892068695318
-0.002294904672546148   -0.029540167261098822   -0.0007539522975625142
-0.0020299075393679805   -0.029377958373153382   -0.0007391342836951952
-0.0009242406978404939   -0.028345923346401045   -0.0005540892068695318
-0.0016632036127282924   -0.02843150103878161   -0.0006726511222120599
-0.002294904672546148   -0.029540167261098822   -0.0007539522975625142
-0.0016227941783757065   -0.02838471965097993   -0.0007095756741492946
-0.0020299075393679805   -0.029377958373153382   -0.0007391342836951952
-0.002238182862741142   -0.029501543671329147   -0.0007951899582662193
-0.0016227941783757065   -0.02838471965097993   -0.0007095756741492946
-0.002294904672546148   -0.029540167261098822   -0.0007539522975625142
-0.0020299075393679805   -0.029377958373153382   -0.0007391342836951952
-0.0016227941783757065   -0.02838471965097993   -0.0007095756741492946
-0.0008073283857329625   -0.028287912762132814   -0.00063804274795044
-0.0009242406978404939   -0.028345923346401045   -0.0005540892068695318
-0.0020299075393679805   -0.029377958373153382   -0.0007391342836951952
-0.0016227941783757065   -0.02838471965097993   -0.0007095756741492946
-0.0009242406978404939   -0.028345923346401045   -0.0005540892068695318
-0.002294904672546148   -0.029540167261098822   -0.0007539522975625142
-0.0020299075393679805   -0.029377958373153382   -0.0007391342836951952
-0.0008073283857329625   -0.028287912762132814   -0.00063804274795044
-0.002238182862741142   -0.029501543671329147   -0.0007951899582662193
-0.001908526208261586   -0.029363330499872078   -0.0008319309587562124
-0.0008073283857329625   -0.028287912762132814   -0.00063804274795044
-0.0016227941783757065   -0.02838471965097993   -0.0007095756741492946
-0.002238182862741142   -0.029501543671329147   -0.0007951899582662193
-0.0015771405771349124   -0.02835939485811348   -0.000743257719353174
-0.001908526208261586   -0.029363330499872078   -0.0008319309587562124
-0.0021715167651468028   -0.02948786724349344   -0.0008333285568374601
-0.0015771405771349124   -0.02835939485811348   -0.000743257719353174
-0.002238182862741142   -0.029501543671329147   -0.0007951899582662193
-0.001908526208261586   -0.029363330499872078   -0.0008319309587562124
-0.0015771405771349124   -0.02835939485811348   -0.000743257719353174
-0.0007153163316568289   -0.028260963461269648   -0.0007171952267507694
-0.0008073283857329625   -0.028287912762132814   -0.00063804274795044
-0.001908526208261586   -0.029363330499872078   -0.0008319309587562124
-0.0015771405771349124   -0.02835939485811348   -0.000743257719353174
-0.0008073283857329625   -0.028287912762132814   -0.00063804274795044
-0.002238182862741142   -0.029501543671329147   -0.0007951899582662193
-0.001908526208261586   -0.029363330499872078   -0.0008319309587562124
-0.0007153163316568289   -0.028260963461269648   -0.0007171952267507694
-0.0021715167651468028   -0.02948786724349344   -0.0008333285568374601
-0.001770889228992826   -0.029377641929669674   -0.0009204948620834987
-0.0007153163316568289   -0.028260963461269648   -0.0007171952267507694
-0.0015771405771349124   -0.02835939485811348   -0.000743257719353174
-0.0021715167651468028   -0.02948786724349344   -0.0008333285568374601
-0.0015421848123942622   -0.028354811635953516   -0.0007738062841208722
-0.001770889228992826   -0.029377641929669674   -0.0009204948620834987
-0.0021144880293649626   -0.02949936208653357   -0.0008681783865227767
-0.0015421848123942622   -0.028354811635953516   -0.0007738062841208722
-0.0021715167651468028   -0.02948786724349344   -0.0008333285568374601
-0.001770889228992826   -0.029377641929669674   -0.0009204948620834987
-0.0015421848123942622   -0.028354811635953516   -0.0007738062841208722
-0.0006144659441562466   -0.028257201015071804   -0.0007913505863117356
-0.0007153163316568289   -0.028260963461269648   -0.0007171952267507694
-0.001770889228992826   -0.029377641929669674   -0.0009204948620834987
-0.0015421848123942622   -0.028354811635953516   -0.0007738062841208722
-0.0007153163316568289   -0.028260963461269648   -0.0007171952267507694
-0.0021715167651468028   -0.02948786724349344   -0.0008333285568374601
-0.002294904672546148   -0.029540167261098822   -0.0007539522975625142
-0.0016632036127282924   -0.02843150103878161   -0.0006726511222120599
-0.0024614737159109686   -0.029608790463340966   -0.000842921895656655
-0.002238182862741142   -0.029501543671329147   -0.0007951899582662193
-0.0016632036127282924   -0.02843150103878161   -0.0006726511222120599
-0.0023953137620770664   -0.028461454688812515   -0.000769099137444041
-0.0024614737159109686   -0.029608790463340966   -0.000842921895656655
-0.002361439186458896   -0.028420664002695526   -0.0007709881712565121
-0.002238182862741142   -0.029501543671329147   -0.0007951899582662193
-0.002411358310043813   -0.029574260689628994   -0.0008438661810145614
-0.002361439186458896   -0.028420664002695526   -0.0007709881712565121
-0.0024614737159109686   -0.029608790463340966   -0.000842921895656655
-0.002238182862741142   -0.029501543671329147   -0.0007951899582662193
-0.002361439186458896   -0.028420664002695526   -0.0007709881712565121
-0.0016227941783757065   -0.02838471965097993   -0.0007095756741492946
-0.0016632036127282924   -0.02843150103878161   -0.0006726511222120599
-0.002238182862741142   -0.029501543671329147   -0.0007951899582662193
-0.002361439186458896   -0.028420664002695526   -0.0007709881712565121
-0.0016632036127282924   -0.02843150103878161   -0.0006726511222120599
-0.0024614737159109686   -0.029608790463340966   -0.000842921895656655
-0.002238182862741142   -0.029501543671329147   -0.0007951899582662193
-0.0016227941783757065   -0.02838471965097993   -0.0007095756741492946
-0.002411358310043813   -0.029574260689628994   -0.0008438661810145614
-0.0021715167651468028   -0.02948786724349344   -0.0008333285568374601
-0.0016227941783757065   -0.02838471965097993   -0.0007095756741492946
-0.002361439186458896   -0.028420664002695526   -0.0007709881712565121
-0.002411358310043813   -0.029574260689628994   -0.0008438661810145614
-0.00232638558377961   -0.028399207589847375   -0.0007698719151927489
-0.0021715167651468028   -0.02948786724349344   -0.0008333285568374601
-0.0023556118913284213   -0.029562319002311214   -0.0008407938612507884
-0.00232638558377961   -0.028399207589847375   -0.0007698719151927489
-0.002411358310043813   -0.029574260689628994   -0.0008438661810145614
-0.0021715167651468028   -0.02948786724349344   -0.0008333285568374601
-0.00232638558377961   -0.028399207589847375   -0.0007698719151927489
-0.0015771405771349124   -0.02835939485811348   -0.000743257719353174
-0.0016227941783757065   -0.02838471965097993   -0.0007095756741492946
-0.0021715167651468028   -0.02948786724349344   -0.0008333285568374601
-0.00232638558377961   -0.028399207589847375   -0.0007698719151927489
-0.0016227941783757065   -0.02838471965097993   -0.0007095756741492946
-0.002411358310043813   -0.029574260689628994   -0.0008438661810145614
-0.0021715167651468028   -0.02948786724349344   -0.0008333285568374601
-0.0015771405771349124   -0.02835939485811348   -0.000743257719353174
-0.0023556118913284213   -0.029562319002311214   -0.0008407938612507884
-0.0021144880293649626   -0.02949936208653357   -0.0008681783865227767
-0.0015771405771349124   -0.02835939485811348   -0.000743257719353174
-0.00232638558377961   -0.028399207589847375   -0.0007698719151927489
-0.0023556118913284213   -0.029562319002311214   -0.0008407938612507884
-0.0022926020781933246   -0.028396194270202423   -0.0007657329497137398
-0.0021144880293649626   -0.02949936208653357   -0.0008681783865227767
-0.0022989737454987423   -0.029571982590922176   -0.0008345675599798083
-0.0022926020781933246   -0.028396194270202423   -0.0007657329497137398
-0.0023556118913284213   -0.029562319002311214   -0.0008407938612507884
-0.0021144880293649626   -0.02949936208653357   -0.0008681783865227767
-0.0022926020781933246   -0.028396194270202423   -0.0007657329497137398
-0.0015421848123942622   -0.028354811635953516   -0.0007738062841208722
-0.0015771405771349124   -0.02835939485811348   -0.000743257719353174
-0.0021144880293649626   -0.02949936208653357   -0.0008681783865227767
-0.0022926020781933246   -0.028396194270202423   -0.0007657329497137398
-0.0015771405771349124   -0.02835939485811348   -0.000743257719353174
-0.0023556118913284213   -0.029562319002311214   -0.0008407938612507884
-0.0024614737159109686   -0.029608790463340966   -0.000842921895656655
-0.0023953137620770664   -0.028461454688812515   -0.000769099137444041
-0.0026407318032679174   -0.029636152137857773   -0.0009306426438859878
-0.002411358310043813   -0.029574260689628994   -0.0008438661810145614
-0.0023953137620770664   -0.028461454688812515   -0.000769099137444041
-0.0031227563991593826   -0.028434308200200376   -0.0008594298042431859
-0.0026407318032679174   -0.029636152137857773   -0.0009306426438859878
-0.00308915046972734   -0.028398023160668636   -0.0008277009459620526
-0.002411358310043813   -0.029574260689628994   -0.0008438661810145614
-0.0025888122155796078   -0.02960310564208293   -0.0008928292242891771
-0.00308915046972734   -0.028398023160668636   -0.0008277009459620526
-0.0026407318032679174   -0.029636152137857773   -0.0009306426438859878
-0.002411358310043813   -0.029574260689628994   -0.0008438661810145614
-0.00308915046972734   -0.028398023160668636   -0.0008277009459620526
-0.002361439186458896   -0.028420664002695526   -0.0007709881712565121
-0.0023953137620770664   -0.028461454688812515   -0.000769099137444041
-0.002411358310043813   -0.029574260689628994   -0.0008438661810145614
-0.00308915046972734   -0.028398023160668636   -0.0008277009459620526
-0.0023953137620770664   -0.028461454688812515   -0.000769099137444041
-0.0026407318032679174   -0.029636152137857773   -0.0009306426438859878
-0.002411358310043813   -0.029574260689628994   -0.0008438661810145614
-0.002361439186458896   -0.028420664002695526   -0.0007709881712565121
-0.0025888122155796078   -0.02960310564208293   -0.0008928292242891771
-0.0023556118913284213   -0.029562319002311214   -0.0008407938612507884
-0.002361439186458896   -0.028420664002695526   -0.0007709881712565121
-0.00308915046972734   -0.028398023160668636   -0.0008277009459620526
-0.0025888122155796078   -0.02960310564208293   -0.0008928292242891771
-0.0030514406398129907   -0.02838076034094951   -0.0007930161784891847
-0.0023556118913284213   -0.029562319002311214   -0.0008407938612507884
-0.0025266387534324313   -0.02959300381314318   -0.0008501205121967905
-0.0030514406398129907   -0.02838076034094951   -0.0007930161784891847
-0.0025888122155796078   -0.02960310564208293   -0.0008928292242891771
-0.0023556118913284213   -0.029562319002311214   -0.0008407938612507884
-0.0030514406398129907   -0.02838076034094951   -0.0007930161784891847
-0.00232638558377961   -0.028399207589847375   -0.0007698719151927489
-0.002361439186458896   -0.028420664002695526   -0.0007709881712565121
-0.0023556118913284213   -0.029562319002311214   -0.0008407938612507884
-0.0030514406398129907   -0.02838076034094951   -0.0007930161784891847
-0.002361439186458896   -0.028420664002695526   -0.0007709881712565121
-0.0025888122155796078   -0.02960310564208293   -0.0008928292242891771
-0.0023556118913284213   -0.029562319002311214   -0.0008407938612507884
-0.00232638558377961   -0.028399207589847375   -0.0007698719151927489
-0.0025266387534324313   -0.02959300381314318   -0.0008501205121967905
-0.0022989737454987423   -0.029571982590922176   -0.0008345675599798083
-0.00232638558377961   -0.028399207589847375   -0.0007698719151927489
-0.0030514406398129907   -0.02838076034094951   -0.0007930161784891847
-0.0025266387534324313   -0.02959300381314318   -0.0008501205121967905
-0.0030136278459858487   -0.028380747889560982   -0.0007550162555356589
-0.0022989737454987423   -0.029571982590922176   -0.0008345675599798083
-0.0024627639705846523   -0.029602363644308193   -0.000804692140328775
-0.0030136278459858487   -0.028380747889560982   -0.0007550162555356589
-0.0025266387534324313   -0.02959300381314318   -0.0008501205121967905
-0.0022989737454987423   -0.029571982590922176   -0.0008345675599798083
-0.0030136278459858487   -0.028380747889560982   -0.0007550162555356589
-0.0022926020781933246   -0.028396194270202423   -0.0007657329497137398
-0.00232638558377961   -0.028399207589847375   -0.0007698719151927489
-0.0022989737454987423   -0.029571982590922176   -0.0008345675599798083
-0.0030136278459858487   -0.028380747889560982   -0.0007550162555356589
-0.00232638558377961   -0.028399207589847375   -0.0007698719151927489
-0.0025266387534324313   -0.02959300381314318   -0.0008501205121967905
-0.0026407318032679174   -0.029636152137857773   -0.0009306426438859878
-0.0031227563991593826   -0.028434308200200376   -0.0008594298042431859
-0.0029008005787068804   -0.02960245749696727   -0.0010143886774777449
-0.0025888122155796078   -0.02960310564208293   -0.0008928292242891771
-0.0031227563991593826   -0.028434308200200376   -0.0008594298042431859
-0.003920888486853945   -0.02834655910542039   -0.0009426096048305357
-0.0029008005787068804   -0.02960245749696727   -0.0010143886774777449
-0.0038796019394898218   -0.028314746812765947   -0.0008779549692868101
-0.0025888122155796078   -0.02960310564208293   -0.0008928292242891771
-0.0028330298962819995   -0.029571034748240615   -0.0009395820235524427
-0.0038796019394898218   -0.028314746812765947   -0.0008779549692868101
-0.0029008005787068804   -0.02960245749696727   -0.0010143886774777449
-0.0025888122155796078   -0.02960310564208293   -0.0008928292242891771
-0.0038796019394898218   -0.028314746812765947   -0.0008779549692868101
-0.00308915046972734   -0.028398023160668636   -0.0008277009459620526
-0.0031227563991593826   -0.028434308200200376   -0.0008594298042431859
-0.0025888122155796078   -0.02960310564208293   -0.0008928292242891771
-0.0038796019394898218   -0.028314746812765947   -0.0008779549692868101
-0.0031227563991593826   -0.028434308200200376   -0.0008594298042431859
-0.0029008005787068804   -0.02960245749696727   -0.0010143886774777449
-0.0025888122155796078   -0.02960310564208293   -0.0008928292242891771
-0.00308915046972734   -0.028398023160668636   -0.0008277009459620526
-0.0028330298962819995   -0.029571034748240615   -0.0009395820235524427
-0.0025266387534324313   -0.02959300381314318   -0.0008501205121967905
-0.00308915046972734   -0.028398023160668636   -0.0008277009459620526
-0.0038796019394898218   -0.028314746812765947   -0.0008779549692868101
-0.0028330298962819995   -0.029571034748240615   -0.0009395820235524427
-0.0038224565489979843   -0.028301661246410283   -0.0008105763355472064
-0.0025266387534324313   -0.02959300381314318   -0.0008501205121967905
-0.002743363364984447   -0.029564195274072176   -0.0008592865427261657
-0.0038224565489979843   -0.028301661246410283   -0.0008105763355472064
-0.0028330298962819995   -0.029571034748240615   -0.0009395820235524427
-0.0025266387534324313   -0.02959300381314318   -0.0008501205121967905
-0.0038224565489979843   -0.028301661246410283   -0.0008105763355472064
-0.0030514406398129907   -0.02838076034094951   -0.0007930161784891847
-0.00308915046972734   -0.028398023160668636   -0.0008277009459620526
-0.0025266387534324313   -0.02959300381314318   -0.0008501205121967905
-0.0038224565489979843   -0.028301661246410283   -0.0008105763355472064
-0.00308915046972734   -0.028398023160668636   -0.0008277009459620526
-0.0028330298962819995   -0.029571034748240615   -0.0009395820235524427
-0.0025266387534324313   -0.02959300381314318   -0.0008501205121967905
-0.0030514406398129907   -0.02838076034094951   -0.0007930161784891847
-0.002743363364984447   -0.029564195274072176   -0.0008592865427261657
-0.0024627639705846523   -0.029602363644308193   -0.000804692140328775
-0.0030514406398129907   -0.02838076034094951   -0.0007930161784891847
-0.0038224565489979843   -0.028301661246410283   -0.0008105763355472064
-0.002743363364984447   -0.029564195274072176   -0.0008592865427261657
-0.003772824946263444   -0.02830731068200803   -0.0007386358514357551
-0.0024627639705846523   -0.029602363644308193   -0.000804692140328775
-0.0026593944462637385   -0.02957728377948533   -0.0007759742696583913
-0.003772824946263444   -0.02830731068200803   -0.0007386358514357551
-0.002743363364984447   -0.029564195274072176   -0.0008592865427261657
-0.0024627639705846523   -0.029602363644308193   -0.000804692140328775
-0.003772824946263444   -0.02830731068200803   -0.0007386358514357551
-0.0030136278459858487   -0.028380747889560982   -0.0007550162555356589
-0.0030514406398129907   -0.02838076034094951   -0.0007930161784891847
-0.0024627639705846523   -0.029602363644308193   -0.000804692140328775
-0.003772824946263444   -0.02830731068200803   -0.0007386358514357551
-0.0030514406398129907   -0.02838076034094951   -0.0007930161784891847
-0.002743363364984447   -0.029564195274072176   -0.0008592865427261657
-0.0029008005787068804   -0.02960245749696727   -0.0010143886774777449
-0.003920888486853945   -0.02834655910542039   -0.0009426096048305357
-0.0034118076193903196   -0.029458085769613524   -0.0011039564122692239
-0.0028330298962819995   -0.029571034748240615   -0.0009395820235524427
-0.003920888486853945   -0.02834655910542039   -0.0009426096048305357
-0.004948467425923141   -0.02820384873100233   -0.0010230745527268607
-0.0034118076193903196   -0.029458085769613524   -0.0011039564122692239
-0.004813356067227579   -0.02816909344201322   -0.0009209288845451717
-0.0028330298962819995   -0.029571034748240615   -0.0009395820235524427
-0.003229045876100808   -0.029431217580582213   -0.0009812795646370063
-0.004813356067227579   -0.02816909344201322   -0.0009209288845451717
-0.0034118076193903196   -0.029458085769613524   -0.0011039564122692239
-0.0028330298962819995   -0.029571034748240615   -0.0009395820235524427
-0.004813356067227579   -0.02816909344201322   -0.0009209288845451717
-0.0038796019394898218   -0.028314746812765947   -0.0008779549692868101
-0.003920888486853945   -0.02834655910542039   -0.0009426096048305357
-0.0028330298962819995   -0.029571034748240615   -0.0009395820235524427
-0.004813356067227579   -0.02816909344201322   -0.0009209288845451717
-0.003920888486853945   -0.02834655910542039   -0.0009426096048305357
-0.0034118076193903196   -0.029458085769613524   -0.0011039564122692239
-0.0028330298962819995   -0.029571034748240615   -0.0009395820235524427
-0.0038796019394898218   -0.028314746812765947   -0.0008779549692868101
-0.003229045876100808   -0.029431217580582213   -0.0009812795646370063
-0.002743363364984447   -0.029564195274072176   -0.0008592865427261657
-0.0038796019394898218   -0.028314746812765947   -0.0008779549692868101
-0.004813356067227579   -0.02816909344201322   -0.0009209288845451717
-0.003229045876100808   -0.029431217580582213   -0.0009812795646370063
-0.0046926881609719705   -0.028156989803592023   -0.0008130377432616616
-0.002743363364984447   -0.029564195274072176   -0.0008592865427261657
-0.003061657295398656   -0.029427787190786453   -0.0008505795380203901
-0.0046926881609719705   -0.028156989803592023   -0.0008130377432616616
-0.003229045876100808   -0.029431217580582213   -0.0009812795646370063
-0.002743363364984447   -0.029564195274072176   -0.0008592865427261657
-0.0046926881609719705   -0.028156989803592023   -0.0008130377432616616
-0.0038224565489979843   -0.028301661246410283   -0.0008105763355472064
-0.0038796019394898218   -0.028314746812765947   -0.0008779549692868101
-0.002743363364984447   -0.029564195274072176   -0.0008592865427261657
-0.0046926881609719705   -0.028156989803592023   -0.0008130377432616616
-0.0038796019394898218   -0.028314746812765947   -0.0008779549692868101
-0.003229045876100808   -0.029431217580582213   -0.0009812795646370063
-0.002743363364984447   -0.029564195274072176   -0.0008592865427261657
-0.0038224565489979843   -0.028301661246410283   -0.0008105763355472064
-0.003061657295398656   -0.029427787190786453   -0.0008505795380203901
-0.0026593944462637385   -0.02957728377948533   -0.0007759742696583913
-0.0038224565489979843   -0.028301661246410283   -0.0008105763355472064
-0.0046926881609719705   -0.028156989803592023   -0.0008130377432616616
-0.003061657295398656   -0.029427787190786453   -0.0008505795380203901
-0.00453635303956187   -0.028173925593480212   -0.0007004089844756331
-0.0026593944462637385   -0.02957728377948533   -0.0007759742696583913
-0.002850164480028835   -0.029462944773180753   -0.0007140965661800765
-0.00453635303956187   -0.028173925593480212   -0.0007004089844756331
-0.003061657295398656   -0.029427787190786453   -0.0008505795380203901
-0.0026593944462637385   -0.02957728377948533   -0.0007759742696583913
-0.00453635303956187   -0.028173925593480212   -0.0007004089844756331
-0.003772824946263444   -0.02830731068200803   -0.0007386358514357551
-0.0038224565489979843   -0.028301661246410283   -0.0008105763355472064
-0.0026593944462637385   -0.02957728377948533   -0.0007759742696583913
-0.00453635303956187   -0.028173925593480212   -0.0007004089844756331
-0.0038224565489979843   -0.028301661246410283   -0.0008105763355472064
-0.003061657295398656   -0.029427787190786453   -0.0008505795380203901
-0.0009242406978404939   -0.028345923346401045   -0.0005540892068695318
9.753768216550616e-05   -0.026331400549588567   -0.0004574286166344139
-0.0016632036127282924   -0.02843150103878161   -0.0006726511222120599
-0.0008073283857329625   -0.028287912762132814   -0.00063804274795044
9.753768216550616e-05   -0.026331400549588567   -0.0004574286166344139
-0.0011583696495198218   -0.02639468049389073   -0.0005739886613549803
-0.0016632036127282924   -0.02843150103878161   -0.0006726511222120599
-0.0011367701332992144   -0.026345616478693566   -0.0006034739731100805
-0.0008073283857329625   -0.028287912762132814   -0.00063804274795044
-0.0016227941783757065   -0.02838471965097993   -0.0007095756741492946
-0.0011367701332992144   -0.026345616478693566   -0.0006034739731100805
-0.0016632036127282924   -0.02843150103878161   -0.0006726511222120599
-0.0008073283857329625   -0.028287912762132814   -0.00063804274795044
-0.0011367701332992144   -0.026345616478693566   -0.0006034739731100805
0.00017990621524581753   -0.026272360671970845   -0.0005247538853233677
9.753768216550616e-05   -0.026331400549588567   -0.0004574286166344139
-0.0008073283857329625   -0.028287912762132814   -0.00063804274795044
-0.0011367701332992144   -0.026345616478693566   -0.0006034739731100805
9.753768216550616e-05   -0.026331400549588567   -0.0004574286166344139
-0.0016632036127282924   -0.02843150103878161   -0.0006726511222120599
-0.0008073283857329625   -0.028287912762132814   -0.00063804274795044
0.00017990621524581753   -0.026272360671970845   -0.0005247538853233677
-0.0016227941783757065   -0.02838471965097993   -0.0007095756741492946
-0.0007153163316568289   -0.028260963461269648   -0.0007171952267507694
0.00017990621524581753   -0.026272360671970845   -0.0005247538853233677
-0.0011367701332992144   -0.026345616478693566   -0.0006034739731100805
-0.0016227941783757065   -0.02838471965097993   -0.0007095756741492946
-0.0011120481304501754   -0.026314168612529196   -0.0006296156073132651
-0.0007153163316568289   -0.028260963461269648   -0.0007171952267507694
-0.0015771405771349124   -0.02835939485811348   -0.000743257719353174
-0.0011120481304501754   -0.026314168612529196   -0.0006296156073132651
-0.0016227941783757065   -0.02838471965097993   -0.0007095756741492946
-0.0007153163316568289   -0.028260963461269648   -0.0007171952267507694
-0.0011120481304501754   -0.026314168612529196   -0.0006296156073132651
0.00024057477424797098   -0.026238938955226165   -0.0005873984157206449
0.00017990621524581753   -0.026272360671970845   -0.0005247538853233677
-0.0007153163316568289   -0.028260963461269648   -0.0007171952267507694
-0.0011120481304501754   -0.026314168612529196   -0.0006296156073132651
0.00017990621524581753   -0.026272360671970845   -0.0005247538853233677
-0.0016227941783757065   -0.02838471965097993   -0.0007095756741492946
-0.0007153163316568289   -0.028260963461269648   -0.0007171952267507694
0.00024057477424797098   -0.026238938955226165   -0.0005873984157206449
-0.0015771405771349124   -0.02835939485811348   -0.000743257719353174
-0.0006144659441562466   -0.028257201015071804   -0.0007913505863117356
0.00024057477424797098   -0.026238938955226165   -0.0005873984157206449
-0.0011120481304501754   -0.026314168612529196   -0.0006296156073132651
-0.0015771405771349124   -0.02835939485811348   -0.000743257719353174
-0.0010972525716215896   -0.026299385486346298   -0.0006527445619455717
-0.0006144659441562466   -0.028257201015071804   -0.0007913505863117356
-0.0015421848123942622   -0.028354811635953516   -0.0007738062841208722
-0.0010972525716215896   -0.026299385486346298   -0.0006527445619455717
-0.0015771405771349124   -0.02835939485811348   -0.000743257719353174
-0.0006144659441562466   -0.028257201015071804   -0.0007913505863117356
-0.0010972525716215896   -0.026299385486346298   -0.0006527445619455717
0.0003058666337326285   -0.02622351214971324   -0.0006453449947990913
0.00024057477424797098   -0.026238938955226165   -0.0005873984157206449
-0.0006144659441562466   -0.028257201015071804   -0.0007913505863117356
-0.0010972525716215896   -0.026299385486346298   -0.0006527445619455717
0.00024057477424797098   -0.026238938955226165   -0.0005873984157206449
-0.0015771405771349124   -0.02835939485811348   -0.000743257719353174
-0.0016632036127282924   -0.02843150103878161   -0.0006726511222120599
-0.0011583696495198218   -0.02639468049389073   -0.0005739886613549803
-0.0023953137620770664   -0.028461454688812515   -0.000769099137444041
-0.0016227941783757065   -0.02838471965097993   -0.0007095756741492946
-0.0011583696495198218   -0.02639468049389073   -0.0005739886613549803
-0.0023757620429060073   -0.026406844854537058   -0.0006696569300458634
-0.0023953137620770664   -0.028461454688812515   -0.000769099137444041
-0.002359976335755551   -0.026364815913125717   -0.0006703093531048316
-0.0016227941783757065   -0.02838471965097993   -0.0007095756741492946
-0.002361439186458896   -0.028420664002695526   -0.0007709881712565121
-0.002359976335755551   -0.026364815913125717   -0.0006703093531048316
-0.0023953137620770664   -0.028461454688812515   -0.000769099137444041
-0.0016227941783757065   -0.02838471965097993   -0.0007095756741492946
-0.002359976335755551   -0.026364815913125717   -0.0006703093531048316
-0.0011367701332992144   -0.026345616478693566   -0.0006034739731100805
-0.0011583696495198218   -0.02639468049389073   -0.0005739886613549803
-0.0016227941783757065   -0.02838471965097993   -0.0007095756741492946
-0.002359976335755551   -0.026364815913125717   -0.0006703093531048316
-0.0011583696495198218   -0.02639468049389073   -0.0005739886613549803
-0.0023953137620770664   -0.028461454688812515   -0.000769099137444041
-0.0016227941783757065   -0.02838471965097993   -0.0007095756741492946
-0.0011367701332992144   -0.026345616478693566   -0.0006034739731100805
-0.002361439186458896   -0.028420664002695526   -0.0007709881712565121
-0.0015771405771349124   -0.02835939485811348   -0.000743257719353174
-0.0011367701332992144   -0.026345616478693566   -0.0006034739731100805
-0.002359976335755551   -0.026364815913125717   -0.0006703093531048316
-0.002361439186458896   -0.028420664002695526   -0.0007709881712565121
-0.0023437273243481645   -0.026338545148534516   -0.0006677531016930613
-0.0015771405771349124   -0.02835939485811348   -0.000743257719353174
-0.00232638558377961   -0.028399207589847375   -0.0007698719151927489
-0.0023437273243481645   -0.026338545148534516   -0.0006677531016930613
-0.002361439186458896   -0.028420664002695526   -0.0007709881712565121
-0.0015771405771349124   -0.02835939485811348   -0.000743257719353174
-0.0023437273243481645   -0.026338545148534516   -0.0006677531016930613
-0.0011120481304501754   -0.026314168612529196   -0.0006296156073132651
-0.0011367701332992144   -0.026345616478693566   -0.0006034739731100805
-0.0015771405771349124   -0.02835939485811348   -0.000743257719353174
-0.0023437273243481645   -0.026338545148534516   -0.0006677531016930613
-0.0011367701332992144   -0.026345616478693566   -0.0006034739731100805
-0.002361439186458896   -0.028420664002695526   -0.0007709881712565121
-0.0015771405771349124   -0.02835939485811348   -0.000743257719353174
-0.0011120481304501754   -0.026314168612529196   -0.0006296156073132651
-0.00232638558377961   -0.028399207589847375   -0.0007698719151927489
-0.0015421848123942622   -0.028354811635953516   -0.0007738062841208722
-0.0011120481304501754   -0.026314168612529196   -0.0006296156073132651
-0.0023437273243481645   -0.026338545148534516   -0.0006677531016930613
-0.00232638558377961   -0.028399207589847375   -0.0007698719151927489
-0.0023295216138781035   -0.026327787195567158   -0.0006622097591524047
-0.0015421848123942622   -0.028354811635953516   -0.0007738062841208722
-0.0022926020781933246   -0.028396194270202423   -0.0007657329497137398
-0.0023295216138781035   -0.026327787195567158   -0.0006622097591524047
-0.00232638558377961   -0.028399207589847375   -0.0007698719151927489
-0.0015421848123942622   -0.028354811635953516   -0.0007738062841208722
-0.0023295216138781035   -0.026327787195567158   -0.0006622097591524047
-0.0010972525716215896   -0.026299385486346298   -0.0006527445619455717
-0.0011120481304501754   -0.026314168612529196   -0.0006296156073132651
-0.0015421848123942622   -0.028354811635953516   -0.0007738062841208722
-0.0023295216138781035   -0.026327787195567158   -0.0006622097591524047
-0.0011120481304501754   -0.026314168612529196   -0.0006296156073132651
-0.00232638558377961   -0.028399207589847375   -0.0007698719151927489
-0.0023953137620770664   -0.028461454688812515   -0.000769099137444041
-0.0023757620429060073   -0.026406844854537058   -0.0006696569300458634
-0.0031227563991593826   -0.028434308200200376   -0.0008594298042431859
-0.002361439186458896   -0.028420664002695526   -0.0007709881712565121
-0.0023757620429060073   -0.026406844854537058   -0.0006696569300458634
-0.0035745338947182534   -0.02636783493622328   -0.0007559758971817648
-0.0031227563991593826   -0.028434308200200376   -0.0008594298042431859
-0.003559846735240937   -0.02633160362534979   -0.0007284841822489793
-0.002361439186458896   -0.028420664002695526   -0.0007709881712565121
-0.00308915046972734   -0.028398023160668636   -0.0008277009459620526
-0.003559846735240937   -0.02633160362534979   -0.0007284841822489793
-0.0031227563991593826   -0.028434308200200376   -0.0008594298042431859
-0.002361439186458896   -0.028420664002695526   -0.0007709881712565121
-0.003559846735240937   -0.02633160362534979   -0.0007284841822489793
-0.002359976335755551   -0.026364815913125717   -0.0006703093531048316
-0.0023757620429060073   -0.026406844854537058   -0.0006696569300458634
-0.002361439186458896   -0.028420664002695526   -0.0007709881712565121
-0.003559846735240937   -0.02633160362534979   -0.0007284841822489793
-0.0023757620429060073   -0.026406844854537058   -0.0006696569300458634
-0.0031227563991593826   -0.028434308200200376   -0.0008594298042431859
-0.002361439186458896   -0.028420664002695526   -0.0007709881712565121
-0.002359976335755551   -0.026364815913125717   -0.0006703093531048316
-0.00308915046972734   -0.028398023160668636   -0.0008277009459620526
-0.00232638558377961   -0.028399207589847375   -0.0007698719151927489
-0.002359976335755551   -0.026364815913125717   -0.0006703093531048316
-0.003559846735240937   -0.02633160362534979   -0.0007284841822489793
-0.00308915046972734   -0.028398023160668636   -0.0008277009459620526
-0.0035420896799350492   -0.026310959802831272   -0.0006978578220358206
-0.00232638558377961   -0.028399207589847375   -0.0007698719151927489
-0.0030514406398129907   -0.02838076034094951   -0.0007930161784891847
-0.0035420896799350492   -0.026310959802831272   -0.0006978578220358206
-0.00308915046972734   -0.028398023160668636   -0.0008277009459620526
-0.00232638558377961   -0.028399207589847375   -0.0007698719151927489
-0.0035420896799350492   -0.026310959802831272   -0.0006978578220358206
-0.0023437273243481645   -0.026338545148534516   -0.0006677531016930613
-0.002359976335755551   -0.026364815913125717   -0.0006703093531048316
-0.00232638558377961   -0.028399207589847375   -0.0007698719151927489
-0.0035420896799350492   -0.026310959802831272   -0.0006978578220358206
-0.002359976335755551   -0.026364815913125717   -0.0006703093531048316
-0.00308915046972734   -0.028398023160668636   -0.0008277009459620526
-0.00232638558377961   -0.028399207589847375   -0.0007698719151927489
-0.0023437273243481645   -0.026338545148534516   -0.0006677531016930613
-0.0030514406398129907   -0.02838076034094951   -0.0007930161784891847
-0.0022926020781933246   -0.028396194270202423   -0.0007657329497137398
-0.0023437273243481645   -0.026338545148534516   -0.0006677531016930613
-0.0035420896799350492   -0.026310959802831272   -0.0006978578220358206
-0.0030514406398129907   -0.02838076034094951   -0.0007930161784891847
-0.00352485224507334   -0.026305206953126173   -0.0006641922719246356
-0.0022926020781933246   -0.028396194270202423   -0.0007657329497137398
-0.0030136278459858487   -0.028380747889560982   -0.0007550162555356589
-0.00352485224507334   -0.026305206953126173   -0.0006641922719246356
-0.0030514406398129907   -0.02838076034094951   -0.0007930161784891847
-0.0022926020781933246   -0.028396194270202423   -0.0007657329497137398
-0.00352485224507334   -0.026305206953126173   -0.0006641922719246356
-0.0023295216138781035   -0.026327787195567158   -0.0006622097591524047
-0.0023437273243481645   -0.026338545148534516   -0.0006677531016930613
-0.0022926020781933246   -0.028396194270202423   -0.0007657329497137398
-0.00352485224507334   -0.026305206953126173   -0.0006641922719246356
-0.0023437273243481645   -0.026338545148534516   -0.0006677531016930613
-0.0030514406398129907   -0.02838076034094951   -0.0007930161784891847
-0.0031227563991593826   -0.028434308200200376   -0.0008594298042431859
-0.0035745338947182534   -0.02636783493622328   -0.0007559758971817648
-0.003920888486853945   -0.02834655910542039   -0.0009426096048305357
-0.00308915046972734   -0.028398023160668636   -0.0008277009459620526
-0.0035745338947182534   -0.02636783493622328   -0.0007559758971817648
-0.004830110748635413   -0.02627896173131123   -0.0008327070983957052
-0.003920888486853945   -0.02834655910542039   -0.0009426096048305357
-0.004810775351055075   -0.026248216529396348   -0.0007770116090585763
-0.00308915046972734   -0.028398023160668636   -0.0008277009459620526
-0.0038796019394898218   -0.028314746812765947   -0.0008779549692868101
-0.004810775351055075   -0.026248216529396348   -0.0007770116090585763
-0.003920888486853945   -0.02834655910542039   -0.0009426096048305357
-0.00308915046972734   -0.028398023160668636   -0.0008277009459620526
-0.004810775351055075   -0.026248216529396348   -0.0007770116090585763
-0.003559846735240937   -0.02633160362534979   -0.0007284841822489793
-0.0035745338947182534   -0.02636783493622328   -0.0007559758971817648
-0.00308915046972734   -0.028398023160668636   -0.0008277009459620526
-0.004810775351055075   -0.026248216529396348   -0.0007770116090585763
-0.0035745338947182534   -0.02636783493622328   -0.0007559758971817648
-0.003920888486853945   -0.02834655910542039   -0.0009426096048305357
-0.00308915046972734   -0.028398023160668636   -0.0008277009459620526
-0.003559846735240937   -0.02633160362534979   -0.0007284841822489793
-0.0038796019394898218   -0.028314746812765947   -0.0008779549692868101
-0.0030514406398129907   -0.02838076034094951   -0.0007930161784891847
-0.003559846735240937   -0.02633160362534979   -0.0007284841822489793
-0.004810775351055075   -0.026248216529396348   -0.0007770116090585763
-0.0038796019394898218   -0.028314746812765947   -0.0008779549692868101
-0.004777912319690769   -0.026232673456091444   -0.0007186702121951753
-0.0030514406398129907   -0.02838076034094951   -0.0007930161784891847
-0.0038224565489979843   -0.028301661246410283   -0.0008105763355472064
-0.004777912319690769   -0.026232673456091444   -0.0007186702121951753
-0.0038796019394898218   -0.028314746812765947   -0.0008779549692868101
-0.0030514406398129907   -0.02838076034094951   -0.0007930161784891847
-0.004777912319690769   -0.026232673456091444   -0.0007186702121951753
-0.0035420896799350492   -0.026310959802831272   -0.0006978578220358206
-0.003559846735240937   -0.02633160362534979   -0.0007284841822489793
-0.0030514406398129907   -0.02838076034094951   -0.0007930161784891847
-0.004777912319690769   -0.026232673456091444   -0.0007186702121951753
-0.003559846735240937   -0.02633160362534979   -0.0007284841822489793
-0.0038796019394898218   -0.028314746812765947   -0.0008779549692868101
-0.0030514406398129907   -0.02838076034094951   -0.0007930161784891847
-0.0035420896799350492   -0.026310959802831272   -0.0006978578220358206
-0.0038224565489979843   -0.028301661246410283   -0.0008105763355472064
-0.0030136278459858487   -0.028380747889560982   -0.0007550162555356589
-0.0035420896799350492   -0.026310959802831272   -0.0006978578220358206
-0.004777912319690769   -0.026232673456091444   -0.0007186702121951753
-0.0038224565489979843   -0.028301661246410283   -0.0008105763355472064
-0.0047513951094257205   -0.02623318898566132   -0.0006568431033115861
-0.0030136278459858487   -0.028380747889560982   -0.0007550162555356589
-0.003772824946263444   -0.02830731068200803   -0.0007386358514357551
-0.0047513951094257205   -0.02623318898566132   -0.0006568431033115861
-0.0038224565489979843   -0.028301661246410283   -0.0008105763355472064
-0.0030136278459858487   -0.028380747889560982   -0.0007550162555356589
-0.0047513951094257205   -0.02623318898566132   -0.0006568431033115861
-0.00352485224507334   -0.026305206953126173   -0.0006641922719246356
-0.0035420896799350492   -0.026310959802831272   -0.0006978578220358206
-0.0030136278459858487   -0.028380747889560982   -0.0007550162555356589
-0.0047513951094257205   -0.02623318898566132   -0.0006568431033115861
-0.0035420896799350492   -0.026310959802831272   -0.0006978578220358206
-0.0038224565489979843   -0.028301661246410283   -0.0008105763355472064
-0.003920888486853945   -0.02834655910542039   -0.0009426096048305357
-0.004830110748635413   -0.02627896173131123   -0.0008327070983957052
-0.004948467425923141   -0.02820384873100233   -0.0010230745527268607
-0.0038796019394898218   -0.028314746812765947   -0.0008779549692868101
-0.004830110748635413   -0.02627896173131123   -0.0008327070983957052
-0.006294052226229385   -0.02615051446419655   -0.0009046881154240585
-0.004948467425923141   -0.02820384873100233   -0.0010230745527268607
-0.006193528991997456   -0.026118248870302486   -0.0008174084452699666
-0.0038796019394898218   -0.028314746812765947   -0.0008779549692868101
-0.004813356067227579   -0.02816909344201322   -0.0009209288845451717
-0.006193528991997456   -0.026118248870302486   -0.0008174084452699666
-0.004948467425923141   -0.02820384873100233   -0.0010230745527268607
-0.0038796019394898218   -0.028314746812765947   -0.0008779549692868101
-0.006193528991997456   -0.026118248870302486   -0.0008174084452699666
-0.004810775351055075   -0.026248216529396348   -0.0007770116090585763
-0.004830110748635413   -0.02627896173131123   -0.0008327070983957052
-0.0038796019394898218   -0.028314746812765947   -0.0008779549692868101
-0.006193528991997456   -0.026118248870302486   -0.0008174084452699666
-0.004830110748635413   -0.02627896173131123   -0.0008327070983957052
-0.004948467425923141   -0.02820384873100233   -0.0010230745527268607
-0.0038796019394898218   -0.028314746812765947   -0.0008779549692868101
-0.004810775351055075   -0.026248216529396348   -0.0007770116090585763
-0.004813356067227579   -0.02816909344201322   -0.0009209288845451717
-0.0038224565489979843   -0.028301661246410283   -0.0008105763355472064
-0.004810775351055075   -0.026248216529396348   -0.0007770116090585763
-0.006193528991997456   -0.026118248870302486   -0.0008174084452699666
-0.004813356067227579   -0.02816909344201322   -0.0009209288845451717
-0.006106565466528565   -0.026104091951922655   -0.0007257454802475497
-0.0038224565489979843   -0.028301661246410283   -0.0008105763355472064
-0.0046926881609719705   -0.028156989803592023   -0.0008130377432616616
-0.006106565466528565   -0.026104091951922655   -0.0007257454802475497
-0.004813356067227579   -0.02816909344201322   -0.0009209288845451717
-0.0038224565489979843   -0.028301661246410283   -0.0008105763355472064
-0.006106565466528565   -0.026104091951922655   -0.0007257454802475497
-0.004777912319690769   -0.026232673456091444   -0.0007186702121951753
-0.004810775351055075   -0.026248216529396348   -0.0007770116090585763
-0.0038224565489979843   -0.028301661246410283   -0.0008105763355472064
-0.006106565466528565   -0.026104091951922655   -0.0007257454802475497
-0.004810775351055075   -0.026248216529396348   -0.0007770116090585763
-0.004813356067227579   -0.02816909344201322   -0.0009209288845451717
-0.0038224565489979843   -0.028301661246410283   -0.0008105763355472064
-0.004777912319690769   -0.026232673456091444   -0.0007186702121951753
-0.0046926881609719705   -0.028156989803592023   -0.0008130377432616616
-0.003772824946263444   -0.02830731068200803   -0.0007386358514357551
-0.004777912319690769   -0.026232673456091444   -0.0007186702121951753
-0.006106565466528565   -0.026104091951922655   -0.0007257454802475497
-0.0046926881609719705   -0.028156989803592023   -0.0008130377432616616
-0.00598952342164227   -0.02611440957590562   -0.0006302793881439368
-0.003772824946263444   -0.02830731068200803   -0.0007386358514357551
-0.00453635303956187   -0.028173925593480212   -0.0007004089844756331
-0.00598952342164227   -0.02611440957590562   -0.0006302793881439368
-0.0046926881609719705   -0.028156989803592023   -0.0008130377432616616
-0.003772824946263444   -0.02830731068200803   -0.0007386358514357551
-0.00598952342164227   -0.02611440957590562   -0.0006302793881439368
-0.0047513951094257205   -0.02623318898566132   -0.0006568431033115861
-0.004777912319690769   -0.026232673456091444   -0.0007186702121951753
-0.003772824946263444   -0.02830731068200803   -0.0007386358514357551
-0.00598952342164227   -0.02611440957590562   -0.0006302793881439368
-0.004777912319690769   -0.026232673456091444   -0.0007186702121951753
-0.0046926881609719705   -0.028156989803592023   -0.0008130377432616616
9.753768216550616e-05   -0.026331400549588567   -0.0004574286166344139
0.0008795857559969028   -0.023579967482627587   -0.00034825853502294435
-0.0011583696495198218   -0.02639468049389073   -0.0005739886613549803
0.00017990621524581753   -0.026272360671970845   -0.0005247538853233677
0.0008795857559969028   -0.023579967482627587   -0.00034825853502294435
-0.0007907713150991399   -0.023622259244037127   -0.0004595894429875654
-0.0011583696495198218   -0.02639468049389073   -0.0005739886613549803
-0.0007860254317228953   -0.023573450203103637   -0.000480238580411
0.00017990621524581753   -0.026272360671970845   -0.0005247538853233677
-0.0011367701332992144   -0.026345616478693566   -0.0006034739731100805
-0.0007860254317228953   -0.023573450203103637   -0.000480238580411
-0.0011583696495198218   -0.02639468049389073   -0.0005739886613549803
0.00017990621524581753   -0.026272360671970845   -0.0005247538853233677
-0.0007860254317228953   -0.023573450203103637   -0.000480238580411
0.0009293020358628595   -0.023522291578736147   -0.00039851111347386344
0.0008795857559969028   -0.023579967482627587   -0.00034825853502294435
0.00017990621524581753   -0.026272360671970845   -0.0005247538853233677
-0.0007860254317228953   -0.023573450203103637   -0.000480238580411
0.0008795857559969028   -0.023579967482627587   -0.00034825853502294435
-0.0011583696495198218   -0.02639468049389073   -0.0005739886613549803
0.00017990621524581753   -0.026272360671970845   -0.0005247538853233677
0.0009293020358628595   -0.023522291578736147   -0.00039851111347386344
-0.0011367701332992144   -0.026345616478693566   -0.0006034739731100805
0.00024057477424797098   -0.026238938955226165   -0.0005873984157206449
0.0009293020358628595   -0.023522291578736147   -0.00039851111347386344
-0.0007860254317228953   -0.023573450203103637   -0.000480238580411
-0.0011367701332992144   -0.026345616478693566   -0.0006034739731100805
-0.0007799483360800922   -0.02353864024238803   -0.0004978097857402203
0.00024057477424797098   -0.026238938955226165   -0.0005873984157206449
-0.0011120481304501754   -0.026314168612529196   -0.0006296156073132651
-0.0007799483360800922   -0.02353864024238803   -0.0004978097857402203
-0.0011367701332992144   -0.026345616478693566   -0.0006034739731100805
0.00024057477424797098   -0.026238938955226165   -0.0005873984157206449
-0.0007799483360800922   -0.02353864024238803   -0.0004978097857402203
0.0009613002607818912   -0.023485138480229952   -0.0004444089393267772
0.0009293020358628595   -0.023522291578736147   -0.00039851111347386344
0.00024057477424797098   -0.026238938955226165   -0.0005873984157206449
-0.0007799483360800922   -0.02353864024238803   -0.0004978097857402203
0.0009293020358628595   -0.023522291578736147   -0.00039851111347386344
-0.0011367701332992144   -0.026345616478693566   -0.0006034739731100805
0.00024057477424797098   -0.026238938955226165   -0.0005873984157206449
0.0009613002607818912   -0.023485138480229952   -0.0004444089393267772
-0.0011120481304501754   -0.026314168612529196   -0.0006296156073132651
0.0003058666337326285   -0.02622351214971324   -0.0006453449947990913
0.0009613002607818912   -0.023485138480229952   -0.0004444089393267772
-0.0007799483360800922   -0.02353864024238803   -0.0004978097857402203
-0.0011120481304501754   -0.026314168612529196   -0.0006296156073132651
-0.000782392865885784   -0.02351668330322609   -0.0005125267111804077
0.0003058666337326285   -0.02622351214971324   -0.0006453449947990913
-0.0010972525716215896   -0.026299385486346298   -0.0006527445619455717
-0.000782392865885784   -0.02351668330322609   -0.0005125267111804077
-0.0011120481304501754   -0.026314168612529196   -0.0006296156073132651
0.0003058666337326285   -0.02622351214971324   -0.0006453449947990913
-0.000782392865885784   -0.02351668330322609   -0.0005125267111804077
0.0009944798538495667   -0.023461110671023133   -0.0004860480863351217
0.0009613002607818912   -0.023485138480229952   -0.0004444089393267772
0.0003058666337326285   -0.02622351214971324   -0.0006453449947990913
-0.000782392865885784   -0.02351668330322609   -0.0005125267111804077
0.0009613002607818912   -0.023485138480229952   -0.0004444089393267772
-0.0011120481304501754   -0.026314168612529196   -0.0006296156073132651
-0.0011583696495198218   -0.02639468049389073   -0.0005739886613549803
-0.0007907713150991399   -0.023622259244037127   -0.0004595894429875654
-0.0023757620429060073   -0.026406844854537058   -0.0006696569300458634
-0.0011367701332992144   -0.026345616478693566   -0.0006034739731100805
-0.0007907713150991399   -0.023622259244037127   -0.0004595894429875654
-0.0024001242402240867   -0.02362272393693381   -0.0005509345271245406
-0.0023757620429060073   -0.026406844854537058   -0.0006696569300458634
-0.00240020712183991   -0.023581582606652475   -0.000548972257690169
-0.0011367701332992144   -0.026345616478693566   -0.0006034739731100805
-0.002359976335755551   -0.026364815913125717   -0.0006703093531048316
-0.00240020712183991   -0.023581582606652475   -0.000548972257690169
-0.0023757620429060073   -0.026406844854537058   -0.0006696569300458634
-0.0011367701332992144   -0.026345616478693566   -0.0006034739731100805
-0.00240020712183991   -0.023581582606652475   -0.000548972257690169
-0.0007860254317228953   -0.023573450203103637   -0.000480238580411
-0.0007907713150991399   -0.023622259244037127   -0.0004595894429875654
-0.0011367701332992144   -0.026345616478693566   -0.0006034739731100805
-0.00240020712183991   -0.023581582606652475   -0.000548972257690169
-0.0007907713150991399   -0.023622259244037127   -0.0004595894429875654
-0.0023757620429060073   -0.026406844854537058   -0.0006696569300458634
-0.0011367701332992144   -0.026345616478693566   -0.0006034739731100805
-0.0007860254317228953   -0.023573450203103637   -0.000480238580411
-0.002359976335755551   -0.026364815913125717   -0.0006703093531048316
-0.0011120481304501754   -0.026314168612529196   -0.0006296156073132651
-0.0007860254317228953   -0.023573450203103637   -0.000480238580411
-0.00240020712183991   -0.023581582606652475   -0.000548972257690169
-0.002359976335755551   -0.026364815913125717   -0.0006703093531048316
-0.0024001740621416075   -0.02355277389827252   -0.0005439384558078631
-0.0011120481304501754   -0.026314168612529196   -0.0006296156073132651
-0.0023437273243481645   -0.026338545148534516   -0.0006677531016930613
-0.0024001740621416075   -0.02355277389827252   -0.0005439384558078631
-0.002359976335755551   -0.026364815913125717   -0.0006703093531048316
-0.0011120481304501754   -0.026314168612529196   -0.0006296156073132651
-0.0024001740621416075   -0.02355277389827252   -0.0005439384558078631
-0.0007799483360800922   -0.02353864024238803   -0.0004978097857402203
-0.0007860254317228953   -0.023573450203103637   -0.000480238580411
-0.0011120481304501754   -0.026314168612529196   -0.0006296156073132651
-0.0024001740621416075   -0.02355277389827252   -0.0005439384558078631
-0.0007860254317228953   -0.023573450203103637   -0.000480238580411
-0.002359976335755551   -0.026364815913125717   -0.0006703093531048316
-0.0011120481304501754   -0.026314168612529196   -0.0006296156073132651
-0.0007799483360800922   -0.02353864024238803   -0.0004978097857402203
-0.0023437273243481645   -0.026338545148534516   -0.0006677531016930613
-0.0010972525716215896   -0.026299385486346298   -0.0006527445619455717
-0.0007799483360800922   -0.02353864024238803   -0.0004978097857402203
-0.0024001740621416075   -0.02355277389827252   -0.0005439384558078631
-0.0023437273243481645   -0.026338545148534516   -0.0006677531016930613
-0.002402278241636758   -0.023536321959715736   -0.0005359997512709157
-0.0010972525716215896   -0.026299385486346298   -0.0006527445619455717
-0.0023295216138781035   -0.026327787195567158   -0.0006622097591524047
-0.002402278241636758   -0.023536321959715736   -0.0005359997512709157
-0.0023437273243481645   -0.026338545148534516   -0.0006677531016930613
-0.0010972525716215896   -0.026299385486346298   -0.0006527445619455717
-0.002402278241636758   -0.023536321959715736   -0.0005359997512709157
-0.000782392865885784   -0.02351668330322609   -0.0005125267111804077
-0.0007799483360800922   -0.02353864024238803   -0.0004978097857402203
-0.0010972525716215896   -0.026299385486346298   -0.0006527445619455717
-0.002402278241636758   -0.023536321959715736   -0.0005359997512709157
-0.0007799483360800922   -0.02353864024238803   -0.0004978097857402203
-0.0023437273243481645   -0.026338545148534516   -0.0006677531016930613
-0.0023757620429060073   -0.026406844854537058   -0.0006696569300458634
-0.0024001242402240867   -0.02362272393693381   -0.0005509345271245406
-0.0035745338947182534   -0.02636783493622328   -0.0007559758971817648
-0.002359976335755551   -0.026364815913125717   -0.0006703093531048316
-0.0024001242402240867   -0.02362272393693381   -0.0005509345271245406
-0.003982623493460585   -0.023582475082807197   -0.0006308016354666586
-0.0035745338947182534   -0.02636783493622328   -0.0007559758971817648
-0.003983914368640677   -0.023548023316070227   -0.000606507063593866
-0.002359976335755551   -0.026364815913125717   -0.0006703093531048316
-0.003559846735240937   -0.02633160362534979   -0.0007284841822489793
-0.003983914368640677   -0.023548023316070227   -0.000606507063593866
-0.0035745338947182534   -0.02636783493622328   -0.0007559758971817648
-0.002359976335755551   -0.026364815913125717   -0.0006703093531048316
-0.003983914368640677   -0.023548023316070227   -0.000606507063593866
-0.00240020712183991   -0.023581582606652475   -0.000548972257690169
-0.0024001242402240867   -0.02362272393693381   -0.0005509345271245406
-0.002359976335755551   -0.026364815913125717   -0.0006703093531048316
-0.003983914368640677   -0.023548023316070227   -0.000606507063593866
-0.0024001242402240867   -0.02362272393693381   -0.0005509345271245406
-0.0035745338947182534   -0.02636783493622328   -0.0007559758971817648
-0.002359976335755551   -0.026364815913125717   -0.0006703093531048316
-0.00240020712183991   -0.023581582606652475   -0.000548972257690169
-0.003559846735240937   -0.02633160362534979   -0.0007284841822489793
-0.0023437273243481645   -0.026338545148534516   -0.0006677531016930613
-0.00240020712183991   -0.023581582606652475   -0.000548972257690169
-0.003983914368640677   -0.023548023316070227   -0.000606507063593866
-0.003559846735240937   -0.02633160362534979   -0.0007284841822489793
-0.003982521286228223   -0.023525795761365674   -0.0005792044191974496
-0.0023437273243481645   -0.026338545148534516   -0.0006677531016930613
-0.0035420896799350492   -0.026310959802831272   -0.0006978578220358206
-0.003982521286228223   -0.023525795761365674   -0.0005792044191974496
-0.003559846735240937   -0.02633160362534979   -0.0007284841822489793
-0.0023437273243481645   -0.026338545148534516   -0.0006677531016930613
-0.003982521286228223   -0.023525795761365674   -0.0005792044191974496
-0.0024001740621416075   -0.02355277389827252   -0.0005439384558078631
-0.00240020712183991   -0.023581582606652475   -0.000548972257690169
-0.0023437273243481645   -0.026338545148534516   -0.0006677531016930613
-0.003982521286228223   -0.023525795761365674   -0.0005792044191974496
-0.00240020712183991   -0.023581582606652475   -0.000548972257690169
-0.003559846735240937   -0.02633160362534979   -0.0007284841822489793
-0.0023437273243481645   -0.026338545148534516   -0.0006677531016930613
-0.0024001740621416075   -0.02355277389827252   -0.0005439384558078631
-0.0035420896799350492   -0.026310959802831272   -0.0006978578220358206
-0.0023295216138781035   -0.026327787195567158   -0.0006622097591524047
-0.0024001740621416075   -0.02355277389827252   -0.0005439384558078631
-0.003982521286228223   -0.023525795761365674   -0.0005792044191974496
-0.0035420896799350492   -0.026310959802831272   -0.0006978578220358206
-0.003981629367987829   -0.023515585086690383   -0.0005489795346394158
-0.0023295216138781035   -0.026327787195567158   -0.0006622097591524047
-0.00352485224507334   -0.026305206953126173   -0.0006641922719246356
-0.003981629367987829   -0.023515585086690383   -0.0005489795346394158
-0.0035420896799350492   -0.026310959802831272   -0.0006978578220358206
-0.0023295216138781035   -0.026327787195567158   -0.0006622097591524047
-0.003981629367987829   -0.023515585086690383   -0.0005489795346394158
-0.002402278241636758   -0.023536321959715736   -0.0005359997512709157
-0.0024001740621416075   -0.02355277389827252   -0.0005439384558078631
-0.0023295216138781035   -0.026327787195567158   -0.0006622097591524047
-0.003981629367987829   -0.023515585086690383   -0.0005489795346394158
-0.0024001740621416075   -0.02355277389827252   -0.0005439384558078631
-0.0035420896799350492   -0.026310959802831272   -0.0006978578220358206
-0.0035745338947182534   -0.02636783493622328   -0.0007559758971817648
-0.003982623493460585   -0.023582475082807197   -0.0006308016354666586
-0.004830110748635413   -0.02627896173131123   -0.0008327070983957052
-0.003559846735240937   -0.02633160362534979   -0.0007284841822489793
-0.003982623493460585   -0.023582475082807197   -0.0006308016354666586
-0.005614132327561235   -0.023502978146103526   -0.0006994110571441678
-0.004830110748635413   -0.02627896173131123   -0.0008327070983957052
-0.005612009966486709   -0.023474891545034873   -0.0006525087754621733
-0.003559846735240937   -0.02633160362534979   -0.0007284841822489793
-0.004810775351055075   -0.026248216529396348   -0.0007770116090585763
-0.005612009966486709   -0.023474891545034873   -0.0006525087754621733
-0.004830110748635413   -0.02627896173131123   -0.0008327070983957052
-0.003559846735240937   -0.02633160362534979   -0.0007284841822489793
-0.005612009966486709   -0.023474891545034873   -0.0006525087754621733
-0.003983914368640677   -0.023548023316070227   -0.000606507063593866
-0.003982623493460585   -0.023582475082807197   -0.0006308016354666586
-0.003559846735240937   -0.02633160362534979   -0.0007284841822489793
-0.005612009966486709   -0.023474891545034873   -0.0006525087754621733
-0.003982623493460585   -0.023582475082807197   -0.0006308016354666586
-0.004830110748635413   -0.02627896173131123   -0.0008327070983957052
-0.003559846735240937   -0.02633160362534979   -0.0007284841822489793
-0.003983914368640677   -0.023548023316070227   -0.000606507063593866
-0.004810775351055075   -0.026248216529396348   -0.0007770116090585763
-0.0035420896799350492   -0.026310959802831272   -0.0006978578220358206
-0.003983914368640677   -0.023548023316070227   -0.000606507063593866
-0.005612009966486709   -0.023474891545034873   -0.0006525087754621733
-0.004810775351055075   -0.026248216529396348   -0.0007770116090585763
-0.0055980632801074575   -0.02345863341375797   -0.0006030544188954058
-0.0035420896799350492   -0.026310959802831272   -0.0006978578220358206
-0.004777912319690769   -0.026232673456091444   -0.0007186702121951753
-0.0055980632801074575   -0.02345863341375797   -0.0006030544188954058
-0.004810775351055075   -0.026248216529396348   -0.0007770116090585763
-0.0035420896799350492   -0.026310959802831272   -0.0006978578220358206
-0.0055980632801074575   -0.02345863341375797   -0.0006030544188954058
-0.003982521286228223   -0.023525795761365674   -0.0005792044191974496
-0.003983914368640677   -0.023548023316070227   -0.000606507063593866
-0.0035420896799350492   -0.026310959802831272   -0.0006978578220358206
-0.0055980632801074575   -0.02345863341375797   -0.0006030544188954058
-0.003983914368640677   -0.023548023316070227   -0.000606507063593866
-0.004810775351055075   -0.026248216529396348   -0.0007770116090585763
-0.0035420896799350492   -0.026310959802831272   -0.0006978578220358206
-0.003982521286228223   -0.023525795761365674   -0.0005792044191974496
-0.004777912319690769   -0.026232673456091444   -0.0007186702121951753
-0.00352485224507334   -0.026305206953126173   -0.0006641922719246356
-0.003982521286228223   -0.023525795761365674   -0.0005792044191974496
-0.0055980632801074575   -0.02345863341375797   -0.0006030544188954058
-0.004777912319690769   -0.026232673456091444   -0.0007186702121951753
-0.0055888038061285596   -0.023455409706648344   -0.000550438891960351
-0.00352485224507334   -0.026305206953126173   -0.0006641922719246356
-0.0047513951094257205   -0.02623318898566132   -0.0006568431033115861
-0.0055888038061285596   -0.023455409706648344   -0.000550438891960351
-0.004777912319690769   -0.026232673456091444   -0.0007186702121951753
-0.00352485224507334   -0.026305206953126173   -0.0006641922719246356
-0.0055888038061285596   -0.023455409706648344   -0.000550438891960351
-0.003981629367987829   -0.023515585086690383   -0.0005489795346394158
-0.003982521286228223   -0.023525795761365674   -0.0005792044191974496
-0.00352485224507334   -0.026305206953126173   -0.0006641922719246356
-0.0055888038061285596   -0.023455409706648344   -0.000550438891960351
-0.003982521286228223   -0.023525795761365674   -0.0005792044191974496
-0.004777912319690769   -0.026232673456091444   -0.0007186702121951753
-0.004830110748635413   -0.02627896173131123   -0.0008327070983957052
-0.005614132327561235   -0.023502978146103526   -0.0006994110571441678
-0.006294052226229385   -0.02615051446419655   -0.0009046881154240585
-0.004810775351055075   -0.026248216529396348   -0.0007770116090585763
-0.005614132327561235   -0.023502978146103526   -0.0006994110571441678
-0.007436622459516144   -0.023392911727278594   -0.0007615226162147243
-0.006294052226229385   -0.02615051446419655   -0.0009046881154240585
-0.007367110964175932   -0.02336522650460116   -0.0006896257193673457
-0.004810775351055075   -0.026248216529396348   -0.0007770116090585763
-0.006193528991997456   -0.026118248870302486   -0.0008174084452699666
-0.007367110964175932   -0.02336522650460116   -0.0006896257193673457
-0.006294052226229385   -0.02615051446419655   -0.0009046881154240585
-0.004810775351055075   -0.026248216529396348   -0.0007770116090585763
-0.007367110964175932   -0.02336522650460116   -0.0006896257193673457
-0.005612009966486709   -0.023474891545034873   -0.0006525087754621733
-0.005614132327561235   -0.023502978146103526   -0.0006994110571441678
-0.004810775351055075   -0.026248216529396348   -0.0007770116090585763
-0.007367110964175932   -0.02336522650460116   -0.0006896257193673457
-0.005614132327561235   -0.023502978146103526   -0.0006994110571441678
-0.006294052226229385   -0.02615051446419655   -0.0009046881154240585
-0.004810775351055075   -0.026248216529396348   -0.0007770116090585763
-0.005612009966486709   -0.023474891545034873   -0.0006525087754621733
-0.006193528991997456   -0.026118248870302486   -0.0008174084452699666
-0.004777912319690769   -0.026232673456091444   -0.0007186702121951753
-0.005612009966486709   -0.023474891545034873   -0.0006525087754621733
-0.007367110964175932   -0.02336522650460116   -0.0006896257193673457
-0.006193528991997456   -0.026118248870302486   -0.0008174084452699666
-0.007307842473302555   -0.023351153609744296   -0.0006134224892325566
-0.004777912319690769   -0.026232673456091444   -0.0007186702121951753
-0.006106565466528565   -0.026104091951922655   -0.0007257454802475497
-0.007307842473302555   -0.023351153609744296   -0.0006134224892325566
-0.006193528991997456   -0.026118248870302486   -0.0008174084452699666
-0.004777912319690769   -0.026232673456091444   -0.0007186702121951753
-0.007307842473302555   -0.023351153609744296   -0.0006134224892325566
-0.0055980632801074575   -0.02345863341375797   -0.0006030544188954058
-0.005612009966486709   -0.023474891545034873   -0.0006525087754621733
-0.004777912319690769   -0.026232673456091444   -0.0007186702121951753
-0.007307842473302555   -0.023351153609744296   -0.0006134224892325566
-0.005612009966486709   -0.023474891545034873   -0.0006525087754621733
-0.006193528991997456   -0.026118248870302486   -0.0008174084452699666
-0.004777912319690769   -0.026232673456091444   -0.0007186702121951753
-0.0055980632801074575   -0.02345863341375797   -0.0006030544188954058
-0.006106565466528565   -0.026104091951922655   -0.0007257454802475497
-0.0047513951094257205   -0.02623318898566132   -0.0006568431033115861
-0.0055980632801074575   -0.02345863341375797   -0.0006030544188954058
-0.007307842473302555   -0.023351153609744296   -0.0006134224892325566
-0.006106565466528565   -0.026104091951922655   -0.0007257454802475497
-0.007222554997791521   -0.023357688348926573   -0.0005335111332801445
-0.0047513951094257205   -0.02623318898566132   -0.0006568431033115861
-0.00598952342164227   -0.02611440957590562   -0.0006302793881439368
-0.007222554997791521   -0.023357688348926573   -0.0005335111332801445
-0.006106565466528565   -0.026104091951922655   -0.0007257454802475497
-0.0047513951094257205   -0.02623318898566132   -0.0006568431033115861
-0.007222554997791521   -0.023357688348926573   -0.0005335111332801445
-0.0055888038061285596   -0.023455409706648344   -0.000550438891960351
-0.0055980632801074575   -0.02345863341375797   -0.0006030544188954058
-0.0047513951094257205   -0.02623318898566132   -0.0006568431033115861
-0.007222554997791521   -0.023357688348926573   -0.0005335111332801445
-0.0055980632801074575   -0.02345863341375797   -0.0006030544188954058
-0.006106565466528565   -0.026104091951922655   -0.0007257454802475497
0.0008795857559969028   -0.023579967482627587   -0.00034825853502294435
0.0014244354986120051   -0.02025604595778445   -0.0002322795079328574
-0.0007907713150991399   -0.023622259244037127   -0.0004595894429875654
0.0009293020358628595   -0.023522291578736147   -0.00039851111347386344
0.0014244354986120051   -0.02025604595778445   -0.0002322795079328574
-0.0005643126635145931   -0.020277355316751736   -0.000336977641100338
-0.0007907713150991399   -0.023622259244037127   -0.0004595894429875654
-0.000573198453730005   -0.02022976930678795   -0.0003483409307787557
0.0009293020358628595   -0.023522291578736147   -0.00039851111347386344
-0.0007860254317228953   -0.023573450203103637   -0.000480238580411
-0.000573198453730005   -0.02022976930678795   -0.0003483409307787557
-0.0007907713150991399   -0.023622259244037127   -0.0004595894429875654
0.0009293020358628595   -0.023522291578736147   -0.00039851111347386344
-0.000573198453730005   -0.02022976930678795   -0.0003483409307787557
0.001445036804832117   -0.020200472109559435   -0.00026565548598647676
0.0014244354986120051   -0.02025604595778445   -0.0002322795079328574
0.0009293020358628595   -0.023522291578736147   -0.00039851111347386344
-0.000573198453730005   -0.02022976930678795   -0.0003483409307787557
0.0014244354986120051   -0.02025604595778445   -0.0002322795079328574
-0.0007907713150991399   -0.023622259244037127   -0.0004595894429875654
0.0009293020358628595   -0.023522291578736147   -0.00039851111347386344
0.001445036804832117   -0.020200472109559435   -0.00026565548598647676
-0.0007860254317228953   -0.023573450203103637   -0.000480238580411
0.0009613002607818912   -0.023485138480229952   -0.0004444089393267772
0.001445036804832117   -0.020200472109559435   -0.00026565548598647676
-0.000573198453730005   -0.02022976930678795   -0.0003483409307787557
-0.0007860254317228953   -0.023573450203103637   -0.000480238580411
-0.0005824800755241963   -0.020192649253079804   -0.0003569334124008424
0.0009613002607818912   -0.023485138480229952   -0.0004444089393267772
-0.0007799483360800922   -0.02353864024238803   -0.0004978097857402203
-0.0005824800755241963   -0.020192649253079804   -0.0003569334124008424
-0.0007860254317228953   -0.023573450203103637   -0.000480238580411
0.0009613002607818912   -0.023485138480229952   -0.0004444089393267772
-0.0005824800755241963   -0.020192649253079804   -0.0003569334124008424
0.0014519922132005772   -0.020160632557512898   -0.00029493802598611995
0.001445036804832117   -0.020200472109559435   -0.00026565548598647676
0.0009613002607818912   -0.023485138480229952   -0.0004444089393267772
-0.0005824800755241963   -0.020192649253079804   -0.0003569334124008424
0.001445036804832117   -0.020200472109559435   -0.00026565548598647676
-0.0007860254317228953   -0.023573450203103637   -0.000480238580411
0.0009613002607818912   -0.023485138480229952   -0.0004444089393267772
0.0014519922132005772   -0.020160632557512898   -0.00029493802598611995
-0.0007799483360800922   -0.02353864024238803   -0.0004978097857402203
0.0009944798538495667   -0.023461110671023133   -0.0004860480863351217
0.0014519922132005772   -0.020160632557512898   -0.00029493802598611995
-0.0005824800755241963   -0.020192649253079804   -0.0003569334124008424
-0.0007799483360800922   -0.02353864024238803   -0.0004978097857402203
-0.0005987125594924094   -0.020164790643014113   -0.0003628474887849483
0.0009944798538495667   -0.023461110671023133   -0.0004860480863351217
-0.000782392865885784   -0.02351668330322609   -0.0005125267111804077
-0.0005987125594924094   -0.020164790643014113   -0.0003628474887849483
-0.0007799483360800922   -0.02353864024238803   -0.0004978097857402203
0.0009944798538495667   -0.023461110671023133   -0.0004860480863351217
-0.0005987125594924094   -0.020164790643014113   -0.0003628474887849483
0.001456683648455232   -0.020129276376291645   -0.00032032374755857983
0.0014519922132005772   -0.020160632557512898   -0.00029493802598611995
0.0009944798538495667   -0.023461110671023133   -0.0004860480863351217
-0.0005987125594924094   -0.020164790643014113   -0.0003628474887849483
0.0014519922132005772   -0.020160632557512898   -0.00029493802598611995
-0.0007799483360800922   -0.02353864024238803   -0.0004978097857402203
-0.0007907713150991399   -0.023622259244037127   -0.0004595894429875654
-0.0005643126635145931   -0.020277355316751736   -0.000336977641100338
-0.0024001242402240867   -0.02362272393693381   -0.0005509345271245406
-0.0007860254317228953   -0.023573450203103637   -0.000480238580411
-0.0005643126635145931   -0.020277355316751736   -0.000336977641100338
-0.0024719911524470665   -0.020267084434257288   -0.00042262967243794435
-0.0024001242402240867   -0.02362272393693381   -0.0005509345271245406
-0.0024846207706501196   -0.020227531327278288   -0.00041750549893765837
-0.0007860254317228953   -0.023573450203103637   -0.000480238580411
-0.00240020712183991   -0.023581582606652475   -0.000548972257690169
-0.0024846207706501196   -0.020227531327278288   -0.00041750549893765837
-0.0024001242402240867   -0.02362272393693381   -0.0005509345271245406
-0.0007860254317228953   -0.023573450203103637   -0.000480238580411
-0.0024846207706501196   -0.020227531327278288   -0.00041750549893765837
-0.000573198453730005   -0.02022976930678795   -0.0003483409307787557
-0.0005643126635145931   -0.020277355316751736   -0.000336977641100338
-0.0007860254317228953   -0.023573450203103637   -0.000480238580411
-0.0024846207706501196   -0.020227531327278288   -0.00041750549893765837
-0.0005643126635145931   -0.020277355316751736   -0.000336977641100338
-0.0024001242402240867   -0.02362272393693381   -0.0005509345271245406
-0.0007860254317228953   -0.023573450203103637   -0.000480238580411
-0.000573198453730005   -0.02022976930678795   -0.0003483409307787557
-0.00240020712183991   -0.023581582606652475   -0.000548972257690169
-0.0007799483360800922   -0.02353864024238803   -0.0004978097857402203
-0.000573198453730005   -0.02022976930678795   -0.0003483409307787557
-0.0024846207706501196   -0.020227531327278288   -0.00041750549893765837
-0.00240020712183991   -0.023581582606652475   -0.000548972257690169
-0.0024974267010698516   -0.02019694399954264   -0.0004095234764786263
-0.0007799483360800922   -0.02353864024238803   -0.0004978097857402203
-0.0024001740621416075   -0.02355277389827252   -0.0005439384558078631
-0.0024974267010698516   -0.02019694399954264   -0.0004095234764786263
-0.00240020712183991   -0.023581582606652475   -0.000548972257690169
-0.0007799483360800922   -0.02353864024238803   -0.0004978097857402203
-0.0024974267010698516   -0.02019694399954264   -0.0004095234764786263
-0.0005824800755241963   -0.020192649253079804   -0.0003569334124008424
-0.000573198453730005   -0.02022976930678795   -0.0003483409307787557
-0.0007799483360800922   -0.02353864024238803   -0.0004978097857402203
-0.0024974267010698516   -0.02019694399954264   -0.0004095234764786263
-0.000573198453730005   -0.02022976930678795   -0.0003483409307787557
-0.00240020712183991   -0.023581582606652475   -0.000548972257690169
-0.0007799483360800922   -0.02353864024238803   -0.0004978097857402203
-0.0005824800755241963   -0.020192649253079804   -0.0003569334124008424
-0.0024001740621416075   -0.02355277389827252   -0.0005439384558078631
-0.000782392865885784   -0.02351668330322609   -0.0005125267111804077
-0.0005824800755241963   -0.020192649253079804   -0.0003569334124008424
-0.0024974267010698516   -0.02019694399954264   -0.0004095234764786263
-0.0024001740621416075   -0.02355277389827252   -0.0005439384558078631
-0.0025122702641734817   -0.020175471919534255   -0.0003988281696010258
-0.000782392865885784   -0.02351668330322609   -0.0005125267111804077
-0.002402278241636758   -0.023536321959715736   -0.0005359997512709157
-0.0025122702641734817   -0.020175471919534255   -0.0003988281696010258
-0.0024001740621416075   -0.02355277389827252   -0.0005439384558078631
-0.000782392865885784   -0.02351668330322609   -0.0005125267111804077
-0.0025122702641734817   -0.020175471919534255   -0.0003988281696010258
-0.0005987125594924094   -0.020164790643014113   -0.0003628474887849483
-0.0005824800755241963   -0.020192649253079804   -0.0003569334124008424
-0.000782392865885784   -0.02351668330322609   -0.0005125267111804077
-0.0025122702641734817   -0.020175471919534255   -0.0003988281696010258
-0.0005824800755241963   -0.020192649253079804   -0.0003569334124008424
-0.0024001740621416075   -0.02355277389827252   -0.0005439384558078631
-0.0024001242402240867   -0.02362272393693381   -0.0005509345271245406
-0.0024719911524470665   -0.020267084434257288   -0.00042262967243794435
-0.003982623493460585   -0.023582475082807197   -0.0006308016354666586
-0.00240020712183991   -0.023581582606652475   -0.000548972257690169
-0.0024719911524470665   -0.020267084434257288   -0.00042262967243794435
-0.004347732161644321   -0.020227338635613146   -0.0004956575125922815
-0.003982623493460585   -0.023582475082807197   -0.0006308016354666586
-0.00436142510150038   -0.020195040056239438   -0.00047413918701134396
-0.00240020712183991   -0.023581582606652475   -0.000548972257690169
-0.003983914368640677   -0.023548023316070227   -0.000606507063593866
-0.00436142510150038   -0.020195040056239438   -0.00047413918701134396
-0.003982623493460585   -0.023582475082807197   -0.0006308016354666586
-0.00240020712183991   -0.023581582606652475   -0.000548972257690169
-0.00436142510150038   -0.020195040056239438   -0.00047413918701134396
-0.0024846207706501196   -0.020227531327278288   -0.00041750549893765837
-0.0024719911524470665   -0.020267084434257288   -0.00042262967243794435
-0.00240020712183991   -0.023581582606652475   -0.000548972257690169
-0.00436142510150038   -0.020195040056239438   -0.00047413918701134396
-0.0024719911524470665   -0.020267084434257288   -0.00042262967243794435
-0.003982623493460585   -0.023582475082807197   -0.0006308016354666586
-0.00240020712183991   -0.023581582606652475   -0.000548972257690169
-0.0024846207706501196   -0.020227531327278288   -0.00041750549893765837
-0.003983914368640677   -0.023548023316070227   -0.000606507063593866
-0.0024001740621416075   -0.02355277389827252   -0.0005439384558078631
-0.0024846207706501196   -0.020227531327278288   -0.00041750549893765837
-0.00436142510150038   -0.020195040056239438   -0.00047413918701134396
-0.003983914368640677   -0.023548023316070227   -0.000606507063593866
-0.004372722806327582   -0.020171622618676655   -0.0004498167898242354
-0.0024001740621416075   -0.02355277389827252   -0.0005439384558078631
-0.003982521286228223   -0.023525795761365674   -0.0005792044191974496
-0.004372722806327582   -0.020171622618676655   -0.0004498167898242354
-0.003983914368640677   -0.023548023316070227   -0.000606507063593866
-0.0024001740621416075   -0.02355277389827252   -0.0005439384558078631
-0.004372722806327582   -0.020171622618676655   -0.0004498167898242354
-0.0024974267010698516   -0.02019694399954264   -0.0004095234764786263
-0.0024846207706501196   -0.020227531327278288   -0.00041750549893765837
-0.0024001740621416075   -0.02355277389827252   -0.0005439384558078631
-0.004372722806327582   -0.020171622618676655   -0.0004498167898242354
-0.0024846207706501196   -0.020227531327278288   -0.00041750549893765837
-0.003983914368640677   -0.023548023316070227   -0.000606507063593866
-0.0024001740621416075   -0.02355277389827252   -0.0005439384558078631
-0.0024974267010698516   -0.02019694399954264   -0.0004095234764786263
-0.003982521286228223   -0.023525795761365674   -0.0005792044191974496
-0.002402278241636758   -0.023536321959715736   -0.0005359997512709157
-0.0024974267010698516   -0.02019694399954264   -0.0004095234764786263
-0.004372722806327582   -0.020171622618676655   -0.0004498167898242354
-0.003982521286228223   -0.023525795761365674   -0.0005792044191974496
-0.004384364396677291   -0.020157046745615196   -0.000422770725063271
-0.002402278241636758   -0.023536321959715736   -0.0005359997512709157
-0.003981629367987829   -0.023515585086690383   -0.0005489795346394158
-0.004384364396677291   -0.020157046745615196   -0.000422770725063271
-0.003982521286228223   -0.023525795761365674   -0.0005792044191974496
-0.002402278241636758   -0.023536321959715736   -0.0005359997512709157
-0.004384364396677291   -0.020157046745615196   -0.000422770725063271
-0.0025122702641734817   -0.020175471919534255   -0.0003988281696010258
-0.0024974267010698516   -0.02019694399954264   -0.0004095234764786263
-0.002402278241636758   -0.023536321959715736   -0.0005359997512709157
-0.004384364396677291   -0.020157046745615196   -0.000422770725063271
-0.0024974267010698516   -0.02019694399954264   -0.0004095234764786263
-0.003982521286228223   -0.023525795761365674   -0.0005792044191974496
-0.003982623493460585   -0.023582475082807197   -0.0006308016354666586
-0.004347732161644321   -0.020227338635613146   -0.0004956575125922815
-0.005614132327561235   -0.023502978146103526   -0.0006994110571441678
-0.003983914368640677   -0.023548023316070227   -0.000606507063593866
-0.004347732161644321   -0.020227338635613146   -0.0004956575125922815
-0.0062680506564133385   -0.020158884043986237   -0.0005563966373998819
-0.005614132327561235   -0.023502978146103526   -0.0006994110571441678
-0.006279259778403085   -0.020133641043466283   -0.0005182544626315831
-0.003983914368640677   -0.023548023316070227   -0.000606507063593866
-0.005612009966486709   -0.023474891545034873   -0.0006525087754621733
-0.006279259778403085   -0.020133641043466283   -0.0005182544626315831
-0.005614132327561235   -0.023502978146103526   -0.0006994110571441678
-0.003983914368640677   -0.023548023316070227   -0.000606507063593866
-0.006279259778403085   -0.020133641043466283   -0.0005182544626315831
-0.00436142510150038   -0.020195040056239438   -0.00047413918701134396
-0.004347732161644321   -0.020227338635613146   -0.0004956575125922815
-0.003983914368640677   -0.023548023316070227   -0.000606507063593866
-0.006279259778403085   -0.020133641043466283   -0.0005182544626315831
-0.004347732161644321   -0.020227338635613146   -0.0004956575125922815
-0.005614132327561235   -0.023502978146103526   -0.0006994110571441678
-0.003983914368640677   -0.023548023316070227   -0.000606507063593866
-0.00436142510150038   -0.020195040056239438   -0.00047413918701134396
-0.005612009966486709   -0.023474891545034873   -0.0006525087754621733
-0.003982521286228223   -0.023525795761365674   -0.0005792044191974496
-0.00436142510150038   -0.020195040056239438   -0.00047413918701134396
-0.006279259778403085   -0.020133641043466283   -0.0005182544626315831
-0.005612009966486709   -0.023474891545034873   -0.0006525087754621733
-0.006280290868994209   -0.020116785311238408   -0.000477695121167186
-0.003982521286228223   -0.023525795761365674   -0.0005792044191974496
-0.0055980632801074575   -0.02345863341375797   -0.0006030544188954058
-0.006280290868994209   -0.020116785311238408   -0.000477695121167186
-0.005612009966486709   -0.023474891545034873   -0.0006525087754621733
-0.003982521286228223   -0.023525795761365674   -0.0005792044191974496
-0.006280290868994209   -0.020116785311238408   -0.000477695121167186
-0.004372722806327582   -0.020171622618676655   -0.0004498167898242354
-0.00436142510150038   -0.020195040056239438   -0.00047413918701134396
-0.003982521286228223   -0.023525795761365674   -0.0005792044191974496
-0.006280290868994209   -0.020116785311238408   -0.000477695121167186
-0.00436142510150038   -0.020195040056239438   -0.00047413918701134396
-0.005612009966486709   -0.023474891545034873   -0.0006525087754621733
-0.003982521286228223   -0.023525795761365674   -0.0005792044191974496
-0.004372722806327582   -0.020171622618676655   -0.0004498167898242354
-0.0055980632801074575   -0.02345863341375797   -0.0006030544188954058
-0.003981629367987829   -0.023515585086690383   -0.0005489795346394158
-0.004372722806327582   -0.020171622618676655   -0.0004498167898242354
-0.006280290868994209   -0.020116785311238408   -0.000477695121167186
-0.0055980632801074575   -0.02345863341375797   -0.0006030544188954058
-0.006284306769861455   -0.020109577317896008   -0.00043420322118582755
-0.003981629367987829   -0.023515585086690383   -0.0005489795346394158
-0.0055888038061285596   -0.023455409706648344   -0.000550438891960351
-0.006284306769861455   -0.020109577317896008   -0.00043420322118582755
-0.0055980632801074575   -0.02345863341375797   -0.0006030544188954058
-0.003981629367987829   -0.023515585086690383   -0.0005489795346394158
-0.006284306769861455   -0.020109577317896008   -0.00043420322118582755
-0.004384364396677291   -0.020157046745615196   -0.000422770725063271
-0.004372722806327582   -0.020171622618676655   -0.0004498167898242354
-0.003981629367987829   -0.023515585086690383   -0.0005489795346394158
-0.006284306769861455   -0.020109577317896008   -0.00043420322118582755
-0.004372722806327582   -0.020171622618676655   -0.0004498167898242354
-0.0055980632801074575   -0.02345863341375797   -0.0006030544188954058
-0.005614132327561235   -0.023502978146103526   -0.0006994110571441678
-0.0062680506564133385   -0.020158884043986237   -0.0005563966373998819
-0.007436622459516144   -0.023392911727278594   -0.0007615226162147243
-0.005612009966486709   -0.023474891545034873   -0.0006525087754621733
-0.0062680506564133385   -0.020158884043986237   -0.0005563966373998819
-0.008362812394138018   -0.02006860734188038   -0.0006083090975717965
-0.007436622459516144   -0.023392911727278594   -0.0007615226162147243
-0.008321281272548435   -0.020045543264901728   -0.0005524383164533707
-0.005612009966486709   -0.023474891545034873   -0.0006525087754621733
-0.007367110964175932   -0.02336522650460116   -0.0006896257193673457
-0.008321281272548435   -0.020045543264901728   -0.0005524383164533707
-0.007436622459516144   -0.023392911727278594   -0.0007615226162147243
-0.005612009966486709   -0.023474891545034873   -0.0006525087754621733
-0.008321281272548435   -0.020045543264901728   -0.0005524383164533707
-0.006279259778403085   -0.020133641043466283   -0.0005182544626315831
-0.0062680506564133385   -0.020158884043986237   -0.0005563966373998819
-0.005612009966486709   -0.023474891545034873   -0.0006525087754621733
-0.008321281272548435   -0.020045543264901728   -0.0005524383164533707
-0.0062680506564133385   -0.020158884043986237   -0.0005563966373998819
-0.007436622459516144   -0.023392911727278594   -0.0007615226162147243
-0.005612009966486709   -0.023474891545034873   -0.0006525087754621733
-0.006279259778403085   -0.020133641043466283   -0.0005182544626315831
-0.007367110964175932   -0.02336522650460116   -0.0006896257193673457
-0.0055980632801074575   -0.02345863341375797   -0.0006030544188954058
-0.006279259778403085   -0.020133641043466283   -0.0005182544626315831
-0.008321281272548435   -0.020045543264901728   -0.0005524383164533707
-0.007367110964175932   -0.02336522650460116   -0.0006896257193673457
-0.008286354561193065   -0.020031476645919612   -0.0004923373870556328
-0.0055980632801074575   -0.02345863341375797   -0.0006030544188954058
-0.007307842473302555   -0.023351153609744296   -0.0006134224892325566
-0.008286354561193065   -0.020031476645919612   -0.0004923373870556328
-0.007367110964175932   -0.02336522650460116   -0.0006896257193673457
-0.0055980632801074575   -0.02345863341375797   -0.0006030544188954058
-0.008286354561193065   -0.020031476645919612   -0.0004923373870556328
-0.006280290868994209   -0.020116785311238408   -0.000477695121167186
-0.006279259778403085   -0.020133641043466283   -0.0005182544626315831
-0.0055980632801074575   -0.02345863341375797   -0.0006030544188954058
-0.008286354561193065   -0.020031476645919612   -0.0004923373870556328
-0.006279259778403085   -0.020133641043466283   -0.0005182544626315831
-0.007367110964175932   -0.02336522650460116   -0.0006896257193673457
-0.0055980632801074575   -0.02345863341375797   -0.0006030544188954058
-0.006280290868994209   -0.020116785311238408   -0.000477695121167186
-0.007307842473302555   -0.023351153609744296   -0.0006134224892325566
-0.0055888038061285596   -0.023455409706648344   -0.000550438891960351
-0.006280290868994209   -0.020116785311238408   -0.000477695121167186
-0.008286354561193065   -0.020031476645919612   -0.0004923373870556328
-0.007307842473302555   -0.023351153609744296   -0.0006134224892325566
-0.008229241911956288   -0.0200337262663986   -0.0004285366608029249
-0.0055888038061285596   -0.023455409706648344   -0.000550438891960351
-0.007222554997791521   -0.023357688348926573   -0.0005335111332801445
-0.008229241911956288   -0.0200337262663986   -0.0004285366608029249
-0.007307842473302555   -0.023351153609744296   -0.0006134224892325566
-0.0055888038061285596   -0.023455409706648344   -0.000550438891960351
-0.008229241911956288   -0.0200337262663986   -0.0004285366608029249
-0.006284306769861455   -0.020109577317896008   -0.00043420322118582755
-0.006280290868994209   -0.020116785311238408   -0.000477695121167186
-0.0055888038061285596   -0.023455409706648344   -0.000550438891960351
-0.008229241911956288   -0.0200337262663986   -0.0004285366608029249
-0.006280290868994209   -0.020116785311238408   -0.000477695121167186
-0.007307842473302555   -0.023351153609744296   -0.0006134224892325566
0.0014244354986120051   -0.02025604595778445   -0.0002322795079328574
0.0017334722164187714   -0.01651292535877388   -0.0001191811088636797
-0.0005643126635145931   -0.020277355316751736   -0.000336977641100338
0.001445036804832117   -0.020200472109559435   -0.00026565548598647676
0.0017334722164187714   -0.01651292535877388   -0.0001191811088636797
-0.00048099807218989415   -0.016513297811070256   -0.00021608054284652867
-0.0005643126635145931   -0.020277355316751736   -0.000336977641100338
-0.0005001834845643804   -0.0164673505771923   -0.00021795763579033443
0.001445036804832117   -0.020200472109559435   -0.00026565548598647676
-0.000573198453730005   -0.02022976930678795   -0.0003483409307787557
-0.0005001834845643804   -0.0164673505771923   -0.00021795763579033443
-0.0005643126635145931   -0.020277355316751736   -0.000336977641100338
0.001445036804832117   -0.020200472109559435   -0.00026565548598647676
-0.0005001834845643804   -0.0164673505771923   -0.00021795763579033443
0.0017285408428002575   -0.016459783067349024   -0.00013572475859500088
0.0017334722164187714   -0.01651292535877388   -0.0001191811088636797
0.001445036804832117   -0.020200472109559435   -0.00026565548598647676
-0.0005001834845643804   -0.0164673505771923   -0.00021795763579033443
0.0017334722164187714   -0.01651292535877388   -0.0001191811088636797
-0.0005643126635145931   -0.020277355316751736   -0.000336977641100338
0.001445036804832117   -0.020200472109559435   -0.00026565548598647676
0.0017285408428002575   -0.016459783067349024   -0.00013572475859500088
-0.000573198453730005   -0.02022976930678795   -0.0003483409307787557
0.0014519922132005772   -0.020160632557512898   -0.00029493802598611995
0.0017285408428002575   -0.016459783067349024   -0.00013572475859500088
-0.0005001834845643804   -0.0164673505771923   -0.00021795763579033443
-0.000573198453730005   -0.02022976930678795   -0.0003483409307787557
-0.0005215135048172492   -0.016428244542312006   -0.00021735498407859062
0.0014519922132005772   -0.020160632557512898   -0.00029493802598611995
-0.0005824800755241963   -0.020192649253079804   -0.0003569334124008424
-0.0005215135048172492   -0.016428244542312006   -0.00021735498407859062
-0.000573198453730005   -0.02022976930678795   -0.0003483409307787557
0.0014519922132005772   -0.020160632557512898   -0.00029493802598611995
-0.0005215135048172492   -0.016428244542312006   -0.00021735498407859062
0.001713826182502291   -0.016417617768360163   -0.00014829365190048365
0.0017285408428002575   -0.016459783067349024   -0.00013572475859500088
0.0014519922132005772   -0.020160632557512898   -0.00029493802598611995
-0.0005215135048172492   -0.016428244542312006   -0.00021735498407859062
0.0017285408428002575   -0.016459783067349024   -0.00013572475859500088
-0.000573198453730005   -0.02022976930678795   -0.0003483409307787557
0.0014519922132005772   -0.020160632557512898   -0.00029493802598611995
0.001713826182502291   -0.016417617768360163   -0.00014829365190048365
-0.0005824800755241963   -0.020192649253079804   -0.0003569334124008424
0.001456683648455232   -0.020129276376291645   -0.00032032374755857983
0.001713826182502291   -0.016417617768360163   -0.00014829365190048365
-0.0005215135048172492   -0.016428244542312006   -0.00021735498407859062
-0.0005824800755241963   -0.020192649253079804   -0.0003569334124008424
-0.0005482083510777303   -0.016394930904128937   -0.00021417482494122305
0.001456683648455232   -0.020129276376291645   -0.00032032374755857983
-0.0005987125594924094   -0.020164790643014113   -0.0003628474887849483
-0.0005482083510777303   -0.016394930904128937   -0.00021417482494122305
-0.0005824800755241963   -0.020192649253079804   -0.0003569334124008424
0.001456683648455232   -0.020129276376291645   -0.00032032374755857983
-0.0005482083510777303   -0.016394930904128937   -0.00021417482494122305
0.0016930676079102034   -0.016379289513480257   -0.00015716559873222096
0.001713826182502291   -0.016417617768360163   -0.00014829365190048365
0.001456683648455232   -0.020129276376291645   -0.00032032374755857983
-0.0005482083510777303   -0.016394930904128937   -0.00021417482494122305
0.001713826182502291   -0.016417617768360163   -0.00014829365190048365
-0.0005824800755241963   -0.020192649253079804   -0.0003569334124008424
-0.0005643126635145931   -0.020277355316751736   -0.000336977641100338
-0.00048099807218989415   -0.016513297811070256   -0.00021608054284652867
-0.0024719911524470665   -0.020267084434257288   -0.00042262967243794435
-0.000573198453730005   -0.02022976930678795   -0.0003483409307787557
-0.00048099807218989415   -0.016513297811070256   -0.00021608054284652867
-0.0025938968841803336   -0.016493458706842237   -0.0002954121380130825
-0.0024719911524470665   -0.020267084434257288   -0.00042262967243794435
-0.002615599031998878   -0.016455584760568683   -0.00028683042143169186
-0.000573198453730005   -0.02022976930678795   -0.0003483409307787557
-0.0024846207706501196   -0.020227531327278288   -0.00041750549893765837
-0.002615599031998878   -0.016455584760568683   -0.00028683042143169186
-0.0024719911524470665   -0.020267084434257288   -0.00042262967243794435
-0.000573198453730005   -0.02022976930678795   -0.0003483409307787557
-0.002615599031998878   -0.016455584760568683   -0.00028683042143169186
-0.0005001834845643804   -0.0164673505771923   -0.00021795763579033443
-0.00048099807218989415   -0.016513297811070256   -0.00021608054284652867
-0.000573198453730005   -0.02022976930678795   -0.0003483409307787557
-0.002615599031998878   -0.016455584760568683   -0.00028683042143169186
-0.00048099807218989415   -0.016513297811070256   -0.00021608054284652867
-0.0024719911524470665   -0.020267084434257288   -0.00042262967243794435
-0.000573198453730005   -0.02022976930678795   -0.0003483409307787557
-0.0005001834845643804   -0.0164673505771923   -0.00021795763579033443
-0.0024846207706501196   -0.020227531327278288   -0.00041750549893765837
-0.0005824800755241963   -0.020192649253079804   -0.0003569334124008424
-0.0005001834845643804   -0.0164673505771923   -0.00021795763579033443
-0.002615599031998878   -0.016455584760568683   -0.00028683042143169186
-0.0024846207706501196   -0.020227531327278288   -0.00041750549893765837
-0.0026377527353442366   -0.0164232784371295   -0.0002756599135902299
-0.0005824800755241963   -0.020192649253079804   -0.0003569334124008424
-0.0024974267010698516   -0.02019694399954264   -0.0004095234764786263
-0.0026377527353442366   -0.0164232784371295   -0.0002756599135902299
-0.0024846207706501196   -0.020227531327278288   -0.00041750549893765837
-0.0005824800755241963   -0.020192649253079804   -0.0003569334124008424
-0.0026377527353442366   -0.0164232784371295   -0.0002756599135902299
-0.0005215135048172492   -0.016428244542312006   -0.00021735498407859062
-0.0005001834845643804   -0.0164673505771923   -0.00021795763579033443
-0.0005824800755241963   -0.020192649253079804   -0.0003569334124008424
-0.0026377527353442366   -0.0164232784371295   -0.0002756599135902299
-0.0005001834845643804   -0.0164673505771923   -0.00021795763579033443
-0.0024846207706501196   -0.020227531327278288   -0.00041750549893765837
-0.0005824800755241963   -0.020192649253079804   -0.0003569334124008424
-0.0005215135048172492   -0.016428244542312006   -0.00021735498407859062
-0.0024974267010698516   -0.02019694399954264   -0.0004095234764786263
-0.0005987125594924094   -0.020164790643014113   -0.0003628474887849483
-0.0005215135048172492   -0.016428244542312006   -0.00021735498407859062
-0.0026377527353442366   -0.0164232784371295   -0.0002756599135902299
-0.0024974267010698516   -0.02019694399954264   -0.0004095234764786263
-0.0026618163905871703   -0.016396861715970906   -0.0002620285848714021
-0.0005987125594924094   -0.020164790643014113   -0.0003628474887849483
-0.0025122702641734817   -0.020175471919534255   -0.0003988281696010258
-0.0026618163905871703   -0.016396861715970906   -0.0002620285848714021
-0.0024974267010698516   -0.02019694399954264   -0.0004095234764786263
-0.0005987125594924094   -0.020164790643014113   -0.0003628474887849483
-0.0026618163905871703   -0.016396861715970906   -0.0002620285848714021
-0.0005482083510777303   -0.016394930904128937   -0.00021417482494122305
-0.0005215135048172492   -0.016428244542312006   -0.00021735498407859062
-0.0005987125594924094   -0.020164790643014113   -0.0003628474887849483
-0.0026618163905871703   -0.016396861715970906   -0.0002620285848714021
-0.0005215135048172492   -0.016428244542312006   -0.00021735498407859062
-0.0024974267010698516   -0.02019694399954264   -0.0004095234764786263
-0.0024719911524470665   -0.020267084434257288   -0.00042262967243794435
-0.0025938968841803336   -0.016493458706842237   -0.0002954121380130825
-0.004347732161644321   -0.020227338635613146   -0.0004956575125922815
-0.0024846207706501196   -0.020227531327278288   -0.00041750549893765837
-0.0025938968841803336   -0.016493458706842237   -0.0002954121380130825
-0.004671104092491895   -0.016455856524176887   -0.0003619819371079495
-0.004347732161644321   -0.020227338635613146   -0.0004956575125922815
-0.0046935239318831685   -0.016425382289011338   -0.0003429799730059959
-0.0024846207706501196   -0.020227531327278288   -0.00041750549893765837
-0.00436142510150038   -0.020195040056239438   -0.00047413918701134396
-0.0046935239318831685   -0.016425382289011338   -0.0003429799730059959
-0.004347732161644321   -0.020227338635613146   -0.0004956575125922815
-0.0024846207706501196   -0.020227531327278288   -0.00041750549893765837
-0.0046935239318831685   -0.016425382289011338   -0.0003429799730059959
-0.002615599031998878   -0.016455584760568683   -0.00028683042143169186
-0.0025938968841803336   -0.016493458706842237   -0.0002954121380130825
-0.0024846207706501196   -0.020227531327278288   -0.00041750549893765837
-0.0046935239318831685   -0.016425382289011338   -0.0003429799730059959
-0.0025938968841803336   -0.016493458706842237   -0.0002954121380130825
-0.004347732161644321   -0.020227338635613146   -0.0004956575125922815
-0.0024846207706501196   -0.020227531327278288   -0.00041750549893765837
-0.002615599031998878   -0.016455584760568683   -0.00028683042143169186
-0.00436142510150038   -0.020195040056239438   -0.00047413918701134396
-0.0024974267010698516   -0.02019694399954264   -0.0004095234764786263
-0.002615599031998878   -0.016455584760568683   -0.00028683042143169186
-0.0046935239318831685   -0.016425382289011338   -0.0003429799730059959
-0.00436142510150038   -0.020195040056239438   -0.00047413918701134396
-0.004713826203892143   -0.01640043651220022   -0.000321451658011436
-0.0024974267010698516   -0.02019694399954264   -0.0004095234764786263
-0.004372722806327582   -0.020171622618676655   -0.0004498167898242354
-0.004713826203892143   -0.01640043651220022   -0.000321451658011436
-0.00436142510150038   -0.020195040056239438   -0.00047413918701134396
-0.0024974267010698516   -0.02019694399954264   -0.0004095234764786263
-0.004713826203892143   -0.01640043651220022   -0.000321451658011436
-0.0026377527353442366   -0.0164232784371295   -0.0002756599135902299
-0.002615599031998878   -0.016455584760568683   -0.00028683042143169186
-0.0024974267010698516   -0.02019694399954264   -0.0004095234764786263
-0.004713826203892143   -0.01640043651220022   -0.000321451658011436
-0.002615599031998878   -0.016455584760568683   -0.00028683042143169186
-0.00436142510150038   -0.020195040056239438   -0.00047413918701134396
-0.0024974267010698516   -0.02019694399954264   -0.0004095234764786263
-0.0026377527353442366   -0.0164232784371295   -0.0002756599135902299
-0.004372722806327582   -0.020171622618676655   -0.0004498167898242354
-0.0025122702641734817   -0.020175471919534255   -0.0003988281696010258
-0.0026377527353442366   -0.0164232784371295   -0.0002756599135902299
-0.004713826203892143   -0.01640043651220022   -0.000321451658011436
-0.004372722806327582   -0.020171622618676655   -0.0004498167898242354
-0.004734325956870109   -0.016381056433888853   -0.0002974908128333
-0.0025122702641734817   -0.020175471919534255   -0.0003988281696010258
-0.004384364396677291   -0.020157046745615196   -0.000422770725063271
-0.004734325956870109   -0.016381056433888853   -0.0002974908128333
-0.004372722806327582   -0.020171622618676655   -0.0004498167898242354
-0.0025122702641734817   -0.020175471919534255   -0.0003988281696010258
-0.004734325956870109   -0.016381056433888853   -0.0002974908128333
-0.0026618163905871703   -0.016396861715970906   -0.0002620285848714021
-0.0026377527353442366   -0.0164232784371295   -0.0002756599135902299
-0.0025122702641734817   -0.020175471919534255   -0.0003988281696010258
-0.004734325956870109   -0.016381056433888853   -0.0002974908128333
-0.0026377527353442366   -0.0164232784371295   -0.0002756599135902299
-0.004372722806327582   -0.020171622618676655   -0.0004498167898242354
-0.004347732161644321   -0.020227338635613146   -0.0004956575125922815
-0.004671104092491895   -0.016455856524176887   -0.0003619819371079495
-0.0062680506564133385   -0.020158884043986237   -0.0005563966373998819
-0.00436142510150038   -0.020195040056239438   -0.00047413918701134396
-0.004671104092491895   -0.016455856524176887   -0.0003619819371079495
-0.006789613453852274   -0.016399703257789836   -0.00041598127607555846
-0.0062680506564133385   -0.020158884043986237   -0.0005563966373998819
-0.006810358814228328   -0.01637667178469476   -0.0003864758340662583
-0.00436142510150038   -0.020195040056239438   -0.00047413918701134396
-0.006279259778403085   -0.020133641043466283   -0.0005182544626315831
-0.006810358814228328   -0.01637667178469476   -0.0003864758340662583
-0.0062680506564133385   -0.020158884043986237   -0.0005563966373998819
-0.00436142510150038   -0.020195040056239438   -0.00047413918701134396
-0.006810358814228328   -0.01637667178469476   -0.0003864758340662583
-0.0046935239318831685   -0.016425382289011338   -0.0003429799730059959
-0.004671104092491895   -0.016455856524176887   -0.0003619819371079495
-0.00436142510150038   -0.020195040056239438   -0.00047413918701134396
-0.006810358814228328   -0.01637667178469476   -0.0003864758340662583
-0.004671104092491895   -0.016455856524176887   -0.0003619819371079495
-0.0062680506564133385   -0.020158884043986237   -0.0005563966373998819
-0.00436142510150038   -0.020195040056239438   -0.00047413918701134396
-0.0046935239318831685   -0.016425382289011338   -0.0003429799730059959
-0.006279259778403085   -0.020133641043466283   -0.0005182544626315831
-0.004372722806327582   -0.020171622618676655   -0.0004498167898242354
-0.0046935239318831685   -0.016425382289011338   -0.0003429799730059959
-0.006810358814228328   -0.01637667178469476   -0.0003864758340662583
-0.006279259778403085   -0.020133641043466283   -0.0005182544626315831
-0.006822654625684398   -0.016358520698747433   -0.0003547793350743518
-0.004372722806327582   -0.020171622618676655   -0.0004498167898242354
-0.006280290868994209   -0.020116785311238408   -0.000477695121167186
-0.006822654625684398   -0.016358520698747433   -0.0003547793350743518
-0.006279259778403085   -0.020133641043466283   -0.0005182544626315831
-0.004372722806327582   -0.020171622618676655   -0.0004498167898242354
-0.006822654625684398   -0.016358520698747433   -0.0003547793350743518
-0.004713826203892143   -0.01640043651220022   -0.000321451658011436
-0.0046935239318831685   -0.016425382289011338   -0.0003429799730059959
-0.004372722806327582   -0.020171622618676655   -0.0004498167898242354
-0.006822654625684398   -0.016358520698747433   -0.0003547793350743518
-0.0046935239318831685   -0.016425382289011338   -0.0003429799730059959
-0.006279259778403085   -0.020133641043466283   -0.0005182544626315831
-0.004372722806327582   -0.020171622618676655   -0.0004498167898242354
-0.004713826203892143   -0.01640043651220022   -0.000321451658011436
-0.006280290868994209   -0.020116785311238408   -0.000477695121167186
-0.004384364396677291   -0.020157046745615196   -0.000422770725063271
-0.004713826203892143   -0.01640043651220022   -0.000321451658011436
-0.006822654625684398   -0.016358520698747433   -0.0003547793350743518
-0.006280290868994209   -0.020116785311238408   -0.000477695121167186
-0.006836300623783133   -0.016346431411325555   -0.00032044144551807255
-0.004384364396677291   -0.020157046745615196   -0.000422770725063271
-0.006284306769861455   -0.020109577317896008   -0.00043420322118582755
-0.006836300623783133   -0.016346431411325555   -0.00032044144551807255
-0.006280290868994209   -0.020116785311238408   -0.000477695121167186
-0.004384364396677291   -0.020157046745615196   -0.000422770725063271
-0.006836300623783133   -0.016346431411325555   -0.00032044144551807255
-0.004734325956870109   -0.016381056433888853   -0.0002974908128333
-0.004713826203892143   -0.01640043651220022   -0.000321451658011436
-0.004384364396677291   -0.020157046745615196   -0.000422770725063271
-0.006836300623783133   -0.016346431411325555   -0.00032044144551807255
-0.004713826203892143   -0.01640043651220022   -0.000321451658011436
-0.006280290868994209   -0.020116785311238408   -0.000477695121167186
-0.0062680506564133385   -0.020158884043986237   -0.0005563966373998819
-0.006789613453852274   -0.016399703257789836   -0.00041598127607555846
-0.008362812394138018   -0.02006860734188038   -0.0006083090975717965
-0.006279259778403085   -0.020133641043466283   -0.0005182544626315831
-0.006789613453852274   -0.016399703257789836   -0.00041598127607555846
-0.009064603293986444   -0.01633015852472501   -0.0004586693862060619
-0.008362812394138018   -0.02006860734188038   -0.0006083090975717965
-0.00904758380238253   -0.01631089624840949   -0.0004190773549634206
-0.006279259778403085   -0.020133641043466283   -0.0005182544626315831
-0.008321281272548435   -0.020045543264901728   -0.0005524383164533707
-0.00904758380238253   -0.01631089624840949   -0.0004190773549634206
-0.008362812394138018   -0.02006860734188038   -0.0006083090975717965
-0.006279259778403085   -0.020133641043466283   -0.0005182544626315831
-0.00904758380238253   -0.01631089624840949   -0.0004190773549634206
-0.006810358814228328   -0.01637667178469476   -0.0003864758340662583
-0.006789613453852274   -0.016399703257789836   -0.00041598127607555846
-0.006279259778403085   -0.020133641043466283   -0.0005182544626315831
-0.00904758380238253   -0.01631089624840949   -0.0004190773549634206
-0.006789613453852274   -0.016399703257789836   -0.00041598127607555846
-0.008362812394138018   -0.02006860734188038   -0.0006083090975717965
-0.006279259778403085   -0.020133641043466283   -0.0005182544626315831
-0.006810358814228328   -0.01637667178469476   -0.0003864758340662583
-0.008321281272548435   -0.020045543264901728   -0.0005524383164533707
-0.006280290868994209   -0.020116785311238408   -0.000477695121167186
-0.006810358814228328   -0.01637667178469476   -0.0003864758340662583
-0.00904758380238253   -0.01631089624840949   -0.0004190773549634206
-0.008321281272548435   -0.020045543264901728   -0.0005524383164533707
-0.00903369516341553   -0.01629595152975536   -0.0003754638862731622
-0.006280290868994209   -0.020116785311238408   -0.000477695121167186
-0.008286354561193065   -0.020031476645919612   -0.0004923373870556328
-0.00903369516341553   -0.01629595152975536   -0.0003754638862731622
-0.008321281272548435   -0.020045543264901728   -0.0005524383164533707
-0.006280290868994209   -0.020116785311238408   -0.000477695121167186
-0.00903369516341553   -0.01629595152975536   -0.0003754638862731622
-0.006822654625684398   -0.016358520698747433   -0.0003547793350743518
-0.006810358814228328   -0.01637667178469476   -0.0003864758340662583
-0.006280290868994209   -0.020116785311238408   -0.000477695121167186
-0.00903369516341553   -0.01629595152975536   -0.0003754638862731622
-0.006810358814228328   -0.01637667178469476   -0.0003864758340662583
-0.008321281272548435   -0.020045543264901728   -0.0005524383164533707
-0.006280290868994209   -0.020116785311238408   -0.000477695121167186
-0.006822654625684398   -0.016358520698747433   -0.0003547793350743518
-0.008286354561193065   -0.020031476645919612   -0.0004923373870556328
-0.006284306769861455   -0.020109577317896008   -0.00043420322118582755
-0.006822654625684398   -0.016358520698747433   -0.0003547793350743518
-0.00903369516341553   -0.01629595152975536   -0.0003754638862731622
-0.008286354561193065   -0.020031476645919612   -0.0004923373870556328
-0.00900168831795702   -0.016292676232075986   -0.0003282859060136724
-0.006284306769861455   -0.020109577317896008   -0.00043420322118582755
-0.008229241911956288   -0.0200337262663986   -0.0004285366608029249
-0.00900168831795702   -0.016292676232075986   -0.0003282859060136724
-0.008286354561193065   -0.020031476645919612   -0.0004923373870556328
-0.006284306769861455   -0.020109577317896008   -0.00043420322118582755
-0.00900168831795702   -0.016292676232075986   -0.0003282859060136724
-0.006836300623783133   -0.016346431411325555   -0.00032044144551807255
-0.006822654625684398   -0.016358520698747433   -0.0003547793350743518
-0.006284306769861455   -0.020109577317896008   -0.00043420322118582755
-0.00900168831795702   -0.016292676232075986   -0.0003282859060136724
-0.006822654625684398   -0.016358520698747433   -0.0003547793350743518
-0.008286354561193065   -0.020031476645919612   -0.0004923373870556328
0.0017334722164187714   -0.01651292535877388   -0.0001191811088636797
0.0018048311691160153   -0.01249899119173747   -2.0306741365355782e-05
-0.00048099807218989415   -0.016513297811070256   -0.00021608054284652867
0.0017285408428002575   -0.016459783067349024   -0.00013572475859500088
0.0018048311691160153   -0.01249899119173747   -2.0306741365355782e-05
-0.0005416251333360516   -0.012479120960327217   -0.00010704424084776584
-0.00048099807218989415   -0.016513297811070256   -0.00021608054284652867
-0.0005682492369740943   -0.012435277450964424   -9.935078194551969e-05
0.0017285408428002575   -0.016459783067349024   -0.00013572475859500088
-0.0005001834845643804   -0.0164673505771923   -0.00021795763579033443
-0.0005682492369740943   -0.012435277450964424   -9.935078194551969e-05
-0.00048099807218989415   -0.016513297811070256   -0.00021608054284652867
0.0017285408428002575   -0.016459783067349024   -0.00013572475859500088
-0.0005682492369740943   -0.012435277450964424   -9.935078194551969e-05
0.001777379235023542   -0.01244842970118212   -1.959686300521599e-05
0.0018048311691160153   -0.01249899119173747   -2.0306741365355782e-05
0.0017285408428002575   -0.016459783067349024   -0.00013572475859500088
-0.0005682492369740943   -0.012435277450964424   -9.935078194551969e-05
0.0018048311691160153   -0.01249899119173747   -2.0306741365355782e-05
-0.00048099807218989415   -0.016513297811070256   -0.00021608054284652867
0.0017285408428002575   -0.016459783067349024   -0.00013572475859500088
0.001777379235023542   -0.01244842970118212   -1.959686300521599e-05
-0.0005001834845643804   -0.0164673505771923   -0.00021795763579033443
0.001713826182502291   -0.016417617768360163   -0.00014829365190048365
0.001777379235023542   -0.01244842970118212   -1.959686300521599e-05
-0.0005682492369740943   -0.012435277450964424   -9.935078194551969e-05
-0.0005001834845643804   -0.0164673505771923   -0.00021795763579033443
-0.0005987926074034141   -0.012394213726859707   -8.938866406778215e-05
0.001713826182502291   -0.016417617768360163   -0.00014829365190048365
-0.0005215135048172492   -0.016428244542312006   -0.00021735498407859062
-0.0005987926074034141   -0.012394213726859707   -8.938866406778215e-05
-0.0005001834845643804   -0.0164673505771923   -0.00021795763579033443
0.001713826182502291   -0.016417617768360163   -0.00014829365190048365
-0.0005987926074034141   -0.012394213726859707   -8.938866406778215e-05
0.001743059251609164   -0.01240372886617499   -1.4265141179652467e-05
0.001777379235023542   -0.01244842970118212   -1.959686300521599e-05
0.001713826182502291   -0.016417617768360163   -0.00014829365190048365
-0.0005987926074034141   -0.012394213726859707   -8.938866406778215e-05
0.001777379235023542   -0.01244842970118212   -1.959686300521599e-05
-0.0005001834845643804   -0.0164673505771923   -0.00021795763579033443
0.001713826182502291   -0.016417617768360163   -0.00014829365190048365
0.001743059251609164   -0.01240372886617499   -1.4265141179652467e-05
-0.0005215135048172492   -0.016428244542312006   -0.00021735498407859062
0.0016930676079102034   -0.016379289513480257   -0.00015716559873222096
0.001743059251609164   -0.01240372886617499   -1.4265141179652467e-05
-0.0005987926074034141   -0.012394213726859707   -8.938866406778215e-05
-0.0005215135048172492   -0.016428244542312006   -0.00021735498407859062
-0.0006332285251096744   -0.012355351555827862   -7.659186188049236e-05
0.0016930676079102034   -0.016379289513480257   -0.00015716559873222096
-0.0005482083510777303   -0.016394930904128937   -0.00021417482494122305
-0.0006332285251096744   -0.012355351555827862   -7.659186188049236e-05
-0.0005215135048172492   -0.016428244542312006   -0.00021735498407859062
0.0016930676079102034   -0.016379289513480257   -0.00015716559873222096
-0.0006332285251096744   -0.012355351555827862   -7.659186188049236e-05
0.0016976546459750608   -0.012357211487576372   -4.516486604031535e-06
0.001743059251609164   -0.01240372886617499   -1.4265141179652467e-05
0.0016930676079102034   -0.016379289513480257   -0.00015716559873222096
-0.0006332285251096744   -0.012355351555827862   -7.659186188049236e-05
0.001743059251609164   -0.01240372886617499   -1.4265141179652467e-05
-0.0005215135048172492   -0.016428244542312006   -0.00021735498407859062
-0.00048099807218989415   -0.016513297811070256   -0.00021608054284652867
-0.0005416251333360516   -0.012479120960327217   -0.00010704424084776584
-0.0025938968841803336   -0.016493458706842237   -0.0002954121380130825
-0.0005001834845643804   -0.0164673505771923   -0.00021795763579033443
-0.0005416251333360516   -0.012479120960327217   -0.00010704424084776584
-0.002764797063203496   -0.012455171907929486   -0.00017978495861040422
-0.0025938968841803336   -0.016493458706842237   -0.0002954121380130825
-0.002792159906066121   -0.01241879780347684   -0.000167485042865492
-0.0005001834845643804   -0.0164673505771923   -0.00021795763579033443
-0.002615599031998878   -0.016455584760568683   -0.00028683042143169186
-0.002792159906066121   -0.01241879780347684   -0.000167485042865492
-0.0025938968841803336   -0.016493458706842237   -0.0002954121380130825
-0.0005001834845643804   -0.0164673505771923   -0.00021795763579033443
-0.002792159906066121   -0.01241879780347684   -0.000167485042865492
-0.0005682492369740943   -0.012435277450964424   -9.935078194551969e-05
-0.0005416251333360516   -0.012479120960327217   -0.00010704424084776584
-0.0005001834845643804   -0.0164673505771923   -0.00021795763579033443
-0.002792159906066121   -0.01241879780347684   -0.000167485042865492
-0.0005416251333360516   -0.012479120960327217   -0.00010704424084776584
-0.0025938968841803336   -0.016493458706842237   -0.0002954121380130825
-0.0005001834845643804   -0.0164673505771923   -0.00021795763579033443
-0.0005682492369740943   -0.012435277450964424   -9.935078194551969e-05
-0.002615599031998878   -0.016455584760568683   -0.00028683042143169186
-0.0005215135048172492   -0.016428244542312006   -0.00021735498407859062
-0.0005682492369740943   -0.012435277450964424   -9.935078194551969e-05
-0.002792159906066121   -0.01241879780347684   -0.000167485042865492
-0.002615599031998878   -0.016455584760568683   -0.00028683042143169186
-0.0028201595772626912   -0.012384574351775434   -0.00015301232607412788
-0.0005215135048172492   -0.016428244542312006   -0.00021735498407859062
-0.0026377527353442366   -0.0164232784371295   -0.0002756599135902299
-0.0028201595772626912   -0.012384574351775434   -0.00015301232607412788
-0.002615599031998878   -0.016455584760568683   -0.00028683042143169186
-0.0005215135048172492   -0.016428244542312006   -0.00021735498407859062
-0.0028201595772626912   -0.012384574351775434   -0.00015301232607412788
-0.0005987926074034141   -0.012394213726859707   -8.938866406778215e-05
-0.0005682492369740943   -0.012435277450964424   -9.935078194551969e-05
-0.0005215135048172492   -0.016428244542312006   -0.00021735498407859062
-0.0028201595772626912   -0.012384574351775434   -0.00015301232607412788
-0.0005682492369740943   -0.012435277450964424   -9.935078194551969e-05
-0.002615599031998878   -0.016455584760568683   -0.00028683042143169186
-0.0005215135048172492   -0.016428244542312006   -0.00021735498407859062
-0.0005987926074034141   -0.012394213726859707   -8.938866406778215e-05
-0.0026377527353442366   -0.0164232784371295   -0.0002756599135902299
-0.0005482083510777303   -0.016394930904128937   -0.00021417482494122305
-0.0005987926074034141   -0.012394213726859707   -8.938866406778215e-05
-0.0028201595772626912   -0.012384574351775434   -0.00015301232607412788
-0.0026377527353442366   -0.0164232784371295   -0.0002756599135902299
-0.002849977016898544   -0.012353064744094828   -0.00013635170806552122
-0.0005482083510777303   -0.016394930904128937   -0.00021417482494122305
-0.0026618163905871703   -0.016396861715970906   -0.0002620285848714021
-0.002849977016898544   -0.012353064744094828   -0.00013635170806552122
-0.0026377527353442366   -0.0164232784371295   -0.0002756599135902299
-0.0005482083510777303   -0.016394930904128937   -0.00021417482494122305
-0.002849977016898544   -0.012353064744094828   -0.00013635170806552122
-0.0006332285251096744   -0.012355351555827862   -7.659186188049236e-05
-0.0005987926074034141   -0.012394213726859707   -8.938866406778215e-05
-0.0005482083510777303   -0.016394930904128937   -0.00021417482494122305
-0.002849977016898544   -0.012353064744094828   -0.00013635170806552122
-0.0005987926074034141   -0.012394213726859707   -8.938866406778215e-05
-0.0026377527353442366   -0.0164232784371295   -0.0002756599135902299
-0.0025938968841803336   -0.016493458706842237   -0.0002954121380130825
-0.002764797063203496   -0.012455171907929486   -0.00017978495861040422
-0.004671104092491895   -0.016455856524176887   -0.0003619819371079495
-0.002615599031998878   -0.016455584760568683   -0.00028683042143169186
-0.002764797063203496   -0.012455171907929486   -0.00017978495861040422
-0.004951390381896437   -0.012426090788096424   -0.00024116461530015556
-0.004671104092491895   -0.016455856524176887   -0.0003619819371079495
-0.004978634650980591   -0.012396595220568584   -0.00022429276645166815
-0.002615599031998878   -0.016455584760568683   -0.00028683042143169186
-0.0046935239318831685   -0.016425382289011338   -0.0003429799730059959
-0.004978634650980591   -0.012396595220568584   -0.00022429276645166815
-0.004671104092491895   -0.016455856524176887   -0.0003619819371079495
-0.002615599031998878   -0.016455584760568683   -0.00028683042143169186
-0.004978634650980591   -0.012396595220568584   -0.00022429276645166815
-0.002792159906066121   -0.01241879780347684   -0.000167485042865492
-0.002764797063203496   -0.012455171907929486   -0.00017978495861040422
-0.002615599031998878   -0.016455584760568683   -0.00028683042143169186
-0.004978634650980591   -0.012396595220568584   -0.00022429276645166815
-0.002764797063203496   -0.012455171907929486   -0.00017978495861040422
-0.004671104092491895   -0.016455856524176887   -0.0003619819371079495
-0.002615599031998878   -0.016455584760568683   -0.00028683042143169186
-0.002792159906066121   -0.01241879780347684   -0.000167485042865492
-0.0046935239318831685   -0.016425382289011338   -0.0003429799730059959
-0.0026377527353442366   -0.0164232784371295   -0.0002756599135902299
-0.002792159906066121   -0.01241879780347684   -0.000167485042865492
-0.004978634650980591   -0.012396595220568584   -0.00022429276645166815
-0.0046935239318831685   -0.016425382289011338   -0.0003429799730059959
-0.005004093632619898   -0.012369358230509062   -0.0002053218958674445
-0.0026377527353442366   -0.0164232784371295   -0.0002756599135902299
-0.004713826203892143   -0.01640043651220022   -0.000321451658011436
-0.005004093632619898   -0.012369358230509062   -0.0002053218958674445
-0.0046935239318831685   -0.016425382289011338   -0.0003429799730059959
-0.0026377527353442366   -0.0164232784371295   -0.0002756599135902299
-0.005004093632619898   -0.012369358230509062   -0.0002053218958674445
-0.0028201595772626912   -0.012384574351775434   -0.00015301232607412788
-0.002792159906066121   -0.01241879780347684   -0.000167485042865492
-0.0026377527353442366   -0.0164232784371295   -0.0002756599135902299
-0.005004093632619898   -0.012369358230509062   -0.0002053218958674445
-0.002792159906066121   -0.01241879780347684   -0.000167485042865492
-0.0046935239318831685   -0.016425382289011338   -0.0003429799730059959
-0.0026377527353442366   -0.0164232784371295   -0.0002756599135902299
-0.0028201595772626912   -0.012384574351775434   -0.00015301232607412788
-0.004713826203892143   -0.01640043651220022   -0.000321451658011436
-0.0026618163905871703   -0.016396861715970906   -0.0002620285848714021
-0.0028201595772626912   -0.012384574351775434   -0.00015301232607412788
-0.005004093632619898   -0.012369358230509062   -0.0002053218958674445
-0.004713826203892143   -0.01640043651220022   -0.000321451658011436
-0.005029644424358055   -0.012344450164700926   -0.0001843534745073119
-0.0026618163905871703   -0.016396861715970906   -0.0002620285848714021
-0.004734325956870109   -0.016381056433888853   -0.0002974908128333
-0.005029644424358055   -0.012344450164700926   -0.0001843534745073119
-0.004713826203892143   -0.01640043651220022   -0.000321451658011436
-0.0026618163905871703   -0.016396861715970906   -0.0002620285848714021
-0.005029644424358055   -0.012344450164700926   -0.0001843534745073119
-0.002849977016898544   -0.012353064744094828   -0.00013635170806552122
-0.0028201595772626912   -0.012384574351775434   -0.00015301232607412788
-0.0026618163905871703   -0.016396861715970906   -0.0002620285848714021
-0.005029644424358055   -0.012344450164700926   -0.0001843534745073119
-0.0028201595772626912   -0.012384574351775434   -0.00015301232607412788
-0.004713826203892143   -0.01640043651220022   -0.000321451658011436
-0.004671104092491895   -0.016455856524176887   -0.0003619819371079495
-0.004951390381896437   -0.012426090788096424   -0.00024116461530015556
-0.006789613453852274   -0.016399703257789836   -0.00041598127607555846
-0.0046935239318831685   -0.016425382289011338   -0.0003429799730059959
-0.004951390381896437   -0.012426090788096424   -0.00024116461530015556
-0.00717772575594049   -0.012386541556417776   -0.0002906525526341801
-0.006789613453852274   -0.016399703257789836   -0.00041598127607555846
-0.007203783540925978   -0.012364277515679895   -0.0002692648399714604
-0.0046935239318831685   -0.016425382289011338   -0.0003429799730059959
-0.006810358814228328   -0.01637667178469476   -0.0003864758340662583
-0.007203783540925978   -0.012364277515679895   -0.0002692648399714604
-0.006789613453852274   -0.016399703257789836   -0.00041598127607555846
-0.0046935239318831685   -0.016425382289011338   -0.0003429799730059959
-0.007203783540925978   -0.012364277515679895   -0.0002692648399714604
-0.004978634650980591   -0.012396595220568584   -0.00022429276645166815
-0.004951390381896437   -0.012426090788096424   -0.00024116461530015556
-0.0046935239318831685   -0.016425382289011338   -0.0003429799730059959
-0.007203783540925978   -0.012364277515679895   -0.0002692648399714604
-0.004951390381896437   -0.012426090788096424   -0.00024116461530015556
-0.006789613453852274   -0.016399703257789836   -0.00041598127607555846
-0.0046935239318831685   -0.016425382289011338   -0.0003429799730059959
-0.004978634650980591   -0.012396595220568584   -0.00022429276645166815
-0.006810358814228328   -0.01637667178469476   -0.0003864758340662583
-0.004713826203892143   -0.01640043651220022   -0.000321451658011436
-0.004978634650980591   -0.012396595220568584   -0.00022429276645166815
-0.007203783540925978   -0.012364277515679895   -0.0002692648399714604
-0.006810358814228328   -0.01637667178469476   -0.0003864758340662583
-0.007223352010045784   -0.01234349558226854   -0.0002461127650559103
-0.004713826203892143   -0.01640043651220022   -0.000321451658011436
-0.006822654625684398   -0.016358520698747433   -0.0003547793350743518
-0.007223352010045784   -0.01234349558226854   -0.0002461127650559103
-0.006810358814228328   -0.01637667178469476   -0.0003864758340662583
-0.004713826203892143   -0.01640043651220022   -0.000321451658011436
-0.007223352010045784   -0.01234349558226854   -0.0002461127650559103
-0.005004093632619898   -0.012369358230509062   -0.0002053218958674445
-0.004978634650980591   -0.012396595220568584   -0.00022429276645166815
-0.004713826203892143   -0.01640043651220022   -0.000321451658011436
-0.007223352010045784   -0.01234349558226854   -0.0002461127650559103
-0.004978634650980591   -0.012396595220568584   -0.00022429276645166815
-0.006810358814228328   -0.01637667178469476   -0.0003864758340662583
-0.004713826203892143   -0.01640043651220022   -0.000321451658011436
-0.005004093632619898   -0.012369358230509062   -0.0002053218958674445
-0.006822654625684398   -0.016358520698747433   -0.0003547793350743518
-0.004734325956870109   -0.016381056433888853   -0.0002974908128333
-0.005004093632619898   -0.012369358230509062   -0.0002053218958674445
-0.007223352010045784   -0.01234349558226854   -0.0002461127650559103
-0.006822654625684398   -0.016358520698747433   -0.0003547793350743518
-0.007242812278289297   -0.012325186441917371   -0.00022074631243280428
-0.004734325956870109   -0.016381056433888853   -0.0002974908128333
-0.006836300623783133   -0.016346431411325555   -0.00032044144551807255
-0.007242812278289297   -0.012325186441917371   -0.00022074631243280428
-0.006822654625684398   -0.016358520698747433   -0.0003547793350743518
-0.004734325956870109   -0.016381056433888853   -0.0002974908128333
-0.007242812278289297   -0.012325186441917371   -0.00022074631243280428
-0.005029644424358055   -0.012344450164700926   -0.0001843534745073119
-0.005004093632619898   -0.012369358230509062   -0.0002053218958674445
-0.004734325956870109   -0.016381056433888853   -0.0002974908128333
-0.007242812278289297   -0.012325186441917371   -0.00022074631243280428
-0.005004093632619898   -0.012369358230509062   -0.0002053218958674445
-0.006822654625684398   -0.016358520698747433   -0.0003547793350743518
-0.006789613453852274   -0.016399703257789836   -0.00041598127607555846
-0.00717772575594049   -0.012386541556417776   -0.0002906525526341801
-0.009064603293986444   -0.01633015852472501   -0.0004586693862060619
-0.006810358814228328   -0.01637667178469476   -0.0003864758340662583
-0.00717772575594049   -0.012386541556417776   -0.0002906525526341801
-0.009539150149049788   -0.012339408487991877   -0.00032682463875903625
-0.009064603293986444   -0.01633015852472501   -0.0004586693862060619
-0.009542059619000915   -0.012321950382161594   -0.00030285571007321
-0.006810358814228328   -0.01637667178469476   -0.0003864758340662583
-0.00904758380238253   -0.01631089624840949   -0.0004190773549634206
-0.009542059619000915   -0.012321950382161594   -0.00030285571007321
-0.009064603293986444   -0.01633015852472501   -0.0004586693862060619
-0.006810358814228328   -0.01637667178469476   -0.0003864758340662583
-0.009542059619000915   -0.012321950382161594   -0.00030285571007321
-0.007203783540925978   -0.012364277515679895   -0.0002692648399714604
-0.00717772575594049   -0.012386541556417776   -0.0002906525526341801
-0.006810358814228328   -0.01637667178469476   -0.0003864758340662583
-0.009542059619000915   -0.012321950382161594   -0.00030285571007321
-0.00717772575594049   -0.012386541556417776   -0.0002906525526341801
-0.009064603293986444   -0.01633015852472501   -0.0004586693862060619
-0.006810358814228328   -0.01637667178469476   -0.0003864758340662583
-0.007203783540925978   -0.012364277515679895   -0.0002692648399714604
-0.00904758380238253   -0.01631089624840949   -0.0004190773549634206
-0.006822654625684398   -0.016358520698747433   -0.0003547793350743518
-0.007203783540925978   -0.012364277515679895   -0.0002692648399714604
-0.009542059619000915   -0.012321950382161594   -0.00030285571007321
-0.00904758380238253   -0.01631089624840949   -0.0004190773549634206
-0.009545228814119794   -0.0123044886315619   -0.00027534759926907474
-0.006822654625684398   -0.016358520698747433   -0.0003547793350743518
-0.00903369516341553   -0.01629595152975536   -0.0003754638862731622
-0.009545228814119794   -0.0123044886315619   -0.00027534759926907474
-0.00904758380238253   -0.01631089624840949   -0.0004190773549634206
-0.006822654625684398   -0.016358520698747433   -0.0003547793350743518
-0.009545228814119794   -0.0123044886315619   -0.00027534759926907474
-0.007223352010045784   -0.01234349558226854   -0.0002461127650559103
-0.007203783540925978   -0.012364277515679895   -0.0002692648399714604
-0.006822654625684398   -0.016358520698747433   -0.0003547793350743518
-0.009545228814119794   -0.0123044886315619   -0.00027534759926907474
-0.007203783540925978   -0.012364277515679895   -0.0002692648399714604
-0.00904758380238253   -0.01631089624840949   -0.0004190773549634206
-0.006822654625684398   -0.016358520698747433   -0.0003547793350743518
-0.007223352010045784   -0.01234349558226854   -0.0002461127650559103
-0.00903369516341553   -0.01629595152975536   -0.0003754638862731622
-0.006836300623783133   -0.016346431411325555   -0.00032044144551807255
-0.007223352010045784   -0.01234349558226854   -0.0002461127650559103
-0.009545228814119794   -0.0123044886315619   -0.00027534759926907474
-0.00903369516341553   -0.01629595152975536   -0.0003754638862731622
-0.009534827364962134   -0.01229390021963609   -0.00024471262689318543
-0.006836300623783133   -0.016346431411325555   -0.00032044144551807255
-0.00900168831795702   -0.016292676232075986   -0.0003282859060136724
-0.009534827364962134   -0.01229390021963609   -0.00024471262689318543
-0.00903369516341553   -0.01629595152975536   -0.0003754638862731622
-0.006836300623783133   -0.016346431411325555   -0.00032044144551807255
-0.009534827364962134   -0.01229390021963609   -0.00024471262689318543
-0.007242812278289297   -0.012325186441917371   -0.00022074631243280428
-0.007223352010045784   -0.01234349558226854   -0.0002461127650559103
-0.006836300623783133   -0.016346431411325555   -0.00032044144551807255
-0.009534827364962134   -0.01229390021963609   -0.00024471262689318543
-0.007223352010045784   -0.01234349558226854   -0.0002461127650559103
-0.00903369516341553   -0.01629595152975536   -0.0003754638862731622
0.0018048311691160153   -0.01249899119173747   -2.0306741365355782e-05
0.0016265302055731362   -0.008354502436500356   4.805602045297437e-05
-0.0005416251333360516   -0.012479120960327217   -0.00010704424084776584
0.001777379235023542   -0.01244842970118212   -1.959686300521599e-05
0.0016265302055731362   -0.008354502436500356   4.805602045297437e-05
-0.0007435827500165615   -0.008316210787291304   -2.005874679731313e-05
-0.0005416251333360516   -0.012479120960327217   -0.00010704424084776584
-0.000775751323750455   -0.008276729212228025   -3.4552349578414235e-06
0.001777379235023542   -0.01244842970118212   -1.959686300521599e-05
-0.0005682492369740943   -0.012435277450964424   -9.935078194551969e-05
-0.000775751323750455   -0.008276729212228025   -3.4552349578414235e-06
-0.0005416251333360516   -0.012479120960327217   -0.00010704424084776584
0.001777379235023542   -0.01244842970118212   -1.959686300521599e-05
-0.000775751323750455   -0.008276729212228025   -3.4552349578414235e-06
0.0015764344266592184   -0.008306493445319781   6.823365828730307e-05
0.0016265302055731362   -0.008354502436500356   4.805602045297437e-05
0.001777379235023542   -0.01244842970118212   -1.959686300521599e-05
-0.000775751323750455   -0.008276729212228025   -3.4552349578414235e-06
0.0016265302055731362   -0.008354502436500356   4.805602045297437e-05
-0.0005416251333360516   -0.012479120960327217   -0.00010704424084776584
0.001777379235023542   -0.01244842970118212   -1.959686300521599e-05
0.0015764344266592184   -0.008306493445319781   6.823365828730307e-05
-0.0005682492369740943   -0.012435277450964424   -9.935078194551969e-05
0.001743059251609164   -0.01240372886617499   -1.4265141179652467e-05
0.0015764344266592184   -0.008306493445319781   6.823365828730307e-05
-0.000775751323750455   -0.008276729212228025   -3.4552349578414235e-06
-0.0005682492369740943   -0.012435277450964424   -9.935078194551969e-05
-0.000813477396505959   -0.00823518322407888   1.6177240657353465e-05
0.001743059251609164   -0.01240372886617499   -1.4265141179652467e-05
-0.0005987926074034141   -0.012394213726859707   -8.938866406778215e-05
-0.000813477396505959   -0.00823518322407888   1.6177240657353465e-05
-0.0005682492369740943   -0.012435277450964424   -9.935078194551969e-05
0.001743059251609164   -0.01240372886617499   -1.4265141179652467e-05
-0.000813477396505959   -0.00823518322407888   1.6177240657353465e-05
0.0015200102687067552   -0.008259112422423156   9.765726806554111e-05
0.0015764344266592184   -0.008306493445319781   6.823365828730307e-05
0.001743059251609164   -0.01240372886617499   -1.4265141179652467e-05
-0.000813477396505959   -0.00823518322407888   1.6177240657353465e-05
0.0015764344266592184   -0.008306493445319781   6.823365828730307e-05
-0.0005682492369740943   -0.012435277450964424   -9.935078194551969e-05
0.001743059251609164   -0.01240372886617499   -1.4265141179652467e-05
0.0015200102687067552   -0.008259112422423156   9.765726806554111e-05
-0.0005987926074034141   -0.012394213726859707   -8.938866406778215e-05
0.0016976546459750608   -0.012357211487576372   -4.516486604031535e-06
0.0015200102687067552   -0.008259112422423156   9.765726806554111e-05
-0.000813477396505959   -0.00823518322407888   1.6177240657353465e-05
-0.0005987926074034141   -0.012394213726859707   -8.938866406778215e-05
-0.0008526120106909797   -0.00819118174067893   3.8813339943361264e-05
0.0016976546459750608   -0.012357211487576372   -4.516486604031535e-06
-0.0006332285251096744   -0.012355351555827862   -7.659186188049236e-05
-0.0008526120106909797   -0.00819118174067893   3.8813339943361264e-05
-0.0005987926074034141   -0.012394213726859707   -8.938866406778215e-05
0.0016976546459750608   -0.012357211487576372   -4.516486604031535e-06
-0.0008526120106909797   -0.00819118174067893   3.8813339943361264e-05
0.001451019636236852   -0.00820079230334045   0.00013011081788248305
0.0015200102687067552   -0.008259112422423156   9.765726806554111e-05
0.0016976546459750608   -0.012357211487576372   -4.516486604031535e-06
-0.0008526120106909797   -0.00819118174067893   3.8813339943361264e-05
0.0015200102687067552   -0.008259112422423156   9.765726806554111e-05
-0.0005987926074034141   -0.012394213726859707   -8.938866406778215e-05
-0.0005416251333360516   -0.012479120960327217   -0.00010704424084776584
-0.0007435827500165615   -0.008316210787291304   -2.005874679731313e-05
-0.002764797063203496   -0.012455171907929486   -0.00017978495861040422
-0.0005682492369740943   -0.012435277450964424   -9.935078194551969e-05
-0.0007435827500165615   -0.008316210787291304   -2.005874679731313e-05
-0.00297377288302322   -0.008306260621715817   -8.535407164894456e-05
-0.002764797063203496   -0.012455171907929486   -0.00017978495861040422
-0.0030030379434356097   -0.008272075881504299   -6.966865683269316e-05
-0.0005682492369740943   -0.012435277450964424   -9.935078194551969e-05
-0.002792159906066121   -0.01241879780347684   -0.000167485042865492
-0.0030030379434356097   -0.008272075881504299   -6.966865683269316e-05
-0.002764797063203496   -0.012455171907929486   -0.00017978495861040422
-0.0005682492369740943   -0.012435277450964424   -9.935078194551969e-05
-0.0030030379434356097   -0.008272075881504299   -6.966865683269316e-05
-0.000775751323750455   -0.008276729212228025   -3.4552349578414235e-06
-0.0007435827500165615   -0.008316210787291304   -2.005874679731313e-05
-0.0005682492369740943   -0.012435277450964424   -9.935078194551969e-05
-0.0030030379434356097   -0.008272075881504299   -6.966865683269316e-05
-0.0007435827500165615   -0.008316210787291304   -2.005874679731313e-05
-0.002764797063203496   -0.012455171907929486   -0.00017978495861040422
-0.0005682492369740943   -0.012435277450964424   -9.935078194551969e-05
-0.000775751323750455   -0.008276729212228025   -3.4552349578414235e-06
-0.002792159906066121   -0.01241879780347684   -0.000167485042865492
-0.0005987926074034141   -0.012394213726859707   -8.938866406778215e-05
-0.000775751323750455   -0.008276729212228025   -3.4552349578414235e-06
-0.0030030379434356097   -0.008272075881504299   -6.966865683269316e-05
-0.002792159906066121   -0.01241879780347684   -0.000167485042865492
-0.003033357823694602   -0.008236565302896091   -5.2381810719346445e-05
-0.0005987926074034141   -0.012394213726859707   -8.938866406778215e-05
-0.0028201595772626912   -0.012384574351775434   -0.00015301232607412788
-0.003033357823694602   -0.008236565302896091   -5.2381810719346445e-05
-0.002792159906066121   -0.01241879780347684   -0.000167485042865492
-0.0005987926074034141   -0.012394213726859707   -8.938866406778215e-05
-0.003033357823694602   -0.008236565302896091   -5.2381810719346445e-05
-0.000813477396505959   -0.00823518322407888   1.6177240657353465e-05
-0.000775751323750455   -0.008276729212228025   -3.4552349578414235e-06
-0.0005987926074034141   -0.012394213726859707   -8.938866406778215e-05
-0.003033357823694602   -0.008236565302896091   -5.2381810719346445e-05
-0.000775751323750455   -0.008276729212228025   -3.4552349578414235e-06
-0.002792159906066121   -0.01241879780347684   -0.000167485042865492
-0.0005987926074034141   -0.012394213726859707   -8.938866406778215e-05
-0.000813477396505959   -0.00823518322407888   1.6177240657353465e-05
-0.0028201595772626912   -0.012384574351775434   -0.00015301232607412788
-0.0006332285251096744   -0.012355351555827862   -7.659186188049236e-05
-0.000813477396505959   -0.00823518322407888   1.6177240657353465e-05
-0.003033357823694602   -0.008236565302896091   -5.2381810719346445e-05
-0.0028201595772626912   -0.012384574351775434   -0.00015301232607412788
-0.0030649700538339024   -0.008200429236834447   -3.318385111434361e-05
-0.0006332285251096744   -0.012355351555827862   -7.659186188049236e-05
-0.002849977016898544   -0.012353064744094828   -0.00013635170806552122
-0.0030649700538339024   -0.008200429236834447   -3.318385111434361e-05
-0.0028201595772626912   -0.012384574351775434   -0.00015301232607412788
-0.0006332285251096744   -0.012355351555827862   -7.659186188049236e-05
-0.0030649700538339024   -0.008200429236834447   -3.318385111434361e-05
-0.0008526120106909797   -0.00819118174067893   3.8813339943361264e-05
-0.000813477396505959   -0.00823518322407888   1.6177240657353465e-05
-0.0006332285251096744   -0.012355351555827862   -7.659186188049236e-05
-0.0030649700538339024   -0.008200429236834447   -3.318385111434361e-05
-0.000813477396505959   -0.00823518322407888   1.6177240657353465e-05
-0.0028201595772626912   -0.012384574351775434   -0.00015301232607412788
-0.002764797063203496   -0.012455171907929486   -0.00017978495861040422
-0.00297377288302322   -0.008306260621715817   -8.535407164894456e-05
-0.004951390381896437   -0.012426090788096424   -0.00024116461530015556
-0.002792159906066121   -0.01241879780347684   -0.000167485042865492
-0.00297377288302322   -0.008306260621715817   -8.535407164894456e-05
-0.005179880320110401   -0.008303437020756118   -0.00014415007765295712
-0.004951390381896437   -0.012426090788096424   -0.00024116461530015556
-0.005207949475659556   -0.008273660515884858   -0.00012898369224657264
-0.002792159906066121   -0.01241879780347684   -0.000167485042865492
-0.004978634650980591   -0.012396595220568584   -0.00022429276645166815
-0.005207949475659556   -0.008273660515884858   -0.00012898369224657264
-0.004951390381896437   -0.012426090788096424   -0.00024116461530015556
-0.002792159906066121   -0.01241879780347684   -0.000167485042865492
-0.005207949475659556   -0.008273660515884858   -0.00012898369224657264
-0.0030030379434356097   -0.008272075881504299   -6.966865683269316e-05
-0.00297377288302322   -0.008306260621715817   -8.535407164894456e-05
-0.002792159906066121   -0.01241879780347684   -0.000167485042865492
-0.005207949475659556   -0.008273660515884858   -0.00012898369224657264
-0.00297377288302322   -0.008306260621715817   -8.535407164894456e-05
-0.004951390381896437   -0.012426090788096424   -0.00024116461530015556
-0.002792159906066121   -0.01241879780347684   -0.000167485042865492
-0.0030030379434356097   -0.008272075881504299   -6.966865683269316e-05
-0.004978634650980591   -0.012396595220568584   -0.00022429276645166815
-0.0028201595772626912   -0.012384574351775434   -0.00015301232607412788
-0.0030030379434356097   -0.008272075881504299   -6.966865683269316e-05
-0.005207949475659556   -0.008273660515884858   -0.00012898369224657264
-0.004978634650980591   -0.012396595220568584   -0.00022429276645166815
-0.005234693727150573   -0.008243423674225477   -0.0001124093529825028
-0.0028201595772626912   -0.012384574351775434   -0.00015301232607412788
-0.005004093632619898   -0.012369358230509062   -0.0002053218958674445
-0.005234693727150573   -0.008243423674225477   -0.0001124093529825028
-0.004978634650980591   -0.012396595220568584   -0.00022429276645166815
-0.0028201595772626912   -0.012384574351775434   -0.00015301232607412788
-0.005234693727150573   -0.008243423674225477   -0.0001124093529825028
-0.003033357823694602   -0.008236565302896091   -5.2381810719346445e-05
-0.0030030379434356097   -0.008272075881504299   -6.966865683269316e-05
-0.0028201595772626912   -0.012384574351775434   -0.00015301232607412788
-0.005234693727150573   -0.008243423674225477   -0.0001124093529825028
-0.0030030379434356097   -0.008272075881504299   -6.966865683269316e-05
-0.004978634650980591   -0.012396595220568584   -0.00022429276645166815
-0.0028201595772626912   -0.012384574351775434   -0.00015301232607412788
-0.003033357823694602   -0.008236565302896091   -5.2381810719346445e-05
-0.005004093632619898   -0.012369358230509062   -0.0002053218958674445
-0.002849977016898544   -0.012353064744094828   -0.00013635170806552122
-0.003033357823694602   -0.008236565302896091   -5.2381810719346445e-05
-0.005234693727150573   -0.008243423674225477   -0.0001124093529825028
-0.005004093632619898   -0.012369358230509062   -0.0002053218958674445
-0.005261174027755482   -0.008212541838288937   -9.449974779902835e-05
-0.002849977016898544   -0.012353064744094828   -0.00013635170806552122
-0.005029644424358055   -0.012344450164700926   -0.0001843534745073119
-0.005261174027755482   -0.008212541838288937   -9.449974779902835e-05
-0.005004093632619898   -0.012369358230509062   -0.0002053218958674445
-0.002849977016898544   -0.012353064744094828   -0.00013635170806552122
-0.005261174027755482   -0.008212541838288937   -9.449974779902835e-05
-0.0030649700538339024   -0.008200429236834447   -3.318385111434361e-05
-0.003033357823694602   -0.008236565302896091   -5.2381810719346445e-05
-0.002849977016898544   -0.012353064744094828   -0.00013635170806552122
-0.005261174027755482   -0.008212541838288937   -9.449974779902835e-05
-0.003033357823694602   -0.008236565302896091   -5.2381810719346445e-05
-0.005004093632619898   -0.012369358230509062   -0.0002053218958674445
-0.004951390381896437   -0.012426090788096424   -0.00024116461530015556
-0.005179880320110401   -0.008303437020756118   -0.00014415007765295712
-0.00717772575594049   -0.012386541556417776   -0.0002906525526341801
-0.004978634650980591   -0.012396595220568584   -0.00022429276645166815
-0.005179880320110401   -0.008303437020756118   -0.00014415007765295712
-0.007432902140648007   -0.00829033662865644   -0.00019309074967544762
-0.00717772575594049   -0.012386541556417776   -0.0002906525526341801
-0.007459657781296762   -0.00826639041299884   -0.00017854562107522137
-0.004978634650980591   -0.012396595220568584   -0.00022429276645166815
-0.007203783540925978   -0.012364277515679895   -0.0002692648399714604
-0.007459657781296762   -0.00826639041299884   -0.00017854562107522137
-0.00717772575594049   -0.012386541556417776   -0.0002906525526341801
-0.004978634650980591   -0.012396595220568584   -0.00022429276645166815
-0.007459657781296762   -0.00826639041299884   -0.00017854562107522137
-0.005207949475659556   -0.008273660515884858   -0.00012898369224657264
-0.005179880320110401   -0.008303437020756118   -0.00014415007765295712
-0.004978634650980591   -0.012396595220568584   -0.00022429276645166815
-0.007459657781296762   -0.00826639041299884   -0.00017854562107522137
-0.005179880320110401   -0.008303437020756118   -0.00014415007765295712
-0.00717772575594049   -0.012386541556417776   -0.0002906525526341801
-0.004978634650980591   -0.012396595220568584   -0.00022429276645166815
-0.005207949475659556   -0.008273660515884858   -0.00012898369224657264
-0.007203783540925978   -0.012364277515679895   -0.0002692648399714604
-0.005004093632619898   -0.012369358230509062   -0.0002053218958674445
-0.005207949475659556   -0.008273660515884858   -0.00012898369224657264
-0.007459657781296762   -0.00826639041299884   -0.00017854562107522137
-0.007203783540925978   -0.012364277515679895   -0.0002692648399714604
-0.007482226952443765   -0.008241158505576005   -0.00016297843214187977
-0.005004093632619898   -0.012369358230509062   -0.0002053218958674445
-0.007223352010045784   -0.01234349558226854   -0.0002461127650559103
-0.007482226952443765   -0.008241158505576005   -0.00016297843214187977
-0.007203783540925978   -0.012364277515679895   -0.0002692648399714604
-0.005004093632619898   -0.012369358230509062   -0.0002053218958674445
-0.007482226952443765   -0.008241158505576005   -0.00016297843214187977
-0.005234693727150573   -0.008243423674225477   -0.0001124093529825028
-0.005207949475659556   -0.008273660515884858   -0.00012898369224657264
-0.005004093632619898   -0.012369358230509062   -0.0002053218958674445
-0.007482226952443765   -0.008241158505576005   -0.00016297843214187977
-0.005207949475659556   -0.008273660515884858   -0.00012898369224657264
-0.007203783540925978   -0.012364277515679895   -0.0002692648399714604
-0.005004093632619898   -0.012369358230509062   -0.0002053218958674445
-0.005234693727150573   -0.008243423674225477   -0.0001124093529825028
-0.007223352010045784   -0.01234349558226854   -0.0002461127650559103
-0.005029644424358055   -0.012344450164700926   -0.0001843534745073119
-0.005234693727150573   -0.008243423674225477   -0.0001124093529825028
-0.007482226952443765   -0.008241158505576005   -0.00016297843214187977
-0.007223352010045784   -0.01234349558226854   -0.0002461127650559103
-0.007503552356674052   -0.008215330199958917   -0.00014596521020095133
-0.005029644424358055   -0.012344450164700926   -0.0001843534745073119
-0.007242812278289297   -0.012325186441917371   -0.00022074631243280428
-0.007503552356674052   -0.008215330199958917   -0.00014596521020095133
-0.007223352010045784   -0.01234349558226854   -0.0002461127650559103
-0.005029644424358055   -0.012344450164700926   -0.0001843534745073119
-0.007503552356674052   -0.008215330199958917   -0.00014596521020095133
-0.005261174027755482   -0.008212541838288937   -9.449974779902835e-05
-0.005234693727150573   -0.008243423674225477   -0.0001124093529825028
-0.005029644424358055   -0.012344450164700926   -0.0001843534745073119
-0.007503552356674052   -0.008215330199958917   -0.00014596521020095133
-0.005234693727150573   -0.008243423674225477   -0.0001124093529825028
-0.007223352010045784   -0.01234349558226854   -0.0002461127650559103
-0.00717772575594049   -0.012386541556417776   -0.0002906525526341801
-0.007432902140648007   -0.00829033662865644   -0.00019309074967544762
-0.009539150149049788   -0.012339408487991877   -0.00032682463875903625
-0.007203783540925978   -0.012364277515679895   -0.0002692648399714604
-0.007432902140648007   -0.00829033662865644   -0.00019309074967544762
-0.009795112271043759   -0.008268464146996935   -0.00022857666498819057
-0.009539150149049788   -0.012339408487991877   -0.00032682463875903625
-0.009811203365598022   -0.008248679557863294   -0.0002173439876644144
-0.007203783540925978   -0.012364277515679895   -0.0002692648399714604
-0.009542059619000915   -0.012321950382161594   -0.00030285571007321
-0.009811203365598022   -0.008248679557863294   -0.0002173439876644144
-0.009539150149049788   -0.012339408487991877   -0.00032682463875903625
-0.007203783540925978   -0.012364277515679895   -0.0002692648399714604
-0.009811203365598022   -0.008248679557863294   -0.0002173439876644144
-0.007459657781296762   -0.00826639041299884   -0.00017854562107522137
-0.007432902140648007   -0.00829033662865644   -0.00019309074967544762
-0.007203783540925978   -0.012364277515679895   -0.0002692648399714604
-0.009811203365598022   -0.008248679557863294   -0.0002173439876644144
-0.007432902140648007   -0.00829033662865644   -0.00019309074967544762
-0.009539150149049788   -0.012339408487991877   -0.00032682463875903625
-0.007203783540925978   -0.012364277515679895   -0.0002692648399714604
-0.007459657781296762   -0.00826639041299884   -0.00017854562107522137
-0.009542059619000915   -0.012321950382161594   -0.00030285571007321
-0.007223352010045784   -0.01234349558226854   -0.0002461127650559103
-0.007459657781296762   -0.00826639041299884   -0.00017854562107522137
-0.009811203365598022   -0.008248679557863294   -0.0002173439876644144
-0.009542059619000915   -0.012321950382161594   -0.00030285571007321
-0.009825917176785019   -0.008226159893102755   -0.00020364936159019095
-0.007223352010045784   -0.01234349558226854   -0.0002461127650559103
-0.009545228814119794   -0.0123044886315619   -0.00027534759926907474
-0.009825917176785019   -0.008226159893102755   -0.00020364936159019095
-0.009542059619000915   -0.012321950382161594   -0.00030285571007321
-0.007223352010045784   -0.01234349558226854   -0.0002461127650559103
-0.009825917176785019   -0.008226159893102755   -0.00020364936159019095
-0.007482226952443765   -0.008241158505576005   -0.00016297843214187977
-0.007459657781296762   -0.00826639041299884   -0.00017854562107522137
-0.007223352010045784   -0.01234349558226854   -0.0002461127650559103
-0.009825917176785019   -0.008226159893102755   -0.00020364936159019095
-0.007459657781296762   -0.00826639041299884   -0.00017854562107522137
-0.009542059619000915   -0.012321950382161594   -0.00030285571007321
-0.007223352010045784   -0.01234349558226854   -0.0002461127650559103
-0.007482226952443765   -0.008241158505576005   -0.00016297843214187977
-0.009545228814119794   -0.0123044886315619   -0.00027534759926907474
-0.007242812278289297   -0.012325186441917371   -0.00022074631243280428
-0.007482226952443765   -0.008241158505576005   -0.00016297843214187977
-0.009825917176785019   -0.008226159893102755   -0.00020364936159019095
-0.009545228814119794   -0.0123044886315619   -0.00027534759926907474
-0.009832444754137692   -0.008205890364483921   -0.0001880829557631241
-0.007242812278289297   -0.012325186441917371   -0.00022074631243280428
-0.009534827364962134   -0.01229390021963609   -0.00024471262689318543
-0.009832444754137692   -0.008205890364483921   -0.0001880829557631241
-0.009545228814119794   -0.0123044886315619   -0.00027534759926907474
-0.007242812278289297   -0.012325186441917371   -0.00022074631243280428
-0.009832444754137692   -0.008205890364483921   -0.0001880829557631241
-0.007503552356674052   -0.008215330199958917   -0.00014596521020095133
-0.007482226952443765   -0.008241158505576005   -0.00016297843214187977
-0.007242812278289297   -0.012325186441917371   -0.00022074631243280428
-0.009832444754137692   -0.008205890364483921   -0.0001880829557631241
-0.007482226952443765   -0.008241158505576005   -0.00016297843214187977
-0.009545228814119794   -0.0123044886315619   -0.00027534759926907474
0.0016265302055731362   -0.008354502436500356   4.805602045297437e-05
0.0011452036131401112   -0.004206267518037894   5.2290008903898725e-05
-0.0007435827500165615   -0.008316210787291304   -2.005874679731313e-05
0.0015764344266592184   -0.008306493445319781   6.823365828730307e-05
0.0011452036131401112   -0.004206267518037894   5.2290008903898725e-05
-0.001071717726801711   -0.004153480137153274   2.9474319659414765e-05
-0.0007435827500165615   -0.008316210787291304   -2.005874679731313e-05
-0.00110395030193097   -0.004134426754920203   5.2901627608359794e-05
0.0015764344266592184   -0.008306493445319781   6.823365828730307e-05
-0.000775751323750455   -0.008276729212228025   -3.4552349578414235e-06
-0.00110395030193097   -0.004134426754920203   5.2901627608359794e-05
-0.0007435827500165615   -0.008316210787291304   -2.005874679731313e-05
0.0015764344266592184   -0.008306493445319781   6.823365828730307e-05
-0.00110395030193097   -0.004134426754920203   5.2901627608359794e-05
0.0010444754937601571   -0.004154866844802417   0.00010993659224328053
0.0011452036131401112   -0.004206267518037894   5.2290008903898725e-05
0.0015764344266592184   -0.008306493445319781   6.823365828730307e-05
-0.00110395030193097   -0.004134426754920203   5.2901627608359794e-05
0.0011452036131401112   -0.004206267518037894   5.2290008903898725e-05
-0.0007435827500165615   -0.008316210787291304   -2.005874679731313e-05
0.0015764344266592184   -0.008306493445319781   6.823365828730307e-05
0.0010444754937601571   -0.004154866844802417   0.00010993659224328053
-0.000775751323750455   -0.008276729212228025   -3.4552349578414235e-06
0.0015200102687067552   -0.008259112422423156   9.765726806554111e-05
0.0010444754937601571   -0.004154866844802417   0.00010993659224328053
-0.00110395030193097   -0.004134426754920203   5.2901627608359794e-05
-0.000775751323750455   -0.008276729212228025   -3.4552349578414235e-06
-0.0011467139705410784   -0.0040991338585171   8.146482028005009e-05
0.0015200102687067552   -0.008259112422423156   9.765726806554111e-05
-0.000813477396505959   -0.00823518322407888   1.6177240657353465e-05
-0.0011467139705410784   -0.0040991338585171   8.146482028005009e-05
-0.000775751323750455   -0.008276729212228025   -3.4552349578414235e-06
0.0015200102687067552   -0.008259112422423156   9.765726806554111e-05
-0.0011467139705410784   -0.0040991338585171   8.146482028005009e-05
0.0009856708529767065   -0.004113465989451445   0.00015273227985710598
0.0010444754937601571   -0.004154866844802417   0.00010993659224328053
0.0015200102687067552   -0.008259112422423156   9.765726806554111e-05
-0.0011467139705410784   -0.0040991338585171   8.146482028005009e-05
0.0010444754937601571   -0.004154866844802417   0.00010993659224328053
-0.000775751323750455   -0.008276729212228025   -3.4552349578414235e-06
0.0015200102687067552   -0.008259112422423156   9.765726806554111e-05
0.0009856708529767065   -0.004113465989451445   0.00015273227985710598
-0.000813477396505959   -0.00823518322407888   1.6177240657353465e-05
0.001451019636236852   -0.00820079230334045   0.00013011081788248305
0.0009856708529767065   -0.004113465989451445   0.00015273227985710598
-0.0011467139705410784   -0.0040991338585171   8.146482028005009e-05
-0.000813477396505959   -0.00823518322407888   1.6177240657353465e-05
-0.0011828436110926396   -0.004061430550635764   0.00010658438233138611
0.001451019636236852   -0.00820079230334045   0.00013011081788248305
-0.0008526120106909797   -0.00819118174067893   3.8813339943361264e-05
-0.0011828436110926396   -0.004061430550635764   0.00010658438233138611
-0.000813477396505959   -0.00823518322407888   1.6177240657353465e-05
0.001451019636236852   -0.00820079230334045   0.00013011081788248305
-0.0011828436110926396   -0.004061430550635764   0.00010658438233138611
0.0009100205578636779   -0.004049589703897365   0.0002018400688408228
0.0009856708529767065   -0.004113465989451445   0.00015273227985710598
0.001451019636236852   -0.00820079230334045   0.00013011081788248305
-0.0011828436110926396   -0.004061430550635764   0.00010658438233138611
0.0009856708529767065   -0.004113465989451445   0.00015273227985710598
-0.000813477396505959   -0.00823518322407888   1.6177240657353465e-05
-0.0007435827500165615   -0.008316210787291304   -2.005874679731313e-05
-0.001071717726801711   -0.004153480137153274   2.9474319659414765e-05
-0.00297377288302322   -0.008306260621715817   -8.535407164894456e-05
-0.000775751323750455   -0.008276729212228025   -3.4552349578414235e-06
-0.001071717726801711   -0.004153480137153274   2.9474319659414765e-05
-0.0031766437176752706   -0.004216125759590021   -2.155980960254991e-05
-0.00297377288302322   -0.008306260621715817   -8.535407164894456e-05
-0.0032066794343235177   -0.004186031465000315   -4.819907210478532e-06
-0.000775751323750455   -0.008276729212228025   -3.4552349578414235e-06
-0.0030030379434356097   -0.008272075881504299   -6.966865683269316e-05
-0.0032066794343235177   -0.004186031465000315   -4.819907210478532e-06
-0.00297377288302322   -0.008306260621715817   -8.535407164894456e-05
-0.000775751323750455   -0.008276729212228025   -3.4552349578414235e-06
-0.0032066794343235177   -0.004186031465000315   -4.819907210478532e-06
-0.00110395030193097   -0.004134426754920203   5.2901627608359794e-05
-0.001071717726801711   -0.004153480137153274   2.9474319659414765e-05
-0.000775751323750455   -0.008276729212228025   -3.4552349578414235e-06
-0.0032066794343235177   -0.004186031465000315   -4.819907210478532e-06
-0.001071717726801711   -0.004153480137153274   2.9474319659414765e-05
-0.00297377288302322   -0.008306260621715817   -8.535407164894456e-05
-0.000775751323750455   -0.008276729212228025   -3.4552349578414235e-06
-0.00110395030193097   -0.004134426754920203   5.2901627608359794e-05
-0.0030030379434356097   -0.008272075881504299   -6.966865683269316e-05
-0.000813477396505959   -0.00823518322407888   1.6177240657353465e-05
-0.00110395030193097   -0.004134426754920203   5.2901627608359794e-05
-0.0032066794343235177   -0.004186031465000315   -4.819907210478532e-06
-0.0030030379434356097   -0.008272075881504299   -6.966865683269316e-05
-0.003238311960030196   -0.004151805248879392   1.2993428618279533e-05
-0.000813477396505959   -0.00823518322407888   1.6177240657353465e-05
-0.003033357823694602   -0.008236565302896091   -5.2381810719346445e-05
-0.003238311960030196   -0.004151805248879392   1.2993428618279533e-05
-0.0030030379434356097   -0.008272075881504299   -6.966865683269316e-05
-0.000813477396505959   -0.00823518322407888   1.6177240657353465e-05
-0.003238311960030196   -0.004151805248879392   1.2993428618279533e-05
-0.0011467139705410784   -0.0040991338585171   8.146482028005009e-05
-0.00110395030193097   -0.004134426754920203   5.2901627608359794e-05
-0.000813477396505959   -0.00823518322407888   1.6177240657353465e-05
-0.003238311960030196   -0.004151805248879392   1.2993428618279533e-05
-0.00110395030193097   -0.004134426754920203   5.2901627608359794e-05
-0.0030030379434356097   -0.008272075881504299   -6.966865683269316e-05
-0.000813477396505959   -0.00823518322407888   1.6177240657353465e-05
-0.0011467139705410784   -0.0040991338585171   8.146482028005009e-05
-0.003033357823694602   -0.008236565302896091   -5.2381810719346445e-05
-0.0008526120106909797   -0.00819118174067893   3.8813339943361264e-05
-0.0011467139705410784   -0.0040991338585171   8.146482028005009e-05
-0.003238311960030196   -0.004151805248879392   1.2993428618279533e-05
-0.003033357823694602   -0.008236565302896091   -5.2381810719346445e-05
-0.0032685387270474722   -0.004114290415647462   3.269659574143006e-05
-0.0008526120106909797   -0.00819118174067893   3.8813339943361264e-05
-0.0030649700538339024   -0.008200429236834447   -3.318385111434361e-05
-0.0032685387270474722   -0.004114290415647462   3.269659574143006e-05
-0.003033357823694602   -0.008236565302896091   -5.2381810719346445e-05
-0.0008526120106909797   -0.00819118174067893   3.8813339943361264e-05
-0.0032685387270474722   -0.004114290415647462   3.269659574143006e-05
-0.0011828436110926396   -0.004061430550635764   0.00010658438233138611
-0.0011467139705410784   -0.0040991338585171   8.146482028005009e-05
-0.0008526120106909797   -0.00819118174067893   3.8813339943361264e-05
-0.0032685387270474722   -0.004114290415647462   3.269659574143006e-05
-0.0011467139705410784   -0.0040991338585171   8.146482028005009e-05
-0.003033357823694602   -0.008236565302896091   -5.2381810719346445e-05
-0.00297377288302322   -0.008306260621715817   -8.535407164894456e-05
-0.0031766437176752706   -0.004216125759590021   -2.155980960254991e-05
-0.005179880320110401   -0.008303437020756118   -0.00014415007765295712
-0.0030030379434356097   -0.008272075881504299   -6.966865683269316e-05
-0.0031766437176752706   -0.004216125759590021   -2.155980960254991e-05
-0.005330997804445742   -0.004265098152068541   -7.874231543613098e-05
-0.005179880320110401   -0.008303437020756118   -0.00014415007765295712
-0.005358130644793557   -0.004234129503318392   -6.56510145329805e-05
-0.0030030379434356097   -0.008272075881504299   -6.966865683269316e-05
-0.005207949475659556   -0.008273660515884858   -0.00012898369224657264
-0.005358130644793557   -0.004234129503318392   -6.56510145329805e-05
-0.005179880320110401   -0.008303437020756118   -0.00014415007765295712
-0.0030030379434356097   -0.008272075881504299   -6.966865683269316e-05
-0.005358130644793557   -0.004234129503318392   -6.56510145329805e-05
-0.0032066794343235177   -0.004186031465000315   -4.819907210478532e-06
-0.0031766437176752706   -0.004216125759590021   -2.155980960254991e-05
-0.0030030379434356097   -0.008272075881504299   -6.966865683269316e-05
-0.005358130644793557   -0.004234129503318392   -6.56510145329805e-05
-0.0031766437176752706   -0.004216125759590021   -2.155980960254991e-05
-0.005179880320110401   -0.008303437020756118   -0.00014415007765295712
-0.0030030379434356097   -0.008272075881504299   -6.966865683269316e-05
-0.0032066794343235177   -0.004186031465000315   -4.819907210478532e-06
-0.005207949475659556   -0.008273660515884858   -0.00012898369224657264
-0.003033357823694602   -0.008236565302896091   -5.2381810719346445e-05
-0.0032066794343235177   -0.004186031465000315   -4.819907210478532e-06
-0.005358130644793557   -0.004234129503318392   -6.56510145329805e-05
-0.005207949475659556   -0.008273660515884858   -0.00012898369224657264
-0.005384211226369411   -0.004201312088115968   -5.2532773959296376e-05
-0.003033357823694602   -0.008236565302896091   -5.2381810719346445e-05
-0.005234693727150573   -0.008243423674225477   -0.0001124093529825028
-0.005384211226369411   -0.004201312088115968   -5.2532773959296376e-05
-0.005207949475659556   -0.008273660515884858   -0.00012898369224657264
-0.003033357823694602   -0.008236565302896091   -5.2381810719346445e-05
-0.005384211226369411   -0.004201312088115968   -5.2532773959296376e-05
-0.003238311960030196   -0.004151805248879392   1.2993428618279533e-05
-0.0032066794343235177   -0.004186031465000315   -4.819907210478532e-06
-0.003033357823694602   -0.008236565302896091   -5.2381810719346445e-05
-0.005384211226369411   -0.004201312088115968   -5.2532773959296376e-05
-0.0032066794343235177   -0.004186031465000315   -4.819907210478532e-06
-0.005207949475659556   -0.008273660515884858   -0.00012898369224657264
-0.003033357823694602   -0.008236565302896091   -5.2381810719346445e-05
-0.003238311960030196   -0.004151805248879392   1.2993428618279533e-05
-0.005234693727150573   -0.008243423674225477   -0.0001124093529825028
-0.0030649700538339024   -0.008200429236834447   -3.318385111434361e-05
-0.003238311960030196   -0.004151805248879392   1.2993428618279533e-05
-0.005384211226369411   -0.004201312088115968   -5.2532773959296376e-05
-0.005234693727150573   -0.008243423674225477   -0.0001124093529825028
-0.005408340917007995   -0.004165695204849024   -3.81773254900207e-05
-0.0030649700538339024   -0.008200429236834447   -3.318385111434361e-05
-0.005261174027755482   -0.008212541838288937   -9.449974779902835e-05
-0.005408340917007995   -0.004165695204849024   -3.81773254900207e-05
-0.005234693727150573   -0.008243423674225477   -0.0001124093529825028
-0.0030649700538339024   -0.008200429236834447   -3.318385111434361e-05
-0.005408340917007995   -0.004165695204849024   -3.81773254900207e-05
-0.0032685387270474722   -0.004114290415647462   3.269659574143006e-05
-0.003238311960030196   -0.004151805248879392   1.2993428618279533e-05
-0.0030649700538339024   -0.008200429236834447   -3.318385111434361e-05
-0.005408340917007995   -0.004165695204849024   -3.81773254900207e-05
-0.003238311960030196   -0.004151805248879392   1.2993428618279533e-05
-0.005234693727150573   -0.008243423674225477   -0.0001124093529825028
-0.005179880320110401   -0.008303437020756118   -0.00014415007765295712
-0.005330997804445742   -0.004265098152068541   -7.874231543613098e-05
-0.007432902140648007   -0.00829033662865644   -0.00019309074967544762
-0.005207949475659556   -0.008273660515884858   -0.00012898369224657264
-0.005330997804445742   -0.004265098152068541   -7.874231543613098e-05
-0.007561090302356393   -0.004285306181685167   -0.0001313859564243268
-0.007432902140648007   -0.00829033662865644   -0.00019309074967544762
-0.007585569055244955   -0.004257679153887321   -0.00012174408287383497
-0.005207949475659556   -0.008273660515884858   -0.00012898369224657264
-0.007459657781296762   -0.00826639041299884   -0.00017854562107522137
-0.007585569055244955   -0.004257679153887321   -0.00012174408287383497
-0.007432902140648007   -0.00829033662865644   -0.00019309074967544762
-0.005207949475659556   -0.008273660515884858   -0.00012898369224657264
-0.007585569055244955   -0.004257679153887321   -0.00012174408287383497
-0.005358130644793557   -0.004234129503318392   -6.56510145329805e-05
-0.005330997804445742   -0.004265098152068541   -7.874231543613098e-05
-0.005207949475659556   -0.008273660515884858   -0.00012898369224657264
-0.007585569055244955   -0.004257679153887321   -0.00012174408287383497
-0.005330997804445742   -0.004265098152068541   -7.874231543613098e-05
-0.007432902140648007   -0.00829033662865644   -0.00019309074967544762
-0.005207949475659556   -0.008273660515884858   -0.00012898369224657264
-0.005358130644793557   -0.004234129503318392   -6.56510145329805e-05
-0.007459657781296762   -0.00826639041299884   -0.00017854562107522137
-0.005234693727150573   -0.008243423674225477   -0.0001124093529825028
-0.005358130644793557   -0.004234129503318392   -6.56510145329805e-05
-0.007585569055244955   -0.004257679153887321   -0.00012174408287383497
-0.007459657781296762   -0.00826639041299884   -0.00017854562107522137
-0.007607389176914249   -0.004227440642571326   -0.00011231331957772459
-0.005234693727150573   -0.008243423674225477   -0.0001124093529825028
-0.007482226952443765   -0.008241158505576005   -0.00016297843214187977
-0.007607389176914249   -0.004227440642571326   -0.00011231331957772459
-0.007459657781296762   -0.00826639041299884   -0.00017854562107522137
-0.005234693727150573   -0.008243423674225477   -0.0001124093529825028
-0.007607389176914249   -0.004227440642571326   -0.00011231331957772459
-0.005384211226369411   -0.004201312088115968   -5.2532773959296376e-05
-0.005358130644793557   -0.004234129503318392   -6.56510145329805e-05
-0.005234693727150573   -0.008243423674225477   -0.0001124093529825028
-0.007607389176914249   -0.004227440642571326   -0.00011231331957772459
-0.005358130644793557   -0.004234129503318392   -6.56510145329805e-05
-0.007459657781296762   -0.00826639041299884   -0.00017854562107522137
-0.005234693727150573   -0.008243423674225477   -0.0001124093529825028
-0.005384211226369411   -0.004201312088115968   -5.2532773959296376e-05
-0.007482226952443765   -0.008241158505576005   -0.00016297843214187977
-0.005261174027755482   -0.008212541838288937   -9.449974779902835e-05
-0.005384211226369411   -0.004201312088115968   -5.2532773959296376e-05
-0.007607389176914249   -0.004227440642571326   -0.00011231331957772459
-0.007482226952443765   -0.008241158505576005   -0.00016297843214187977
-0.007627174850288675   -0.004195179486864376   -0.00010252801346335695
-0.005261174027755482   -0.008212541838288937   -9.449974779902835e-05
-0.007503552356674052   -0.008215330199958917   -0.00014596521020095133
-0.007627174850288675   -0.004195179486864376   -0.00010252801346335695
-0.007482226952443765   -0.008241158505576005   -0.00016297843214187977
-0.005261174027755482   -0.008212541838288937   -9.449974779902835e-05
-0.007627174850288675   -0.004195179486864376   -0.00010252801346335695
-0.005408340917007995   -0.004165695204849024   -3.81773254900207e-05
-0.005384211226369411   -0.004201312088115968   -5.2532773959296376e-05
-0.005261174027755482   -0.008212541838288937   -9.449974779902835e-05
-0.007627174850288675   -0.004195179486864376   -0.00010252801346335695
-0.005384211226369411   -0.004201312088115968   -5.2532773959296376e-05
-0.007482226952443765   -0.008241158505576005   -0.00016297843214187977
-0.007432902140648007   -0.00829033662865644   -0.00019309074967544762
-0.007561090302356393   -0.004285306181685167   -0.0001313859564243268
-0.009795112271043759   -0.008268464146996935   -0.00022857666498819057
-0.007459657781296762   -0.00826639041299884   -0.00017854562107522137
-0.007561090302356393   -0.004285306181685167   -0.0001313859564243268
-0.009872644994448287   -0.0042873846617770515   -0.0001745973509082952
-0.009795112271043759   -0.008268464146996935   -0.00022857666498819057
-0.009893513974132536   -0.004260653623339808   -0.00017026758198677525
-0.007459657781296762   -0.00826639041299884   -0.00017854562107522137
-0.009811203365598022   -0.008248679557863294   -0.0002173439876644144
-0.009893513974132536   -0.004260653623339808   -0.00017026758198677525
-0.009795112271043759   -0.008268464146996935   -0.00022857666498819057
-0.007459657781296762   -0.00826639041299884   -0.00017854562107522137
-0.009893513974132536   -0.004260653623339808   -0.00017026758198677525
-0.007585569055244955   -0.004257679153887321   -0.00012174408287383497
-0.007561090302356393   -0.004285306181685167   -0.0001313859564243268
-0.007459657781296762   -0.00826639041299884   -0.00017854562107522137
-0.009893513974132536   -0.004260653623339808   -0.00017026758198677525
-0.007561090302356393   -0.004285306181685167   -0.0001313859564243268
-0.009795112271043759   -0.008268464146996935   -0.00022857666498819057
-0.007459657781296762   -0.00826639041299884   -0.00017854562107522137
-0.007585569055244955   -0.004257679153887321   -0.00012174408287383497
-0.009811203365598022   -0.008248679557863294   -0.0002173439876644144
-0.007482226952443765   -0.008241158505576005   -0.00016297843214187977
-0.007585569055244955   -0.004257679153887321   -0.00012174408287383497
-0.009893513974132536   -0.004260653623339808   -0.00017026758198677525
-0.009811203365598022   -0.008248679557863294   -0.0002173439876644144
-0.009912210957080366   -0.00423160261737171   -0.00016516840266555884
-0.007482226952443765   -0.008241158505576005   -0.00016297843214187977
-0.009825917176785019   -0.008226159893102755   -0.00020364936159019095
-0.009912210957080366   -0.00423160261737171   -0.00016516840266555884
-0.009811203365598022   -0.008248679557863294   -0.0002173439876644144
-0.007482226952443765   -0.008241158505576005   -0.00016297843214187977
-0.009912210957080366   -0.00423160261737171   -0.00016516840266555884
-0.007607389176914249   -0.004227440642571326   -0.00011231331957772459
-0.007585569055244955   -0.004257679153887321   -0.00012174408287383497
-0.007482226952443765   -0.008241158505576005   -0.00016297843214187977
-0.009912210957080366   -0.00423160261737171   -0.00016516840266555884
-0.007585569055244955   -0.004257679153887321   -0.00012174408287383497
-0.009811203365598022   -0.008248679557863294   -0.0002173439876644144
-0.007482226952443765   -0.008241158505576005   -0.00016297843214187977
-0.007607389176914249   -0.004227440642571326   -0.00011231331957772459
-0.009825917176785019   -0.008226159893102755   -0.00020364936159019095
-0.007503552356674052   -0.008215330199958917   -0.00014596521020095133
-0.007607389176914249   -0.004227440642571326   -0.00011231331957772459
-0.009912210957080366   -0.00423160261737171   -0.00016516840266555884
-0.009825917176785019   -0.008226159893102755   -0.00020364936159019095
-0.009927723432571966   -0.004200868755867358   -0.00016030481303245847
-0.007503552356674052   -0.008215330199958917   -0.00014596521020095133
-0.009832444754137692   -0.008205890364483921   -0.0001880829557631241
-0.009927723432571966   -0.004200868755867358   -0.00016030481303245847
-0.009825917176785019   -0.008226159893102755   -0.00020364936159019095
-0.007503552356674052   -0.008215330199958917   -0.00014596521020095133
-0.009927723432571966   -0.004200868755867358   -0.00016030481303245847
-0.007627174850288675   -0.004195179486864376   -0.00010252801346335695
-0.007607389176914249   -0.004227440642571326   -0.00011231331957772459
-0.007503552356674052   -0.008215330199958917   -0.00014596521020095133
-0.009927723432571966   -0.004200868755867358   -0.00016030481303245847
-0.007607389176914249   -0.004227440642571326   -0.00011231331957772459
-0.009825917176785019   -0.008226159893102755   -0.00020364936159019095
0.0011452036131401112   -0.004206267518037894   5.2290008903898725e-05
0.0   0.0   0.0
-0.001071717726801711   -0.004153480137153274   2.9474319659414765e-05
0.0010444754937601571   -0.004154866844802417   0.00010993659224328053
0.0   0.0   0.0
-0.0013385644337477783   -0.00035095102961803216   -8.540776332039549e-06
-0.001071717726801711   -0.004153480137153274   2.9474319659414765e-05
-0.0014187874200176172   -0.00027507026121388053   3.8744580442309757e-05
0.0010444754937601571   -0.004154866844802417   0.00010993659224328053
-0.00110395030193097   -0.004134426754920203   5.2901627608359794e-05
-0.0014187874200176172   -0.00027507026121388053   3.8744580442309757e-05
-0.001071717726801711   -0.004153480137153274   2.9474319659414765e-05
0.0010444754937601571   -0.004154866844802417   0.00010993659224328053
-0.0014187874200176172   -0.00027507026121388053   3.8744580442309757e-05
0.0   0.0   0.0
0.0   0.0   0.0
0.0010444754937601571   -0.004154866844802417   0.00010993659224328053
-0.0014187874200176172   -0.00027507026121388053   3.8744580442309757e-05
0.0   0.0   0.0
-0.001071717726801711   -0.004153480137153274   2.9474319659414765e-05
0.0010444754937601571   -0.004154866844802417   0.00010993659224328053
0.0   0.0   0.0
-0.00110395030193097   -0.004134426754920203   5.2901627608359794e-05
0.0009856708529767065   -0.004113465989451445   0.00015273227985710598
0.0   0.0   0.0
-0.0014187874200176172   -0.00027507026121388053   3.8744580442309757e-05
-0.00110395030193097   -0.004134426754920203   5.2901627608359794e-05
-0.0014694835423226947   -0.00023881269645425023   6.642743305599529e-05
0.0009856708529767065   -0.004113465989451445   0.00015273227985710598
-0.0011467139705410784   -0.0040991338585171   8.146482028005009e-05
-0.0014694835423226947   -0.00023881269645425023   6.642743305599529e-05
-0.00110395030193097   -0.004134426754920203   5.2901627608359794e-05
0.0009856708529767065   -0.004113465989451445   0.00015273227985710598
-0.0014694835423226947   -0.00023881269645425023   6.642743305599529e-05
0.0   0.0   0.0
0.0   0.0   0.0
0.0009856708529767065   -0.004113465989451445   0.00015273227985710598
-0.0014694835423226947   -0.00023881269645425023   6.642743305599529e-05
0.0   0.0   0.0
-0.00110395030193097   -0.004134426754920203   5.2901627608359794e-05
0.0009856708529767065   -0.004113465989451445   0.00015273227985710598
0.0   0.0   0.0
-0.0011467139705410784   -0.0040991338585171   8.146482028005009e-05
0.0009100205578636779   -0.004049589703897365   0.0002018400688408228
0.0   0.0   0.0
-0.0014694835423226947   -0.00023881269645425023   6.642743305599529e-05
-0.0011467139705410784   -0.0040991338585171   8.146482028005009e-05
-0.0015380615257984435   -0.0001904666519436226   9.827694368962114e-05
0.0009100205578636779   -0.004049589703897365   0.0002018400688408228
-0.0011828436110926396   -0.004061430550635764   0.00010658438233138611
-0.0015380615257984435   -0.0001904666519436226   9.827694368962114e-05
-0.0011467139705410784   -0.0040991338585171   8.146482028005009e-05
0.0009100205578636779   -0.004049589703897365   0.0002018400688408228
-0.0015380615257984435   -0.0001904666519436226   9.827694368962114e-05
0.0   0.0   0.0
0.0   0.0   0.0
0.0009100205578636779   -0.004049589703897365   0.0002018400688408228
-0.0015380615257984435   -0.0001904666519436226   9.827694368962114e-05
0.0   0.0   0.0
-0.0011467139705410784   -0.0040991338585171   8.146482028005009e-05
-0.001071717726801711   -0.004153480137153274   2.9474319659414765e-05
-0.0013385644337477783   -0.00035095102961803216   -8.540776332039549e-06
-0.0031766437176752706   -0.004216125759590021   -2.155980960254991e-05
-0.00110395030193097   -0.004134426754920203   5.2901627608359794e-05
-0.0013385644337477783   -0.00035095102961803216   -8.540776332039549e-06
-0.0032689016630705237   -0.0004639403741527388   -4.072190562580049e-06
-0.0031766437176752706   -0.004216125759590021   -2.155980960254991e-05
-0.0033106976811887873   -0.00042312154161718544   8.574219995489675e-06
-0.00110395030193097   -0.004134426754920203   5.2901627608359794e-05
-0.0032066794343235177   -0.004186031465000315   -4.819907210478532e-06
-0.0033106976811887873   -0.00042312154161718544   8.574219995489675e-06
-0.0031766437176752706   -0.004216125759590021   -2.155980960254991e-05
-0.00110395030193097   -0.004134426754920203   5.2901627608359794e-05
-0.0033106976811887873   -0.00042312154161718544   8.574219995489675e-06
-0.0014187874200176172   -0.00027507026121388053   3.8744580442309757e-05
-0.0013385644337477783   -0.00035095102961803216   -8.540776332039549e-06
-0.00110395030193097   -0.004134426754920203   5.2901627608359794e-05
-0.0033106976811887873   -0.00042312154161718544   8.574219995489675e-06
-0.0013385644337477783   -0.00035095102961803216   -8.540776332039549e-06
-0.0031766437176752706   -0.004216125759590021   -2.155980960254991e-05
-0.00110395030193097   -0.004134426754920203   5.2901627608359794e-05
-0.0014187874200176172   -0.00027507026121388053   3.8744580442309757e-05
-0.0032066794343235177   -0.004186031465000315   -4.819907210478532e-06
-0.0011467139705410784   -0.0040991338585171   8.146482028005009e-05
-0.0014187874200176172   -0.00027507026121388053   3.8744580442309757e-05
-0.0033106976811887873   -0.00042312154161718544   8.574219995489675e-06
-0.0032066794343235177   -0.004186031465000315   -4.819907210478532e-06
-0.0033524793188804912   -0.00037518819807149105   3.082897285961443e-05
-0.0011467139705410784   -0.0040991338585171   8.146482028005009e-05
-0.003238311960030196   -0.004151805248879392   1.2993428618279533e-05
-0.0033524793188804912   -0.00037518819807149105   3.082897285961443e-05
-0.0032066794343235177   -0.004186031465000315   -4.819907210478532e-06
-0.0011467139705410784   -0.0040991338585171   8.146482028005009e-05
-0.0033524793188804912   -0.00037518819807149105   3.082897285961443e-05
-0.0014694835423226947   -0.00023881269645425023   6.642743305599529e-05
-0.0014187874200176172   -0.00027507026121388053   3.8744580442309757e-05
-0.0011467139705410784   -0.0040991338585171   8.146482028005009e-05
-0.0033524793188804912   -0.00037518819807149105   3.082897285961443e-05
-0.0014187874200176172   -0.00027507026121388053   3.8744580442309757e-05
-0.0032066794343235177   -0.004186031465000315   -4.819907210478532e-06
-0.0011467139705410784   -0.0040991338585171   8.146482028005009e-05
-0.0014694835423226947   -0.00023881269645425023   6.642743305599529e-05
-0.003238311960030196   -0.004151805248879392   1.2993428618279533e-05
-0.0011828436110926396   -0.004061430550635764   0.00010658438233138611
-0.0014694835423226947   -0.00023881269645425023   6.642743305599529e-05
-0.0033524793188804912   -0.00037518819807149105   3.082897285961443e-05
-0.003238311960030196   -0.004151805248879392   1.2993428618279533e-05
-0.003399375385905389   -0.00031937471020547487   5.23865223701579e-05
-0.0011828436110926396   -0.004061430550635764   0.00010658438233138611
-0.0032685387270474722   -0.004114290415647462   3.269659574143006e-05
-0.003399375385905389   -0.00031937471020547487   5.23865223701579e-05
-0.003238311960030196   -0.004151805248879392   1.2993428618279533e-05
-0.0011828436110926396   -0.004061430550635764   0.00010658438233138611
-0.003399375385905389   -0.00031937471020547487   5.23865223701579e-05
-0.0015380615257984435   -0.0001904666519436226   9.827694368962114e-05
-0.0014694835423226947   -0.00023881269645425023   6.642743305599529e-05
-0.0011828436110926396   -0.004061430550635764   0.00010658438233138611
-0.003399375385905389   -0.00031937471020547487   5.23865223701579e-05
-0.0014694835423226947   -0.00023881269645425023   6.642743305599529e-05
-0.003238311960030196   -0.004151805248879392   1.2993428618279533e-05
-0.0031766437176752706   -0.004216125759590021   -2.155980960254991e-05
-0.0032689016630705237   -0.0004639403741527388   -4.072190562580049e-06
-0.005330997804445742   -0.004265098152068541   -7.874231543613098e-05
-0.0032066794343235177   -0.004186031465000315   -4.819907210478532e-06
-0.0032689016630705237   -0.0004639403741527388   -4.072190562580049e-06
-0.005382901311815511   -0.0004978799553398296   -3.880029996485314e-05
-0.005330997804445742   -0.004265098152068541   -7.874231543613098e-05
-0.005408517725703126   -0.00046676793185274903   -3.506510180055964e-05
-0.0032066794343235177   -0.004186031465000315   -4.819907210478532e-06
-0.005358130644793557   -0.004234129503318392   -6.56510145329805e-05
-0.005408517725703126   -0.00046676793185274903   -3.506510180055964e-05
-0.005330997804445742   -0.004265098152068541   -7.874231543613098e-05
-0.0032066794343235177   -0.004186031465000315   -4.819907210478532e-06
-0.005408517725703126   -0.00046676793185274903   -3.506510180055964e-05
-0.0033106976811887873   -0.00042312154161718544   8.574219995489675e-06
-0.0032689016630705237   -0.0004639403741527388   -4.072190562580049e-06
-0.0032066794343235177   -0.004186031465000315   -4.819907210478532e-06
-0.005408517725703126   -0.00046676793185274903   -3.506510180055964e-05
-0.0032689016630705237   -0.0004639403741527388   -4.072190562580049e-06
-0.005330997804445742   -0.004265098152068541   -7.874231543613098e-05
-0.0032066794343235177   -0.004186031465000315   -4.819907210478532e-06
-0.0033106976811887873   -0.00042312154161718544   8.574219995489675e-06
-0.005358130644793557   -0.004234129503318392   -6.56510145329805e-05
-0.003238311960030196   -0.004151805248879392   1.2993428618279533e-05
-0.0033106976811887873   -0.00042312154161718544   8.574219995489675e-06
-0.005408517725703126   -0.00046676793185274903   -3.506510180055964e-05
-0.005358130644793557   -0.004234129503318392   -6.56510145329805e-05
-0.005435200013304256   -0.0004303002761397159   -2.8643115216219127e-05
-0.003238311960030196   -0.004151805248879392   1.2993428618279533e-05
-0.005384211226369411   -0.004201312088115968   -5.2532773959296376e-05
-0.005435200013304256   -0.0004303002761397159   -2.8643115216219127e-05
-0.005358130644793557   -0.004234129503318392   -6.56510145329805e-05
-0.003238311960030196   -0.004151805248879392   1.2993428618279533e-05
-0.005435200013304256   -0.0004303002761397159   -2.8643115216219127e-05
-0.0033524793188804912   -0.00037518819807149105   3.082897285961443e-05
-0.0033106976811887873   -0.00042312154161718544   8.574219995489675e-06
-0.003238311960030196   -0.004151805248879392   1.2993428618279533e-05
-0.005435200013304256   -0.0004303002761397159   -2.8643115216219127e-05
-0.0033106976811887873   -0.00042312154161718544   8.574219995489675e-06
-0.005358130644793557   -0.004234129503318392   -6.56510145329805e-05
-0.003238311960030196   -0.004151805248879392   1.2993428618279533e-05
-0.0033524793188804912   -0.00037518819807149105   3.082897285961443e-05
-0.005384211226369411   -0.004201312088115968   -5.2532773959296376e-05
-0.0032685387270474722   -0.004114290415647462   3.269659574143006e-05
-0.0033524793188804912   -0.00037518819807149105   3.082897285961443e-05
-0.005435200013304256   -0.0004303002761397159   -2.8643115216219127e-05
-0.005384211226369411   -0.004201312088115968   -5.2532773959296376e-05
-0.005461037797749484   -0.0003853366773028304   -2.014435738301892e-05
-0.0032685387270474722   -0.004114290415647462   3.269659574143006e-05
-0.005408340917007995   -0.004165695204849024   -3.81773254900207e-05
-0.005461037797749484   -0.0003853366773028304   -2.014435738301892e-05
-0.005384211226369411   -0.004201312088115968   -5.2532773959296376e-05
-0.0032685387270474722   -0.004114290415647462   3.269659574143006e-05
-0.005461037797749484   -0.0003853366773028304   -2.014435738301892e-05
-0.003399375385905389   -0.00031937471020547487   5.23865223701579e-05
-0.0033524793188804912   -0.00037518819807149105   3.082897285961443e-05
-0.0032685387270474722   -0.004114290415647462   3.269659574143006e-05
-0.005461037797749484   -0.0003853366773028304   -2.014435738301892e-05
-0.0033524793188804912   -0.00037518819807149105   3.082897285961443e-05
-0.005384211226369411   -0.004201312088115968   -5.2532773959296376e-05
-0.005330997804445742   -0.004265098152068541   -7.874231543613098e-05
-0.005382901311815511   -0.0004978799553398296   -3.880029996485314e-05
-0.007561090302356393   -0.004285306181685167   -0.0001313859564243268
-0.005358130644793557   -0.004234129503318392   -6.56510145329805e-05
-0.005382901311815511   -0.0004978799553398296   -3.880029996485314e-05
-0.007600614666487279   -0.0004947487494321452   -9.059339262202519e-05
-0.007561090302356393   -0.004285306181685167   -0.0001313859564243268
-0.007617983113214626   -0.00046732732774773967   -8.895915490611746e-05
-0.005358130644793557   -0.004234129503318392   -6.56510145329805e-05
-0.007585569055244955   -0.004257679153887321   -0.00012174408287383497
-0.007617983113214626   -0.00046732732774773967   -8.895915490611746e-05
-0.007561090302356393   -0.004285306181685167   -0.0001313859564243268
-0.005358130644793557   -0.004234129503318392   -6.56510145329805e-05
-0.007617983113214626   -0.00046732732774773967   -8.895915490611746e-05
-0.005408517725703126   -0.00046676793185274903   -3.506510180055964e-05
-0.005382901311815511   -0.0004978799553398296   -3.880029996485314e-05
-0.005358130644793557   -0.004234129503318392   -6.56510145329805e-05
-0.007617983113214626   -0.00046732732774773967   -8.895915490611746e-05
-0.005382901311815511   -0.0004978799553398296   -3.880029996485314e-05
-0.007561090302356393   -0.004285306181685167   -0.0001313859564243268
-0.005358130644793557   -0.004234129503318392   -6.56510145329805e-05
-0.005408517725703126   -0.00046676793185274903   -3.506510180055964e-05
-0.007585569055244955   -0.004257679153887321   -0.00012174408287383497
-0.005384211226369411   -0.004201312088115968   -5.2532773959296376e-05
-0.005408517725703126   -0.00046676793185274903   -3.506510180055964e-05
-0.007617983113214626   -0.00046732732774773967   -8.895915490611746e-05
-0.007585569055244955   -0.004257679153887321   -0.00012174408287383497
-0.007636087787453986   -0.0004364612723680441   -8.76264010044678e-05
-0.005384211226369411   -0.004201312088115968   -5.2532773959296376e-05
-0.007607389176914249   -0.004227440642571326   -0.00011231331957772459
-0.007636087787453986   -0.0004364612723680441   -8.76264010044678e-05
-0.007585569055244955   -0.004257679153887321   -0.00012174408287383497
-0.005384211226369411   -0.004201312088115968   -5.2532773959296376e-05
-0.007636087787453986   -0.0004364612723680441   -8.76264010044678e-05
-0.005435200013304256   -0.0004303002761397159   -2.8643115216219127e-05
-0.005408517725703126   -0.00046676793185274903   -3.506510180055964e-05
-0.005384211226369411   -0.004201312088115968   -5.2532773959296376e-05
-0.007636087787453986   -0.0004364612723680441   -8.76264010044678e-05
-0.005408517725703126   -0.00046676793185274903   -3.506510180055964e-05
-0.007585569055244955   -0.004257679153887321   -0.00012174408287383497
-0.005384211226369411   -0.004201312088115968   -5.2532773959296376e-05
-0.005435200013304256   -0.0004303002761397159   -2.8643115216219127e-05
-0.007607389176914249   -0.004227440642571326   -0.00011231331957772459
-0.005408340917007995   -0.004165695204849024   -3.81773254900207e-05
-0.005435200013304256   -0.0004303002761397159   -2.8643115216219127e-05
-0.007636087787453986   -0.0004364612723680441   -8.76264010044678e-05
-0.007607389176914249   -0.004227440642571326   -0.00011231331957772459
-0.007650201264096352   -0.00040269093615150704   -8.665366407307306e-05
-0.005408340917007995   -0.004165695204849024   -3.81773254900207e-05
-0.007627174850288675   -0.004195179486864376   -0.00010252801346335695
-0.007650201264096352   -0.00040269093615150704   -8.665366407307306e-05
-0.007607389176914249   -0.004227440642571326   -0.00011231331957772459
-0.005408340917007995   -0.004165695204849024   -3.81773254900207e-05
-0.007650201264096352   -0.00040269093615150704   -8.665366407307306e-05
-0.005461037797749484   -0.0003853366773028304   -2.014435738301892e-05
-0.005435200013304256   -0.0004303002761397159   -2.8643115216219127e-05
-0.005408340917007995   -0.004165695204849024   -3.81773254900207e-05
-0.007650201264096352   -0.00040269093615150704   -8.665366407307306e-05
-0.005435200013304256   -0.0004303002761397159   -2.8643115216219127e-05
-0.007607389176914249   -0.004227440642571326   -0.00011231331957772459
-0.007561090302356393   -0.004285306181685167   -0.0001313859564243268
-0.007600614666487279   -0.0004947487494321452   -9.059339262202519e-05
-0.009872644994448287   -0.0042873846617770515   -0.0001745973509082952
-0.007585569055244955   -0.004257679153887321   -0.00012174408287383497
-0.007600614666487279   -0.0004947487494321452   -9.059339262202519e-05
-0.009881033737156295   -0.0004916032579118279   -0.00014175266763911352
-0.009872644994448287   -0.0042873846617770515   -0.0001745973509082952
-0.009894958754974944   -0.0004619843675587065   -0.0001416131885561648
-0.007585569055244955   -0.004257679153887321   -0.00012174408287383497
-0.009893513974132536   -0.004260653623339808   -0.00017026758198677525
-0.009894958754974944   -0.0004619843675587065   -0.0001416131885561648
-0.009872644994448287   -0.0042873846617770515   -0.0001745973509082952
-0.007585569055244955   -0.004257679153887321   -0.00012174408287383497
-0.009894958754974944   -0.0004619843675587065   -0.0001416131885561648
-0.007617983113214626   -0.00046732732774773967   -8.895915490611746e-05
-0.007600614666487279   -0.0004947487494321452   -9.059339262202519e-05
-0.007585569055244955   -0.004257679153887321   -0.00012174408287383497
-0.009894958754974944   -0.0004619843675587065   -0.0001416131885561648
-0.007600614666487279   -0.0004947487494321452   -9.059339262202519e-05
-0.009872644994448287   -0.0042873846617770515   -0.0001745973509082952
-0.007585569055244955   -0.004257679153887321   -0.00012174408287383497
-0.007617983113214626   -0.00046732732774773967   -8.895915490611746e-05
-0.009893513974132536   -0.004260653623339808   -0.00017026758198677525
-0.007607389176914249   -0.004227440642571326   -0.00011231331957772459
-0.007617983113214626   -0.00046732732774773967   -8.895915490611746e-05
-0.009894958754974944   -0.0004619843675587065   -0.0001416131885561648
-0.009893513974132536   -0.004260653623339808   -0.00017026758198677525
-0.00991021334091091   -0.00043216143886757214   -0.00014379717561732462
-0.007607389176914249   -0.004227440642571326   -0.00011231331957772459
-0.009912210957080366   -0.00423160261737171   -0.00016516840266555884
-0.00991021334091091   -0.00043216143886757214   -0.00014379717561732462
-0.009893513974132536   -0.004260653623339808   -0.00017026758198677525
-0.007607389176914249   -0.004227440642571326   -0.00011231331957772459
-0.00991021334091091   -0.00043216143886757214   -0.00014379717561732462
-0.007636087787453986   -0.0004364612723680441   -8.76264010044678e-05
-0.007617983113214626   -0.00046732732774773967   -8.895915490611746e-05
-0.007607389176914249   -0.004227440642571326   -0.00011231331957772459
-0.00991021334091091   -0.00043216143886757214   -0.00014379717561732462
-0.007617983113214626   -0.00046732732774773967   -8.895915490611746e-05
-0.009893513974132536   -0.004260653623339808   -0.00017026758198677525
-0.007607389176914249   -0.004227440642571326   -0.00011231331957772459
-0.007636087787453986   -0.0004364612723680441   -8.76264010044678e-05
-0.009912210957080366   -0.00423160261737171   -0.00016516840266555884
-0.007627174850288675   -0.004195179486864376   -0.00010252801346335695
-0.007636087787453986   -0.0004364612723680441   -8.76264010044678e-05
-0.00991021334091091   -0.00043216143886757214   -0.00014379717561732462
-0.009912210957080366   -0.00423160261737171   -0.00016516840266555884
-0.009921570736568514   -0.00039952955315397036   -0.00014606435980266325
-0.007627174850288675   -0.004195179486864376   -0.00010252801346335695
-0.009927723432571966   -0.004200868755867358   -0.00016030481303245847
-0.009921570736568514   -0.00039952955315397036   -0.00014606435980266325
-0.009912210957080366   -0.00423160261737171   -0.00016516840266555884
-0.007627174850288675   -0.004195179486864376   -0.00010252801346335695
-0.009921570736568514   -0.00039952955315397036   -0.00014606435980266325
-0.007650201264096352   -0.00040269093615150704   -8.665366407307306e-05
-0.007636087787453986   -0.0004364612723680441   -8.76264010044678e-05
-0.007627174850288675   -0.004195179486864376   -0.00010252801346335695
-0.009921570736568514   -0.00039952955315397036   -0.00014606435980266325
-0.007636087787453986   -0.0004364612723680441   -8.76264010044678e-05
-0.009912210957080366   -0.00423160261737171   -0.00016516840266555884
              </DataArray>   
          </PointData>  
       </Piece>  
   </UnstructuredGrid> 
</VTKFile> 
