<?xml version="1.0"?> 
<VTKFile type="UnstructuredGrid"> 
   <UnstructuredGrid> 
      <Piece NumberOfPoints="6000"  NumberOfCells="1500">  
          <Points>  
             <DataArray type="Float64" NumberOfComponents="3" format="ascii">   
-500.0   0.0   0.0
-450.0   0.0   0.0
-500.0   30.0   0.0
-500.0   0.0   16.666666666666668
-450.0   0.0   0.0
-450.0   30.0   0.0
-500.0   30.0   0.0
-450.0   30.0   16.666666666666668
-500.0   0.0   16.666666666666668
-500.0   30.0   16.666666666666668
-450.0   30.0   16.666666666666668
-500.0   30.0   0.0
-500.0   0.0   16.666666666666668
-450.0   30.0   16.666666666666668
-450.0   0.0   16.666666666666668
-450.0   0.0   0.0
-500.0   0.0   16.666666666666668
-450.0   30.0   16.666666666666668
-450.0   0.0   0.0
-500.0   30.0   0.0
-500.0   0.0   16.666666666666668
-450.0   0.0   16.666666666666668
-500.0   30.0   16.666666666666668
-500.0   0.0   33.333333333333336
-450.0   0.0   16.666666666666668
-450.0   30.0   16.666666666666668
-500.0   30.0   16.666666666666668
-450.0   30.0   33.333333333333336
-500.0   0.0   33.333333333333336
-500.0   30.0   33.333333333333336
-450.0   30.0   33.333333333333336
-500.0   30.0   16.666666666666668
-500.0   0.0   33.333333333333336
-450.0   30.0   33.333333333333336
-450.0   0.0   33.333333333333336
-450.0   0.0   16.666666666666668
-500.0   0.0   33.333333333333336
-450.0   30.0   33.333333333333336
-450.0   0.0   16.666666666666668
-500.0   30.0   16.666666666666668
-500.0   0.0   33.333333333333336
-450.0   0.0   33.333333333333336
-500.0   30.0   33.333333333333336
-500.0   0.0   50.0
-450.0   0.0   33.333333333333336
-450.0   30.0   33.333333333333336
-500.0   30.0   33.333333333333336
-450.0   30.0   50.0
-500.0   0.0   50.0
-500.0   30.0   50.0
-450.0   30.0   50.0
-500.0   30.0   33.333333333333336
-500.0   0.0   50.0
-450.0   30.0   50.0
-450.0   0.0   50.0
-450.0   0.0   33.333333333333336
-500.0   0.0   50.0
-450.0   30.0   50.0
-450.0   0.0   33.333333333333336
-500.0   30.0   33.333333333333336
-500.0   30.0   0.0
-450.0   30.0   0.0
-500.0   60.0   0.0
-500.0   30.0   16.666666666666668
-450.0   30.0   0.0
-450.0   60.0   0.0
-500.0   60.0   0.0
-450.0   60.0   16.666666666666668
-500.0   30.0   16.666666666666668
-500.0   60.0   16.666666666666668
-450.0   60.0   16.666666666666668
-500.0   60.0   0.0
-500.0   30.0   16.666666666666668
-450.0   60.0   16.666666666666668
-450.0   30.0   16.666666666666668
-450.0   30.0   0.0
-500.0   30.0   16.666666666666668
-450.0   60.0   16.666666666666668
-450.0   30.0   0.0
-500.0   60.0   0.0
-500.0   30.0   16.666666666666668
-450.0   30.0   16.666666666666668
-500.0   60.0   16.666666666666668
-500.0   30.0   33.333333333333336
-450.0   30.0   16.666666666666668
-450.0   60.0   16.666666666666668
-500.0   60.0   16.666666666666668
-450.0   60.0   33.333333333333336
-500.0   30.0   33.333333333333336
-500.0   60.0   33.333333333333336
-450.0   60.0   33.333333333333336
-500.0   60.0   16.666666666666668
-500.0   30.0   33.333333333333336
-450.0   60.0   33.333333333333336
-450.0   30.0   33.333333333333336
-450.0   30.0   16.666666666666668
-500.0   30.0   33.333333333333336
-450.0   60.0   33.333333333333336
-450.0   30.0   16.666666666666668
-500.0   60.0   16.666666666666668
-500.0   30.0   33.333333333333336
-450.0   30.0   33.333333333333336
-500.0   60.0   33.333333333333336
-500.0   30.0   50.0
-450.0   30.0   33.333333333333336
-450.0   60.0   33.333333333333336
-500.0   60.0   33.333333333333336
-450.0   60.0   50.0
-500.0   30.0   50.0
-500.0   60.0   50.0
-450.0   60.0   50.0
-500.0   60.0   33.333333333333336
-500.0   30.0   50.0
-450.0   60.0   50.0
-450.0   30.0   50.0
-450.0   30.0   33.333333333333336
-500.0   30.0   50.0
-450.0   60.0   50.0
-450.0   30.0   33.333333333333336
-500.0   60.0   33.333333333333336
-500.0   60.0   0.0
-450.0   60.0   0.0
-500.0   90.0   0.0
-500.0   60.0   16.666666666666668
-450.0   60.0   0.0
-450.0   90.0   0.0
-500.0   90.0   0.0
-450.0   90.0   16.666666666666668
-500.0   60.0   16.666666666666668
-500.0   90.0   16.666666666666668
-450.0   90.0   16.666666666666668
-500.0   90.0   0.0
-500.0   60.0   16.666666666666668
-450.0   90.0   16.666666666666668
-450.0   60.0   16.666666666666668
-450.0   60.0   0.0
-500.0   60.0   16.666666666666668
-450.0   90.0   16.666666666666668
-450.0   60.0   0.0
-500.0   90.0   0.0
-500.0   60.0   16.666666666666668
-450.0   60.0   16.666666666666668
-500.0   90.0   16.666666666666668
-500.0   60.0   33.333333333333336
-450.0   60.0   16.666666666666668
-450.0   90.0   16.666666666666668
-500.0   90.0   16.666666666666668
-450.0   90.0   33.333333333333336
-500.0   60.0   33.333333333333336
-500.0   90.0   33.333333333333336
-450.0   90.0   33.333333333333336
-500.0   90.0   16.666666666666668
-500.0   60.0   33.333333333333336
-450.0   90.0   33.333333333333336
-450.0   60.0   33.333333333333336
-450.0   60.0   16.666666666666668
-500.0   60.0   33.333333333333336
-450.0   90.0   33.333333333333336
-450.0   60.0   16.666666666666668
-500.0   90.0   16.666666666666668
-500.0   60.0   33.333333333333336
-450.0   60.0   33.333333333333336
-500.0   90.0   33.333333333333336
-500.0   60.0   50.0
-450.0   60.0   33.333333333333336
-450.0   90.0   33.333333333333336
-500.0   90.0   33.333333333333336
-450.0   90.0   50.0
-500.0   60.0   50.0
-500.0   90.0   50.0
-450.0   90.0   50.0
-500.0   90.0   33.333333333333336
-500.0   60.0   50.0
-450.0   90.0   50.0
-450.0   60.0   50.0
-450.0   60.0   33.333333333333336
-500.0   60.0   50.0
-450.0   90.0   50.0
-450.0   60.0   33.333333333333336
-500.0   90.0   33.333333333333336
-500.0   90.0   0.0
-450.0   90.0   0.0
-500.0   120.0   0.0
-500.0   90.0   16.666666666666668
-450.0   90.0   0.0
-450.0   120.0   0.0
-500.0   120.0   0.0
-450.0   120.0   16.666666666666668
-500.0   90.0   16.666666666666668
-500.0   120.0   16.666666666666668
-450.0   120.0   16.666666666666668
-500.0   120.0   0.0
-500.0   90.0   16.666666666666668
-450.0   120.0   16.666666666666668
-450.0   90.0   16.666666666666668
-450.0   90.0   0.0
-500.0   90.0   16.666666666666668
-450.0   120.0   16.666666666666668
-450.0   90.0   0.0
-500.0   120.0   0.0
-500.0   90.0   16.666666666666668
-450.0   90.0   16.666666666666668
-500.0   120.0   16.666666666666668
-500.0   90.0   33.333333333333336
-450.0   90.0   16.666666666666668
-450.0   120.0   16.666666666666668
-500.0   120.0   16.666666666666668
-450.0   120.0   33.333333333333336
-500.0   90.0   33.333333333333336
-500.0   120.0   33.333333333333336
-450.0   120.0   33.333333333333336
-500.0   120.0   16.666666666666668
-500.0   90.0   33.333333333333336
-450.0   120.0   33.333333333333336
-450.0   90.0   33.333333333333336
-450.0   90.0   16.666666666666668
-500.0   90.0   33.333333333333336
-450.0   120.0   33.333333333333336
-450.0   90.0   16.666666666666668
-500.0   120.0   16.666666666666668
-500.0   90.0   33.333333333333336
-450.0   90.0   33.333333333333336
-500.0   120.0   33.333333333333336
-500.0   90.0   50.0
-450.0   90.0   33.333333333333336
-450.0   120.0   33.333333333333336
-500.0   120.0   33.333333333333336
-450.0   120.0   50.0
-500.0   90.0   50.0
-500.0   120.0   50.0
-450.0   120.0   50.0
-500.0   120.0   33.333333333333336
-500.0   90.0   50.0
-450.0   120.0   50.0
-450.0   90.0   50.0
-450.0   90.0   33.333333333333336
-500.0   90.0   50.0
-450.0   120.0   50.0
-450.0   90.0   33.333333333333336
-500.0   120.0   33.333333333333336
-500.0   120.0   0.0
-450.0   120.0   0.0
-500.0   150.0   0.0
-500.0   120.0   16.666666666666668
-450.0   120.0   0.0
-450.0   150.0   0.0
-500.0   150.0   0.0
-450.0   150.0   16.666666666666668
-500.0   120.0   16.666666666666668
-500.0   150.0   16.666666666666668
-450.0   150.0   16.666666666666668
-500.0   150.0   0.0
-500.0   120.0   16.666666666666668
-450.0   150.0   16.666666666666668
-450.0   120.0   16.666666666666668
-450.0   120.0   0.0
-500.0   120.0   16.666666666666668
-450.0   150.0   16.666666666666668
-450.0   120.0   0.0
-500.0   150.0   0.0
-500.0   120.0   16.666666666666668
-450.0   120.0   16.666666666666668
-500.0   150.0   16.666666666666668
-500.0   120.0   33.333333333333336
-450.0   120.0   16.666666666666668
-450.0   150.0   16.666666666666668
-500.0   150.0   16.666666666666668
-450.0   150.0   33.333333333333336
-500.0   120.0   33.333333333333336
-500.0   150.0   33.333333333333336
-450.0   150.0   33.333333333333336
-500.0   150.0   16.666666666666668
-500.0   120.0   33.333333333333336
-450.0   150.0   33.333333333333336
-450.0   120.0   33.333333333333336
-450.0   120.0   16.666666666666668
-500.0   120.0   33.333333333333336
-450.0   150.0   33.333333333333336
-450.0   120.0   16.666666666666668
-500.0   150.0   16.666666666666668
-500.0   120.0   33.333333333333336
-450.0   120.0   33.333333333333336
-500.0   150.0   33.333333333333336
-500.0   120.0   50.0
-450.0   120.0   33.333333333333336
-450.0   150.0   33.333333333333336
-500.0   150.0   33.333333333333336
-450.0   150.0   50.0
-500.0   120.0   50.0
-500.0   150.0   50.0
-450.0   150.0   50.0
-500.0   150.0   33.333333333333336
-500.0   120.0   50.0
-450.0   150.0   50.0
-450.0   120.0   50.0
-450.0   120.0   33.333333333333336
-500.0   120.0   50.0
-450.0   150.0   50.0
-450.0   120.0   33.333333333333336
-500.0   150.0   33.333333333333336
-450.0   0.0   0.0
-400.0   0.0   0.0
-450.0   30.0   0.0
-450.0   0.0   16.666666666666668
-400.0   0.0   0.0
-400.0   30.0   0.0
-450.0   30.0   0.0
-400.0   30.0   16.666666666666668
-450.0   0.0   16.666666666666668
-450.0   30.0   16.666666666666668
-400.0   30.0   16.666666666666668
-450.0   30.0   0.0
-450.0   0.0   16.666666666666668
-400.0   30.0   16.666666666666668
-400.0   0.0   16.666666666666668
-400.0   0.0   0.0
-450.0   0.0   16.666666666666668
-400.0   30.0   16.666666666666668
-400.0   0.0   0.0
-450.0   30.0   0.0
-450.0   0.0   16.666666666666668
-400.0   0.0   16.666666666666668
-450.0   30.0   16.666666666666668
-450.0   0.0   33.333333333333336
-400.0   0.0   16.666666666666668
-400.0   30.0   16.666666666666668
-450.0   30.0   16.666666666666668
-400.0   30.0   33.333333333333336
-450.0   0.0   33.333333333333336
-450.0   30.0   33.333333333333336
-400.0   30.0   33.333333333333336
-450.0   30.0   16.666666666666668
-450.0   0.0   33.333333333333336
-400.0   30.0   33.333333333333336
-400.0   0.0   33.333333333333336
-400.0   0.0   16.666666666666668
-450.0   0.0   33.333333333333336
-400.0   30.0   33.333333333333336
-400.0   0.0   16.666666666666668
-450.0   30.0   16.666666666666668
-450.0   0.0   33.333333333333336
-400.0   0.0   33.333333333333336
-450.0   30.0   33.333333333333336
-450.0   0.0   50.0
-400.0   0.0   33.333333333333336
-400.0   30.0   33.333333333333336
-450.0   30.0   33.333333333333336
-400.0   30.0   50.0
-450.0   0.0   50.0
-450.0   30.0   50.0
-400.0   30.0   50.0
-450.0   30.0   33.333333333333336
-450.0   0.0   50.0
-400.0   30.0   50.0
-400.0   0.0   50.0
-400.0   0.0   33.333333333333336
-450.0   0.0   50.0
-400.0   30.0   50.0
-400.0   0.0   33.333333333333336
-450.0   30.0   33.333333333333336
-450.0   30.0   0.0
-400.0   30.0   0.0
-450.0   60.0   0.0
-450.0   30.0   16.666666666666668
-400.0   30.0   0.0
-400.0   60.0   0.0
-450.0   60.0   0.0
-400.0   60.0   16.666666666666668
-450.0   30.0   16.666666666666668
-450.0   60.0   16.666666666666668
-400.0   60.0   16.666666666666668
-450.0   60.0   0.0
-450.0   30.0   16.666666666666668
-400.0   60.0   16.666666666666668
-400.0   30.0   16.666666666666668
-400.0   30.0   0.0
-450.0   30.0   16.666666666666668
-400.0   60.0   16.666666666666668
-400.0   30.0   0.0
-450.0   60.0   0.0
-450.0   30.0   16.666666666666668
-400.0   30.0   16.666666666666668
-450.0   60.0   16.666666666666668
-450.0   30.0   33.333333333333336
-400.0   30.0   16.666666666666668
-400.0   60.0   16.666666666666668
-450.0   60.0   16.666666666666668
-400.0   60.0   33.333333333333336
-450.0   30.0   33.333333333333336
-450.0   60.0   33.333333333333336
-400.0   60.0   33.333333333333336
-450.0   60.0   16.666666666666668
-450.0   30.0   33.333333333333336
-400.0   60.0   33.333333333333336
-400.0   30.0   33.333333333333336
-400.0   30.0   16.666666666666668
-450.0   30.0   33.333333333333336
-400.0   60.0   33.333333333333336
-400.0   30.0   16.666666666666668
-450.0   60.0   16.666666666666668
-450.0   30.0   33.333333333333336
-400.0   30.0   33.333333333333336
-450.0   60.0   33.333333333333336
-450.0   30.0   50.0
-400.0   30.0   33.333333333333336
-400.0   60.0   33.333333333333336
-450.0   60.0   33.333333333333336
-400.0   60.0   50.0
-450.0   30.0   50.0
-450.0   60.0   50.0
-400.0   60.0   50.0
-450.0   60.0   33.333333333333336
-450.0   30.0   50.0
-400.0   60.0   50.0
-400.0   30.0   50.0
-400.0   30.0   33.333333333333336
-450.0   30.0   50.0
-400.0   60.0   50.0
-400.0   30.0   33.333333333333336
-450.0   60.0   33.333333333333336
-450.0   60.0   0.0
-400.0   60.0   0.0
-450.0   90.0   0.0
-450.0   60.0   16.666666666666668
-400.0   60.0   0.0
-400.0   90.0   0.0
-450.0   90.0   0.0
-400.0   90.0   16.666666666666668
-450.0   60.0   16.666666666666668
-450.0   90.0   16.666666666666668
-400.0   90.0   16.666666666666668
-450.0   90.0   0.0
-450.0   60.0   16.666666666666668
-400.0   90.0   16.666666666666668
-400.0   60.0   16.666666666666668
-400.0   60.0   0.0
-450.0   60.0   16.666666666666668
-400.0   90.0   16.666666666666668
-400.0   60.0   0.0
-450.0   90.0   0.0
-450.0   60.0   16.666666666666668
-400.0   60.0   16.666666666666668
-450.0   90.0   16.666666666666668
-450.0   60.0   33.333333333333336
-400.0   60.0   16.666666666666668
-400.0   90.0   16.666666666666668
-450.0   90.0   16.666666666666668
-400.0   90.0   33.333333333333336
-450.0   60.0   33.333333333333336
-450.0   90.0   33.333333333333336
-400.0   90.0   33.333333333333336
-450.0   90.0   16.666666666666668
-450.0   60.0   33.333333333333336
-400.0   90.0   33.333333333333336
-400.0   60.0   33.333333333333336
-400.0   60.0   16.666666666666668
-450.0   60.0   33.333333333333336
-400.0   90.0   33.333333333333336
-400.0   60.0   16.666666666666668
-450.0   90.0   16.666666666666668
-450.0   60.0   33.333333333333336
-400.0   60.0   33.333333333333336
-450.0   90.0   33.333333333333336
-450.0   60.0   50.0
-400.0   60.0   33.333333333333336
-400.0   90.0   33.333333333333336
-450.0   90.0   33.333333333333336
-400.0   90.0   50.0
-450.0   60.0   50.0
-450.0   90.0   50.0
-400.0   90.0   50.0
-450.0   90.0   33.333333333333336
-450.0   60.0   50.0
-400.0   90.0   50.0
-400.0   60.0   50.0
-400.0   60.0   33.333333333333336
-450.0   60.0   50.0
-400.0   90.0   50.0
-400.0   60.0   33.333333333333336
-450.0   90.0   33.333333333333336
-450.0   90.0   0.0
-400.0   90.0   0.0
-450.0   120.0   0.0
-450.0   90.0   16.666666666666668
-400.0   90.0   0.0
-400.0   120.0   0.0
-450.0   120.0   0.0
-400.0   120.0   16.666666666666668
-450.0   90.0   16.666666666666668
-450.0   120.0   16.666666666666668
-400.0   120.0   16.666666666666668
-450.0   120.0   0.0
-450.0   90.0   16.666666666666668
-400.0   120.0   16.666666666666668
-400.0   90.0   16.666666666666668
-400.0   90.0   0.0
-450.0   90.0   16.666666666666668
-400.0   120.0   16.666666666666668
-400.0   90.0   0.0
-450.0   120.0   0.0
-450.0   90.0   16.666666666666668
-400.0   90.0   16.666666666666668
-450.0   120.0   16.666666666666668
-450.0   90.0   33.333333333333336
-400.0   90.0   16.666666666666668
-400.0   120.0   16.666666666666668
-450.0   120.0   16.666666666666668
-400.0   120.0   33.333333333333336
-450.0   90.0   33.333333333333336
-450.0   120.0   33.333333333333336
-400.0   120.0   33.333333333333336
-450.0   120.0   16.666666666666668
-450.0   90.0   33.333333333333336
-400.0   120.0   33.333333333333336
-400.0   90.0   33.333333333333336
-400.0   90.0   16.666666666666668
-450.0   90.0   33.333333333333336
-400.0   120.0   33.333333333333336
-400.0   90.0   16.666666666666668
-450.0   120.0   16.666666666666668
-450.0   90.0   33.333333333333336
-400.0   90.0   33.333333333333336
-450.0   120.0   33.333333333333336
-450.0   90.0   50.0
-400.0   90.0   33.333333333333336
-400.0   120.0   33.333333333333336
-450.0   120.0   33.333333333333336
-400.0   120.0   50.0
-450.0   90.0   50.0
-450.0   120.0   50.0
-400.0   120.0   50.0
-450.0   120.0   33.333333333333336
-450.0   90.0   50.0
-400.0   120.0   50.0
-400.0   90.0   50.0
-400.0   90.0   33.333333333333336
-450.0   90.0   50.0
-400.0   120.0   50.0
-400.0   90.0   33.333333333333336
-450.0   120.0   33.333333333333336
-450.0   120.0   0.0
-400.0   120.0   0.0
-450.0   150.0   0.0
-450.0   120.0   16.666666666666668
-400.0   120.0   0.0
-400.0   150.0   0.0
-450.0   150.0   0.0
-400.0   150.0   16.666666666666668
-450.0   120.0   16.666666666666668
-450.0   150.0   16.666666666666668
-400.0   150.0   16.666666666666668
-450.0   150.0   0.0
-450.0   120.0   16.666666666666668
-400.0   150.0   16.666666666666668
-400.0   120.0   16.666666666666668
-400.0   120.0   0.0
-450.0   120.0   16.666666666666668
-400.0   150.0   16.666666666666668
-400.0   120.0   0.0
-450.0   150.0   0.0
-450.0   120.0   16.666666666666668
-400.0   120.0   16.666666666666668
-450.0   150.0   16.666666666666668
-450.0   120.0   33.333333333333336
-400.0   120.0   16.666666666666668
-400.0   150.0   16.666666666666668
-450.0   150.0   16.666666666666668
-400.0   150.0   33.333333333333336
-450.0   120.0   33.333333333333336
-450.0   150.0   33.333333333333336
-400.0   150.0   33.333333333333336
-450.0   150.0   16.666666666666668
-450.0   120.0   33.333333333333336
-400.0   150.0   33.333333333333336
-400.0   120.0   33.333333333333336
-400.0   120.0   16.666666666666668
-450.0   120.0   33.333333333333336
-400.0   150.0   33.333333333333336
-400.0   120.0   16.666666666666668
-450.0   150.0   16.666666666666668
-450.0   120.0   33.333333333333336
-400.0   120.0   33.333333333333336
-450.0   150.0   33.333333333333336
-450.0   120.0   50.0
-400.0   120.0   33.333333333333336
-400.0   150.0   33.333333333333336
-450.0   150.0   33.333333333333336
-400.0   150.0   50.0
-450.0   120.0   50.0
-450.0   150.0   50.0
-400.0   150.0   50.0
-450.0   150.0   33.333333333333336
-450.0   120.0   50.0
-400.0   150.0   50.0
-400.0   120.0   50.0
-400.0   120.0   33.333333333333336
-450.0   120.0   50.0
-400.0   150.0   50.0
-400.0   120.0   33.333333333333336
-450.0   150.0   33.333333333333336
-400.0   0.0   0.0
-350.0   0.0   0.0
-400.0   30.0   0.0
-400.0   0.0   16.666666666666668
-350.0   0.0   0.0
-350.0   30.0   0.0
-400.0   30.0   0.0
-350.0   30.0   16.666666666666668
-400.0   0.0   16.666666666666668
-400.0   30.0   16.666666666666668
-350.0   30.0   16.666666666666668
-400.0   30.0   0.0
-400.0   0.0   16.666666666666668
-350.0   30.0   16.666666666666668
-350.0   0.0   16.666666666666668
-350.0   0.0   0.0
-400.0   0.0   16.666666666666668
-350.0   30.0   16.666666666666668
-350.0   0.0   0.0
-400.0   30.0   0.0
-400.0   0.0   16.666666666666668
-350.0   0.0   16.666666666666668
-400.0   30.0   16.666666666666668
-400.0   0.0   33.333333333333336
-350.0   0.0   16.666666666666668
-350.0   30.0   16.666666666666668
-400.0   30.0   16.666666666666668
-350.0   30.0   33.333333333333336
-400.0   0.0   33.333333333333336
-400.0   30.0   33.333333333333336
-350.0   30.0   33.333333333333336
-400.0   30.0   16.666666666666668
-400.0   0.0   33.333333333333336
-350.0   30.0   33.333333333333336
-350.0   0.0   33.333333333333336
-350.0   0.0   16.666666666666668
-400.0   0.0   33.333333333333336
-350.0   30.0   33.333333333333336
-350.0   0.0   16.666666666666668
-400.0   30.0   16.666666666666668
-400.0   0.0   33.333333333333336
-350.0   0.0   33.333333333333336
-400.0   30.0   33.333333333333336
-400.0   0.0   50.0
-350.0   0.0   33.333333333333336
-350.0   30.0   33.333333333333336
-400.0   30.0   33.333333333333336
-350.0   30.0   50.0
-400.0   0.0   50.0
-400.0   30.0   50.0
-350.0   30.0   50.0
-400.0   30.0   33.333333333333336
-400.0   0.0   50.0
-350.0   30.0   50.0
-350.0   0.0   50.0
-350.0   0.0   33.333333333333336
-400.0   0.0   50.0
-350.0   30.0   50.0
-350.0   0.0   33.333333333333336
-400.0   30.0   33.333333333333336
-400.0   30.0   0.0
-350.0   30.0   0.0
-400.0   60.0   0.0
-400.0   30.0   16.666666666666668
-350.0   30.0   0.0
-350.0   60.0   0.0
-400.0   60.0   0.0
-350.0   60.0   16.666666666666668
-400.0   30.0   16.666666666666668
-400.0   60.0   16.666666666666668
-350.0   60.0   16.666666666666668
-400.0   60.0   0.0
-400.0   30.0   16.666666666666668
-350.0   60.0   16.666666666666668
-350.0   30.0   16.666666666666668
-350.0   30.0   0.0
-400.0   30.0   16.666666666666668
-350.0   60.0   16.666666666666668
-350.0   30.0   0.0
-400.0   60.0   0.0
-400.0   30.0   16.666666666666668
-350.0   30.0   16.666666666666668
-400.0   60.0   16.666666666666668
-400.0   30.0   33.333333333333336
-350.0   30.0   16.666666666666668
-350.0   60.0   16.666666666666668
-400.0   60.0   16.666666666666668
-350.0   60.0   33.333333333333336
-400.0   30.0   33.333333333333336
-400.0   60.0   33.333333333333336
-350.0   60.0   33.333333333333336
-400.0   60.0   16.666666666666668
-400.0   30.0   33.333333333333336
-350.0   60.0   33.333333333333336
-350.0   30.0   33.333333333333336
-350.0   30.0   16.666666666666668
-400.0   30.0   33.333333333333336
-350.0   60.0   33.333333333333336
-350.0   30.0   16.666666666666668
-400.0   60.0   16.666666666666668
-400.0   30.0   33.333333333333336
-350.0   30.0   33.333333333333336
-400.0   60.0   33.333333333333336
-400.0   30.0   50.0
-350.0   30.0   33.333333333333336
-350.0   60.0   33.333333333333336
-400.0   60.0   33.333333333333336
-350.0   60.0   50.0
-400.0   30.0   50.0
-400.0   60.0   50.0
-350.0   60.0   50.0
-400.0   60.0   33.333333333333336
-400.0   30.0   50.0
-350.0   60.0   50.0
-350.0   30.0   50.0
-350.0   30.0   33.333333333333336
-400.0   30.0   50.0
-350.0   60.0   50.0
-350.0   30.0   33.333333333333336
-400.0   60.0   33.333333333333336
-400.0   60.0   0.0
-350.0   60.0   0.0
-400.0   90.0   0.0
-400.0   60.0   16.666666666666668
-350.0   60.0   0.0
-350.0   90.0   0.0
-400.0   90.0   0.0
-350.0   90.0   16.666666666666668
-400.0   60.0   16.666666666666668
-400.0   90.0   16.666666666666668
-350.0   90.0   16.666666666666668
-400.0   90.0   0.0
-400.0   60.0   16.666666666666668
-350.0   90.0   16.666666666666668
-350.0   60.0   16.666666666666668
-350.0   60.0   0.0
-400.0   60.0   16.666666666666668
-350.0   90.0   16.666666666666668
-350.0   60.0   0.0
-400.0   90.0   0.0
-400.0   60.0   16.666666666666668
-350.0   60.0   16.666666666666668
-400.0   90.0   16.666666666666668
-400.0   60.0   33.333333333333336
-350.0   60.0   16.666666666666668
-350.0   90.0   16.666666666666668
-400.0   90.0   16.666666666666668
-350.0   90.0   33.333333333333336
-400.0   60.0   33.333333333333336
-400.0   90.0   33.333333333333336
-350.0   90.0   33.333333333333336
-400.0   90.0   16.666666666666668
-400.0   60.0   33.333333333333336
-350.0   90.0   33.333333333333336
-350.0   60.0   33.333333333333336
-350.0   60.0   16.666666666666668
-400.0   60.0   33.333333333333336
-350.0   90.0   33.333333333333336
-350.0   60.0   16.666666666666668
-400.0   90.0   16.666666666666668
-400.0   60.0   33.333333333333336
-350.0   60.0   33.333333333333336
-400.0   90.0   33.333333333333336
-400.0   60.0   50.0
-350.0   60.0   33.333333333333336
-350.0   90.0   33.333333333333336
-400.0   90.0   33.333333333333336
-350.0   90.0   50.0
-400.0   60.0   50.0
-400.0   90.0   50.0
-350.0   90.0   50.0
-400.0   90.0   33.333333333333336
-400.0   60.0   50.0
-350.0   90.0   50.0
-350.0   60.0   50.0
-350.0   60.0   33.333333333333336
-400.0   60.0   50.0
-350.0   90.0   50.0
-350.0   60.0   33.333333333333336
-400.0   90.0   33.333333333333336
-400.0   90.0   0.0
-350.0   90.0   0.0
-400.0   120.0   0.0
-400.0   90.0   16.666666666666668
-350.0   90.0   0.0
-350.0   120.0   0.0
-400.0   120.0   0.0
-350.0   120.0   16.666666666666668
-400.0   90.0   16.666666666666668
-400.0   120.0   16.666666666666668
-350.0   120.0   16.666666666666668
-400.0   120.0   0.0
-400.0   90.0   16.666666666666668
-350.0   120.0   16.666666666666668
-350.0   90.0   16.666666666666668
-350.0   90.0   0.0
-400.0   90.0   16.666666666666668
-350.0   120.0   16.666666666666668
-350.0   90.0   0.0
-400.0   120.0   0.0
-400.0   90.0   16.666666666666668
-350.0   90.0   16.666666666666668
-400.0   120.0   16.666666666666668
-400.0   90.0   33.333333333333336
-350.0   90.0   16.666666666666668
-350.0   120.0   16.666666666666668
-400.0   120.0   16.666666666666668
-350.0   120.0   33.333333333333336
-400.0   90.0   33.333333333333336
-400.0   120.0   33.333333333333336
-350.0   120.0   33.333333333333336
-400.0   120.0   16.666666666666668
-400.0   90.0   33.333333333333336
-350.0   120.0   33.333333333333336
-350.0   90.0   33.333333333333336
-350.0   90.0   16.666666666666668
-400.0   90.0   33.333333333333336
-350.0   120.0   33.333333333333336
-350.0   90.0   16.666666666666668
-400.0   120.0   16.666666666666668
-400.0   90.0   33.333333333333336
-350.0   90.0   33.333333333333336
-400.0   120.0   33.333333333333336
-400.0   90.0   50.0
-350.0   90.0   33.333333333333336
-350.0   120.0   33.333333333333336
-400.0   120.0   33.333333333333336
-350.0   120.0   50.0
-400.0   90.0   50.0
-400.0   120.0   50.0
-350.0   120.0   50.0
-400.0   120.0   33.333333333333336
-400.0   90.0   50.0
-350.0   120.0   50.0
-350.0   90.0   50.0
-350.0   90.0   33.333333333333336
-400.0   90.0   50.0
-350.0   120.0   50.0
-350.0   90.0   33.333333333333336
-400.0   120.0   33.333333333333336
-400.0   120.0   0.0
-350.0   120.0   0.0
-400.0   150.0   0.0
-400.0   120.0   16.666666666666668
-350.0   120.0   0.0
-350.0   150.0   0.0
-400.0   150.0   0.0
-350.0   150.0   16.666666666666668
-400.0   120.0   16.666666666666668
-400.0   150.0   16.666666666666668
-350.0   150.0   16.666666666666668
-400.0   150.0   0.0
-400.0   120.0   16.666666666666668
-350.0   150.0   16.666666666666668
-350.0   120.0   16.666666666666668
-350.0   120.0   0.0
-400.0   120.0   16.666666666666668
-350.0   150.0   16.666666666666668
-350.0   120.0   0.0
-400.0   150.0   0.0
-400.0   120.0   16.666666666666668
-350.0   120.0   16.666666666666668
-400.0   150.0   16.666666666666668
-400.0   120.0   33.333333333333336
-350.0   120.0   16.666666666666668
-350.0   150.0   16.666666666666668
-400.0   150.0   16.666666666666668
-350.0   150.0   33.333333333333336
-400.0   120.0   33.333333333333336
-400.0   150.0   33.333333333333336
-350.0   150.0   33.333333333333336
-400.0   150.0   16.666666666666668
-400.0   120.0   33.333333333333336
-350.0   150.0   33.333333333333336
-350.0   120.0   33.333333333333336
-350.0   120.0   16.666666666666668
-400.0   120.0   33.333333333333336
-350.0   150.0   33.333333333333336
-350.0   120.0   16.666666666666668
-400.0   150.0   16.666666666666668
-400.0   120.0   33.333333333333336
-350.0   120.0   33.333333333333336
-400.0   150.0   33.333333333333336
-400.0   120.0   50.0
-350.0   120.0   33.333333333333336
-350.0   150.0   33.333333333333336
-400.0   150.0   33.333333333333336
-350.0   150.0   50.0
-400.0   120.0   50.0
-400.0   150.0   50.0
-350.0   150.0   50.0
-400.0   150.0   33.333333333333336
-400.0   120.0   50.0
-350.0   150.0   50.0
-350.0   120.0   50.0
-350.0   120.0   33.333333333333336
-400.0   120.0   50.0
-350.0   150.0   50.0
-350.0   120.0   33.333333333333336
-400.0   150.0   33.333333333333336
-350.0   0.0   0.0
-300.0   0.0   0.0
-350.0   30.0   0.0
-350.0   0.0   16.666666666666668
-300.0   0.0   0.0
-300.0   30.0   0.0
-350.0   30.0   0.0
-300.0   30.0   16.666666666666668
-350.0   0.0   16.666666666666668
-350.0   30.0   16.666666666666668
-300.0   30.0   16.666666666666668
-350.0   30.0   0.0
-350.0   0.0   16.666666666666668
-300.0   30.0   16.666666666666668
-300.0   0.0   16.666666666666668
-300.0   0.0   0.0
-350.0   0.0   16.666666666666668
-300.0   30.0   16.666666666666668
-300.0   0.0   0.0
-350.0   30.0   0.0
-350.0   0.0   16.666666666666668
-300.0   0.0   16.666666666666668
-350.0   30.0   16.666666666666668
-350.0   0.0   33.333333333333336
-300.0   0.0   16.666666666666668
-300.0   30.0   16.666666666666668
-350.0   30.0   16.666666666666668
-300.0   30.0   33.333333333333336
-350.0   0.0   33.333333333333336
-350.0   30.0   33.333333333333336
-300.0   30.0   33.333333333333336
-350.0   30.0   16.666666666666668
-350.0   0.0   33.333333333333336
-300.0   30.0   33.333333333333336
-300.0   0.0   33.333333333333336
-300.0   0.0   16.666666666666668
-350.0   0.0   33.333333333333336
-300.0   30.0   33.333333333333336
-300.0   0.0   16.666666666666668
-350.0   30.0   16.666666666666668
-350.0   0.0   33.333333333333336
-300.0   0.0   33.333333333333336
-350.0   30.0   33.333333333333336
-350.0   0.0   50.0
-300.0   0.0   33.333333333333336
-300.0   30.0   33.333333333333336
-350.0   30.0   33.333333333333336
-300.0   30.0   50.0
-350.0   0.0   50.0
-350.0   30.0   50.0
-300.0   30.0   50.0
-350.0   30.0   33.333333333333336
-350.0   0.0   50.0
-300.0   30.0   50.0
-300.0   0.0   50.0
-300.0   0.0   33.333333333333336
-350.0   0.0   50.0
-300.0   30.0   50.0
-300.0   0.0   33.333333333333336
-350.0   30.0   33.333333333333336
-350.0   30.0   0.0
-300.0   30.0   0.0
-350.0   60.0   0.0
-350.0   30.0   16.666666666666668
-300.0   30.0   0.0
-300.0   60.0   0.0
-350.0   60.0   0.0
-300.0   60.0   16.666666666666668
-350.0   30.0   16.666666666666668
-350.0   60.0   16.666666666666668
-300.0   60.0   16.666666666666668
-350.0   60.0   0.0
-350.0   30.0   16.666666666666668
-300.0   60.0   16.666666666666668
-300.0   30.0   16.666666666666668
-300.0   30.0   0.0
-350.0   30.0   16.666666666666668
-300.0   60.0   16.666666666666668
-300.0   30.0   0.0
-350.0   60.0   0.0
-350.0   30.0   16.666666666666668
-300.0   30.0   16.666666666666668
-350.0   60.0   16.666666666666668
-350.0   30.0   33.333333333333336
-300.0   30.0   16.666666666666668
-300.0   60.0   16.666666666666668
-350.0   60.0   16.666666666666668
-300.0   60.0   33.333333333333336
-350.0   30.0   33.333333333333336
-350.0   60.0   33.333333333333336
-300.0   60.0   33.333333333333336
-350.0   60.0   16.666666666666668
-350.0   30.0   33.333333333333336
-300.0   60.0   33.333333333333336
-300.0   30.0   33.333333333333336
-300.0   30.0   16.666666666666668
-350.0   30.0   33.333333333333336
-300.0   60.0   33.333333333333336
-300.0   30.0   16.666666666666668
-350.0   60.0   16.666666666666668
-350.0   30.0   33.333333333333336
-300.0   30.0   33.333333333333336
-350.0   60.0   33.333333333333336
-350.0   30.0   50.0
-300.0   30.0   33.333333333333336
-300.0   60.0   33.333333333333336
-350.0   60.0   33.333333333333336
-300.0   60.0   50.0
-350.0   30.0   50.0
-350.0   60.0   50.0
-300.0   60.0   50.0
-350.0   60.0   33.333333333333336
-350.0   30.0   50.0
-300.0   60.0   50.0
-300.0   30.0   50.0
-300.0   30.0   33.333333333333336
-350.0   30.0   50.0
-300.0   60.0   50.0
-300.0   30.0   33.333333333333336
-350.0   60.0   33.333333333333336
-350.0   60.0   0.0
-300.0   60.0   0.0
-350.0   90.0   0.0
-350.0   60.0   16.666666666666668
-300.0   60.0   0.0
-300.0   90.0   0.0
-350.0   90.0   0.0
-300.0   90.0   16.666666666666668
-350.0   60.0   16.666666666666668
-350.0   90.0   16.666666666666668
-300.0   90.0   16.666666666666668
-350.0   90.0   0.0
-350.0   60.0   16.666666666666668
-300.0   90.0   16.666666666666668
-300.0   60.0   16.666666666666668
-300.0   60.0   0.0
-350.0   60.0   16.666666666666668
-300.0   90.0   16.666666666666668
-300.0   60.0   0.0
-350.0   90.0   0.0
-350.0   60.0   16.666666666666668
-300.0   60.0   16.666666666666668
-350.0   90.0   16.666666666666668
-350.0   60.0   33.333333333333336
-300.0   60.0   16.666666666666668
-300.0   90.0   16.666666666666668
-350.0   90.0   16.666666666666668
-300.0   90.0   33.333333333333336
-350.0   60.0   33.333333333333336
-350.0   90.0   33.333333333333336
-300.0   90.0   33.333333333333336
-350.0   90.0   16.666666666666668
-350.0   60.0   33.333333333333336
-300.0   90.0   33.333333333333336
-300.0   60.0   33.333333333333336
-300.0   60.0   16.666666666666668
-350.0   60.0   33.333333333333336
-300.0   90.0   33.333333333333336
-300.0   60.0   16.666666666666668
-350.0   90.0   16.666666666666668
-350.0   60.0   33.333333333333336
-300.0   60.0   33.333333333333336
-350.0   90.0   33.333333333333336
-350.0   60.0   50.0
-300.0   60.0   33.333333333333336
-300.0   90.0   33.333333333333336
-350.0   90.0   33.333333333333336
-300.0   90.0   50.0
-350.0   60.0   50.0
-350.0   90.0   50.0
-300.0   90.0   50.0
-350.0   90.0   33.333333333333336
-350.0   60.0   50.0
-300.0   90.0   50.0
-300.0   60.0   50.0
-300.0   60.0   33.333333333333336
-350.0   60.0   50.0
-300.0   90.0   50.0
-300.0   60.0   33.333333333333336
-350.0   90.0   33.333333333333336
-350.0   90.0   0.0
-300.0   90.0   0.0
-350.0   120.0   0.0
-350.0   90.0   16.666666666666668
-300.0   90.0   0.0
-300.0   120.0   0.0
-350.0   120.0   0.0
-300.0   120.0   16.666666666666668
-350.0   90.0   16.666666666666668
-350.0   120.0   16.666666666666668
-300.0   120.0   16.666666666666668
-350.0   120.0   0.0
-350.0   90.0   16.666666666666668
-300.0   120.0   16.666666666666668
-300.0   90.0   16.666666666666668
-300.0   90.0   0.0
-350.0   90.0   16.666666666666668
-300.0   120.0   16.666666666666668
-300.0   90.0   0.0
-350.0   120.0   0.0
-350.0   90.0   16.666666666666668
-300.0   90.0   16.666666666666668
-350.0   120.0   16.666666666666668
-350.0   90.0   33.333333333333336
-300.0   90.0   16.666666666666668
-300.0   120.0   16.666666666666668
-350.0   120.0   16.666666666666668
-300.0   120.0   33.333333333333336
-350.0   90.0   33.333333333333336
-350.0   120.0   33.333333333333336
-300.0   120.0   33.333333333333336
-350.0   120.0   16.666666666666668
-350.0   90.0   33.333333333333336
-300.0   120.0   33.333333333333336
-300.0   90.0   33.333333333333336
-300.0   90.0   16.666666666666668
-350.0   90.0   33.333333333333336
-300.0   120.0   33.333333333333336
-300.0   90.0   16.666666666666668
-350.0   120.0   16.666666666666668
-350.0   90.0   33.333333333333336
-300.0   90.0   33.333333333333336
-350.0   120.0   33.333333333333336
-350.0   90.0   50.0
-300.0   90.0   33.333333333333336
-300.0   120.0   33.333333333333336
-350.0   120.0   33.333333333333336
-300.0   120.0   50.0
-350.0   90.0   50.0
-350.0   120.0   50.0
-300.0   120.0   50.0
-350.0   120.0   33.333333333333336
-350.0   90.0   50.0
-300.0   120.0   50.0
-300.0   90.0   50.0
-300.0   90.0   33.333333333333336
-350.0   90.0   50.0
-300.0   120.0   50.0
-300.0   90.0   33.333333333333336
-350.0   120.0   33.333333333333336
-350.0   120.0   0.0
-300.0   120.0   0.0
-350.0   150.0   0.0
-350.0   120.0   16.666666666666668
-300.0   120.0   0.0
-300.0   150.0   0.0
-350.0   150.0   0.0
-300.0   150.0   16.666666666666668
-350.0   120.0   16.666666666666668
-350.0   150.0   16.666666666666668
-300.0   150.0   16.666666666666668
-350.0   150.0   0.0
-350.0   120.0   16.666666666666668
-300.0   150.0   16.666666666666668
-300.0   120.0   16.666666666666668
-300.0   120.0   0.0
-350.0   120.0   16.666666666666668
-300.0   150.0   16.666666666666668
-300.0   120.0   0.0
-350.0   150.0   0.0
-350.0   120.0   16.666666666666668
-300.0   120.0   16.666666666666668
-350.0   150.0   16.666666666666668
-350.0   120.0   33.333333333333336
-300.0   120.0   16.666666666666668
-300.0   150.0   16.666666666666668
-350.0   150.0   16.666666666666668
-300.0   150.0   33.333333333333336
-350.0   120.0   33.333333333333336
-350.0   150.0   33.333333333333336
-300.0   150.0   33.333333333333336
-350.0   150.0   16.666666666666668
-350.0   120.0   33.333333333333336
-300.0   150.0   33.333333333333336
-300.0   120.0   33.333333333333336
-300.0   120.0   16.666666666666668
-350.0   120.0   33.333333333333336
-300.0   150.0   33.333333333333336
-300.0   120.0   16.666666666666668
-350.0   150.0   16.666666666666668
-350.0   120.0   33.333333333333336
-300.0   120.0   33.333333333333336
-350.0   150.0   33.333333333333336
-350.0   120.0   50.0
-300.0   120.0   33.333333333333336
-300.0   150.0   33.333333333333336
-350.0   150.0   33.333333333333336
-300.0   150.0   50.0
-350.0   120.0   50.0
-350.0   150.0   50.0
-300.0   150.0   50.0
-350.0   150.0   33.333333333333336
-350.0   120.0   50.0
-300.0   150.0   50.0
-300.0   120.0   50.0
-300.0   120.0   33.333333333333336
-350.0   120.0   50.0
-300.0   150.0   50.0
-300.0   120.0   33.333333333333336
-350.0   150.0   33.333333333333336
-300.0   0.0   0.0
-250.0   0.0   0.0
-300.0   30.0   0.0
-300.0   0.0   16.666666666666668
-250.0   0.0   0.0
-250.0   30.0   0.0
-300.0   30.0   0.0
-250.0   30.0   16.666666666666668
-300.0   0.0   16.666666666666668
-300.0   30.0   16.666666666666668
-250.0   30.0   16.666666666666668
-300.0   30.0   0.0
-300.0   0.0   16.666666666666668
-250.0   30.0   16.666666666666668
-250.0   0.0   16.666666666666668
-250.0   0.0   0.0
-300.0   0.0   16.666666666666668
-250.0   30.0   16.666666666666668
-250.0   0.0   0.0
-300.0   30.0   0.0
-300.0   0.0   16.666666666666668
-250.0   0.0   16.666666666666668
-300.0   30.0   16.666666666666668
-300.0   0.0   33.333333333333336
-250.0   0.0   16.666666666666668
-250.0   30.0   16.666666666666668
-300.0   30.0   16.666666666666668
-250.0   30.0   33.333333333333336
-300.0   0.0   33.333333333333336
-300.0   30.0   33.333333333333336
-250.0   30.0   33.333333333333336
-300.0   30.0   16.666666666666668
-300.0   0.0   33.333333333333336
-250.0   30.0   33.333333333333336
-250.0   0.0   33.333333333333336
-250.0   0.0   16.666666666666668
-300.0   0.0   33.333333333333336
-250.0   30.0   33.333333333333336
-250.0   0.0   16.666666666666668
-300.0   30.0   16.666666666666668
-300.0   0.0   33.333333333333336
-250.0   0.0   33.333333333333336
-300.0   30.0   33.333333333333336
-300.0   0.0   50.0
-250.0   0.0   33.333333333333336
-250.0   30.0   33.333333333333336
-300.0   30.0   33.333333333333336
-250.0   30.0   50.0
-300.0   0.0   50.0
-300.0   30.0   50.0
-250.0   30.0   50.0
-300.0   30.0   33.333333333333336
-300.0   0.0   50.0
-250.0   30.0   50.0
-250.0   0.0   50.0
-250.0   0.0   33.333333333333336
-300.0   0.0   50.0
-250.0   30.0   50.0
-250.0   0.0   33.333333333333336
-300.0   30.0   33.333333333333336
-300.0   30.0   0.0
-250.0   30.0   0.0
-300.0   60.0   0.0
-300.0   30.0   16.666666666666668
-250.0   30.0   0.0
-250.0   60.0   0.0
-300.0   60.0   0.0
-250.0   60.0   16.666666666666668
-300.0   30.0   16.666666666666668
-300.0   60.0   16.666666666666668
-250.0   60.0   16.666666666666668
-300.0   60.0   0.0
-300.0   30.0   16.666666666666668
-250.0   60.0   16.666666666666668
-250.0   30.0   16.666666666666668
-250.0   30.0   0.0
-300.0   30.0   16.666666666666668
-250.0   60.0   16.666666666666668
-250.0   30.0   0.0
-300.0   60.0   0.0
-300.0   30.0   16.666666666666668
-250.0   30.0   16.666666666666668
-300.0   60.0   16.666666666666668
-300.0   30.0   33.333333333333336
-250.0   30.0   16.666666666666668
-250.0   60.0   16.666666666666668
-300.0   60.0   16.666666666666668
-250.0   60.0   33.333333333333336
-300.0   30.0   33.333333333333336
-300.0   60.0   33.333333333333336
-250.0   60.0   33.333333333333336
-300.0   60.0   16.666666666666668
-300.0   30.0   33.333333333333336
-250.0   60.0   33.333333333333336
-250.0   30.0   33.333333333333336
-250.0   30.0   16.666666666666668
-300.0   30.0   33.333333333333336
-250.0   60.0   33.333333333333336
-250.0   30.0   16.666666666666668
-300.0   60.0   16.666666666666668
-300.0   30.0   33.333333333333336
-250.0   30.0   33.333333333333336
-300.0   60.0   33.333333333333336
-300.0   30.0   50.0
-250.0   30.0   33.333333333333336
-250.0   60.0   33.333333333333336
-300.0   60.0   33.333333333333336
-250.0   60.0   50.0
-300.0   30.0   50.0
-300.0   60.0   50.0
-250.0   60.0   50.0
-300.0   60.0   33.333333333333336
-300.0   30.0   50.0
-250.0   60.0   50.0
-250.0   30.0   50.0
-250.0   30.0   33.333333333333336
-300.0   30.0   50.0
-250.0   60.0   50.0
-250.0   30.0   33.333333333333336
-300.0   60.0   33.333333333333336
-300.0   60.0   0.0
-250.0   60.0   0.0
-300.0   90.0   0.0
-300.0   60.0   16.666666666666668
-250.0   60.0   0.0
-250.0   90.0   0.0
-300.0   90.0   0.0
-250.0   90.0   16.666666666666668
-300.0   60.0   16.666666666666668
-300.0   90.0   16.666666666666668
-250.0   90.0   16.666666666666668
-300.0   90.0   0.0
-300.0   60.0   16.666666666666668
-250.0   90.0   16.666666666666668
-250.0   60.0   16.666666666666668
-250.0   60.0   0.0
-300.0   60.0   16.666666666666668
-250.0   90.0   16.666666666666668
-250.0   60.0   0.0
-300.0   90.0   0.0
-300.0   60.0   16.666666666666668
-250.0   60.0   16.666666666666668
-300.0   90.0   16.666666666666668
-300.0   60.0   33.333333333333336
-250.0   60.0   16.666666666666668
-250.0   90.0   16.666666666666668
-300.0   90.0   16.666666666666668
-250.0   90.0   33.333333333333336
-300.0   60.0   33.333333333333336
-300.0   90.0   33.333333333333336
-250.0   90.0   33.333333333333336
-300.0   90.0   16.666666666666668
-300.0   60.0   33.333333333333336
-250.0   90.0   33.333333333333336
-250.0   60.0   33.333333333333336
-250.0   60.0   16.666666666666668
-300.0   60.0   33.333333333333336
-250.0   90.0   33.333333333333336
-250.0   60.0   16.666666666666668
-300.0   90.0   16.666666666666668
-300.0   60.0   33.333333333333336
-250.0   60.0   33.333333333333336
-300.0   90.0   33.333333333333336
-300.0   60.0   50.0
-250.0   60.0   33.333333333333336
-250.0   90.0   33.333333333333336
-300.0   90.0   33.333333333333336
-250.0   90.0   50.0
-300.0   60.0   50.0
-300.0   90.0   50.0
-250.0   90.0   50.0
-300.0   90.0   33.333333333333336
-300.0   60.0   50.0
-250.0   90.0   50.0
-250.0   60.0   50.0
-250.0   60.0   33.333333333333336
-300.0   60.0   50.0
-250.0   90.0   50.0
-250.0   60.0   33.333333333333336
-300.0   90.0   33.333333333333336
-300.0   90.0   0.0
-250.0   90.0   0.0
-300.0   120.0   0.0
-300.0   90.0   16.666666666666668
-250.0   90.0   0.0
-250.0   120.0   0.0
-300.0   120.0   0.0
-250.0   120.0   16.666666666666668
-300.0   90.0   16.666666666666668
-300.0   120.0   16.666666666666668
-250.0   120.0   16.666666666666668
-300.0   120.0   0.0
-300.0   90.0   16.666666666666668
-250.0   120.0   16.666666666666668
-250.0   90.0   16.666666666666668
-250.0   90.0   0.0
-300.0   90.0   16.666666666666668
-250.0   120.0   16.666666666666668
-250.0   90.0   0.0
-300.0   120.0   0.0
-300.0   90.0   16.666666666666668
-250.0   90.0   16.666666666666668
-300.0   120.0   16.666666666666668
-300.0   90.0   33.333333333333336
-250.0   90.0   16.666666666666668
-250.0   120.0   16.666666666666668
-300.0   120.0   16.666666666666668
-250.0   120.0   33.333333333333336
-300.0   90.0   33.333333333333336
-300.0   120.0   33.333333333333336
-250.0   120.0   33.333333333333336
-300.0   120.0   16.666666666666668
-300.0   90.0   33.333333333333336
-250.0   120.0   33.333333333333336
-250.0   90.0   33.333333333333336
-250.0   90.0   16.666666666666668
-300.0   90.0   33.333333333333336
-250.0   120.0   33.333333333333336
-250.0   90.0   16.666666666666668
-300.0   120.0   16.666666666666668
-300.0   90.0   33.333333333333336
-250.0   90.0   33.333333333333336
-300.0   120.0   33.333333333333336
-300.0   90.0   50.0
-250.0   90.0   33.333333333333336
-250.0   120.0   33.333333333333336
-300.0   120.0   33.333333333333336
-250.0   120.0   50.0
-300.0   90.0   50.0
-300.0   120.0   50.0
-250.0   120.0   50.0
-300.0   120.0   33.333333333333336
-300.0   90.0   50.0
-250.0   120.0   50.0
-250.0   90.0   50.0
-250.0   90.0   33.333333333333336
-300.0   90.0   50.0
-250.0   120.0   50.0
-250.0   90.0   33.333333333333336
-300.0   120.0   33.333333333333336
-300.0   120.0   0.0
-250.0   120.0   0.0
-300.0   150.0   0.0
-300.0   120.0   16.666666666666668
-250.0   120.0   0.0
-250.0   150.0   0.0
-300.0   150.0   0.0
-250.0   150.0   16.666666666666668
-300.0   120.0   16.666666666666668
-300.0   150.0   16.666666666666668
-250.0   150.0   16.666666666666668
-300.0   150.0   0.0
-300.0   120.0   16.666666666666668
-250.0   150.0   16.666666666666668
-250.0   120.0   16.666666666666668
-250.0   120.0   0.0
-300.0   120.0   16.666666666666668
-250.0   150.0   16.666666666666668
-250.0   120.0   0.0
-300.0   150.0   0.0
-300.0   120.0   16.666666666666668
-250.0   120.0   16.666666666666668
-300.0   150.0   16.666666666666668
-300.0   120.0   33.333333333333336
-250.0   120.0   16.666666666666668
-250.0   150.0   16.666666666666668
-300.0   150.0   16.666666666666668
-250.0   150.0   33.333333333333336
-300.0   120.0   33.333333333333336
-300.0   150.0   33.333333333333336
-250.0   150.0   33.333333333333336
-300.0   150.0   16.666666666666668
-300.0   120.0   33.333333333333336
-250.0   150.0   33.333333333333336
-250.0   120.0   33.333333333333336
-250.0   120.0   16.666666666666668
-300.0   120.0   33.333333333333336
-250.0   150.0   33.333333333333336
-250.0   120.0   16.666666666666668
-300.0   150.0   16.666666666666668
-300.0   120.0   33.333333333333336
-250.0   120.0   33.333333333333336
-300.0   150.0   33.333333333333336
-300.0   120.0   50.0
-250.0   120.0   33.333333333333336
-250.0   150.0   33.333333333333336
-300.0   150.0   33.333333333333336
-250.0   150.0   50.0
-300.0   120.0   50.0
-300.0   150.0   50.0
-250.0   150.0   50.0
-300.0   150.0   33.333333333333336
-300.0   120.0   50.0
-250.0   150.0   50.0
-250.0   120.0   50.0
-250.0   120.0   33.333333333333336
-300.0   120.0   50.0
-250.0   150.0   50.0
-250.0   120.0   33.333333333333336
-300.0   150.0   33.333333333333336
-250.0   0.0   0.0
-200.0   0.0   0.0
-250.0   30.0   0.0
-250.0   0.0   16.666666666666668
-200.0   0.0   0.0
-200.0   30.0   0.0
-250.0   30.0   0.0
-200.0   30.0   16.666666666666668
-250.0   0.0   16.666666666666668
-250.0   30.0   16.666666666666668
-200.0   30.0   16.666666666666668
-250.0   30.0   0.0
-250.0   0.0   16.666666666666668
-200.0   30.0   16.666666666666668
-200.0   0.0   16.666666666666668
-200.0   0.0   0.0
-250.0   0.0   16.666666666666668
-200.0   30.0   16.666666666666668
-200.0   0.0   0.0
-250.0   30.0   0.0
-250.0   0.0   16.666666666666668
-200.0   0.0   16.666666666666668
-250.0   30.0   16.666666666666668
-250.0   0.0   33.333333333333336
-200.0   0.0   16.666666666666668
-200.0   30.0   16.666666666666668
-250.0   30.0   16.666666666666668
-200.0   30.0   33.333333333333336
-250.0   0.0   33.333333333333336
-250.0   30.0   33.333333333333336
-200.0   30.0   33.333333333333336
-250.0   30.0   16.666666666666668
-250.0   0.0   33.333333333333336
-200.0   30.0   33.333333333333336
-200.0   0.0   33.333333333333336
-200.0   0.0   16.666666666666668
-250.0   0.0   33.333333333333336
-200.0   30.0   33.333333333333336
-200.0   0.0   16.666666666666668
-250.0   30.0   16.666666666666668
-250.0   0.0   33.333333333333336
-200.0   0.0   33.333333333333336
-250.0   30.0   33.333333333333336
-250.0   0.0   50.0
-200.0   0.0   33.333333333333336
-200.0   30.0   33.333333333333336
-250.0   30.0   33.333333333333336
-200.0   30.0   50.0
-250.0   0.0   50.0
-250.0   30.0   50.0
-200.0   30.0   50.0
-250.0   30.0   33.333333333333336
-250.0   0.0   50.0
-200.0   30.0   50.0
-200.0   0.0   50.0
-200.0   0.0   33.333333333333336
-250.0   0.0   50.0
-200.0   30.0   50.0
-200.0   0.0   33.333333333333336
-250.0   30.0   33.333333333333336
-250.0   30.0   0.0
-200.0   30.0   0.0
-250.0   60.0   0.0
-250.0   30.0   16.666666666666668
-200.0   30.0   0.0
-200.0   60.0   0.0
-250.0   60.0   0.0
-200.0   60.0   16.666666666666668
-250.0   30.0   16.666666666666668
-250.0   60.0   16.666666666666668
-200.0   60.0   16.666666666666668
-250.0   60.0   0.0
-250.0   30.0   16.666666666666668
-200.0   60.0   16.666666666666668
-200.0   30.0   16.666666666666668
-200.0   30.0   0.0
-250.0   30.0   16.666666666666668
-200.0   60.0   16.666666666666668
-200.0   30.0   0.0
-250.0   60.0   0.0
-250.0   30.0   16.666666666666668
-200.0   30.0   16.666666666666668
-250.0   60.0   16.666666666666668
-250.0   30.0   33.333333333333336
-200.0   30.0   16.666666666666668
-200.0   60.0   16.666666666666668
-250.0   60.0   16.666666666666668
-200.0   60.0   33.333333333333336
-250.0   30.0   33.333333333333336
-250.0   60.0   33.333333333333336
-200.0   60.0   33.333333333333336
-250.0   60.0   16.666666666666668
-250.0   30.0   33.333333333333336
-200.0   60.0   33.333333333333336
-200.0   30.0   33.333333333333336
-200.0   30.0   16.666666666666668
-250.0   30.0   33.333333333333336
-200.0   60.0   33.333333333333336
-200.0   30.0   16.666666666666668
-250.0   60.0   16.666666666666668
-250.0   30.0   33.333333333333336
-200.0   30.0   33.333333333333336
-250.0   60.0   33.333333333333336
-250.0   30.0   50.0
-200.0   30.0   33.333333333333336
-200.0   60.0   33.333333333333336
-250.0   60.0   33.333333333333336
-200.0   60.0   50.0
-250.0   30.0   50.0
-250.0   60.0   50.0
-200.0   60.0   50.0
-250.0   60.0   33.333333333333336
-250.0   30.0   50.0
-200.0   60.0   50.0
-200.0   30.0   50.0
-200.0   30.0   33.333333333333336
-250.0   30.0   50.0
-200.0   60.0   50.0
-200.0   30.0   33.333333333333336
-250.0   60.0   33.333333333333336
-250.0   60.0   0.0
-200.0   60.0   0.0
-250.0   90.0   0.0
-250.0   60.0   16.666666666666668
-200.0   60.0   0.0
-200.0   90.0   0.0
-250.0   90.0   0.0
-200.0   90.0   16.666666666666668
-250.0   60.0   16.666666666666668
-250.0   90.0   16.666666666666668
-200.0   90.0   16.666666666666668
-250.0   90.0   0.0
-250.0   60.0   16.666666666666668
-200.0   90.0   16.666666666666668
-200.0   60.0   16.666666666666668
-200.0   60.0   0.0
-250.0   60.0   16.666666666666668
-200.0   90.0   16.666666666666668
-200.0   60.0   0.0
-250.0   90.0   0.0
-250.0   60.0   16.666666666666668
-200.0   60.0   16.666666666666668
-250.0   90.0   16.666666666666668
-250.0   60.0   33.333333333333336
-200.0   60.0   16.666666666666668
-200.0   90.0   16.666666666666668
-250.0   90.0   16.666666666666668
-200.0   90.0   33.333333333333336
-250.0   60.0   33.333333333333336
-250.0   90.0   33.333333333333336
-200.0   90.0   33.333333333333336
-250.0   90.0   16.666666666666668
-250.0   60.0   33.333333333333336
-200.0   90.0   33.333333333333336
-200.0   60.0   33.333333333333336
-200.0   60.0   16.666666666666668
-250.0   60.0   33.333333333333336
-200.0   90.0   33.333333333333336
-200.0   60.0   16.666666666666668
-250.0   90.0   16.666666666666668
-250.0   60.0   33.333333333333336
-200.0   60.0   33.333333333333336
-250.0   90.0   33.333333333333336
-250.0   60.0   50.0
-200.0   60.0   33.333333333333336
-200.0   90.0   33.333333333333336
-250.0   90.0   33.333333333333336
-200.0   90.0   50.0
-250.0   60.0   50.0
-250.0   90.0   50.0
-200.0   90.0   50.0
-250.0   90.0   33.333333333333336
-250.0   60.0   50.0
-200.0   90.0   50.0
-200.0   60.0   50.0
-200.0   60.0   33.333333333333336
-250.0   60.0   50.0
-200.0   90.0   50.0
-200.0   60.0   33.333333333333336
-250.0   90.0   33.333333333333336
-250.0   90.0   0.0
-200.0   90.0   0.0
-250.0   120.0   0.0
-250.0   90.0   16.666666666666668
-200.0   90.0   0.0
-200.0   120.0   0.0
-250.0   120.0   0.0
-200.0   120.0   16.666666666666668
-250.0   90.0   16.666666666666668
-250.0   120.0   16.666666666666668
-200.0   120.0   16.666666666666668
-250.0   120.0   0.0
-250.0   90.0   16.666666666666668
-200.0   120.0   16.666666666666668
-200.0   90.0   16.666666666666668
-200.0   90.0   0.0
-250.0   90.0   16.666666666666668
-200.0   120.0   16.666666666666668
-200.0   90.0   0.0
-250.0   120.0   0.0
-250.0   90.0   16.666666666666668
-200.0   90.0   16.666666666666668
-250.0   120.0   16.666666666666668
-250.0   90.0   33.333333333333336
-200.0   90.0   16.666666666666668
-200.0   120.0   16.666666666666668
-250.0   120.0   16.666666666666668
-200.0   120.0   33.333333333333336
-250.0   90.0   33.333333333333336
-250.0   120.0   33.333333333333336
-200.0   120.0   33.333333333333336
-250.0   120.0   16.666666666666668
-250.0   90.0   33.333333333333336
-200.0   120.0   33.333333333333336
-200.0   90.0   33.333333333333336
-200.0   90.0   16.666666666666668
-250.0   90.0   33.333333333333336
-200.0   120.0   33.333333333333336
-200.0   90.0   16.666666666666668
-250.0   120.0   16.666666666666668
-250.0   90.0   33.333333333333336
-200.0   90.0   33.333333333333336
-250.0   120.0   33.333333333333336
-250.0   90.0   50.0
-200.0   90.0   33.333333333333336
-200.0   120.0   33.333333333333336
-250.0   120.0   33.333333333333336
-200.0   120.0   50.0
-250.0   90.0   50.0
-250.0   120.0   50.0
-200.0   120.0   50.0
-250.0   120.0   33.333333333333336
-250.0   90.0   50.0
-200.0   120.0   50.0
-200.0   90.0   50.0
-200.0   90.0   33.333333333333336
-250.0   90.0   50.0
-200.0   120.0   50.0
-200.0   90.0   33.333333333333336
-250.0   120.0   33.333333333333336
-250.0   120.0   0.0
-200.0   120.0   0.0
-250.0   150.0   0.0
-250.0   120.0   16.666666666666668
-200.0   120.0   0.0
-200.0   150.0   0.0
-250.0   150.0   0.0
-200.0   150.0   16.666666666666668
-250.0   120.0   16.666666666666668
-250.0   150.0   16.666666666666668
-200.0   150.0   16.666666666666668
-250.0   150.0   0.0
-250.0   120.0   16.666666666666668
-200.0   150.0   16.666666666666668
-200.0   120.0   16.666666666666668
-200.0   120.0   0.0
-250.0   120.0   16.666666666666668
-200.0   150.0   16.666666666666668
-200.0   120.0   0.0
-250.0   150.0   0.0
-250.0   120.0   16.666666666666668
-200.0   120.0   16.666666666666668
-250.0   150.0   16.666666666666668
-250.0   120.0   33.333333333333336
-200.0   120.0   16.666666666666668
-200.0   150.0   16.666666666666668
-250.0   150.0   16.666666666666668
-200.0   150.0   33.333333333333336
-250.0   120.0   33.333333333333336
-250.0   150.0   33.333333333333336
-200.0   150.0   33.333333333333336
-250.0   150.0   16.666666666666668
-250.0   120.0   33.333333333333336
-200.0   150.0   33.333333333333336
-200.0   120.0   33.333333333333336
-200.0   120.0   16.666666666666668
-250.0   120.0   33.333333333333336
-200.0   150.0   33.333333333333336
-200.0   120.0   16.666666666666668
-250.0   150.0   16.666666666666668
-250.0   120.0   33.333333333333336
-200.0   120.0   33.333333333333336
-250.0   150.0   33.333333333333336
-250.0   120.0   50.0
-200.0   120.0   33.333333333333336
-200.0   150.0   33.333333333333336
-250.0   150.0   33.333333333333336
-200.0   150.0   50.0
-250.0   120.0   50.0
-250.0   150.0   50.0
-200.0   150.0   50.0
-250.0   150.0   33.333333333333336
-250.0   120.0   50.0
-200.0   150.0   50.0
-200.0   120.0   50.0
-200.0   120.0   33.333333333333336
-250.0   120.0   50.0
-200.0   150.0   50.0
-200.0   120.0   33.333333333333336
-250.0   150.0   33.333333333333336
-200.0   0.0   0.0
-150.0   0.0   0.0
-200.0   30.0   0.0
-200.0   0.0   16.666666666666668
-150.0   0.0   0.0
-150.0   30.0   0.0
-200.0   30.0   0.0
-150.0   30.0   16.666666666666668
-200.0   0.0   16.666666666666668
-200.0   30.0   16.666666666666668
-150.0   30.0   16.666666666666668
-200.0   30.0   0.0
-200.0   0.0   16.666666666666668
-150.0   30.0   16.666666666666668
-150.0   0.0   16.666666666666668
-150.0   0.0   0.0
-200.0   0.0   16.666666666666668
-150.0   30.0   16.666666666666668
-150.0   0.0   0.0
-200.0   30.0   0.0
-200.0   0.0   16.666666666666668
-150.0   0.0   16.666666666666668
-200.0   30.0   16.666666666666668
-200.0   0.0   33.333333333333336
-150.0   0.0   16.666666666666668
-150.0   30.0   16.666666666666668
-200.0   30.0   16.666666666666668
-150.0   30.0   33.333333333333336
-200.0   0.0   33.333333333333336
-200.0   30.0   33.333333333333336
-150.0   30.0   33.333333333333336
-200.0   30.0   16.666666666666668
-200.0   0.0   33.333333333333336
-150.0   30.0   33.333333333333336
-150.0   0.0   33.333333333333336
-150.0   0.0   16.666666666666668
-200.0   0.0   33.333333333333336
-150.0   30.0   33.333333333333336
-150.0   0.0   16.666666666666668
-200.0   30.0   16.666666666666668
-200.0   0.0   33.333333333333336
-150.0   0.0   33.333333333333336
-200.0   30.0   33.333333333333336
-200.0   0.0   50.0
-150.0   0.0   33.333333333333336
-150.0   30.0   33.333333333333336
-200.0   30.0   33.333333333333336
-150.0   30.0   50.0
-200.0   0.0   50.0
-200.0   30.0   50.0
-150.0   30.0   50.0
-200.0   30.0   33.333333333333336
-200.0   0.0   50.0
-150.0   30.0   50.0
-150.0   0.0   50.0
-150.0   0.0   33.333333333333336
-200.0   0.0   50.0
-150.0   30.0   50.0
-150.0   0.0   33.333333333333336
-200.0   30.0   33.333333333333336
-200.0   30.0   0.0
-150.0   30.0   0.0
-200.0   60.0   0.0
-200.0   30.0   16.666666666666668
-150.0   30.0   0.0
-150.0   60.0   0.0
-200.0   60.0   0.0
-150.0   60.0   16.666666666666668
-200.0   30.0   16.666666666666668
-200.0   60.0   16.666666666666668
-150.0   60.0   16.666666666666668
-200.0   60.0   0.0
-200.0   30.0   16.666666666666668
-150.0   60.0   16.666666666666668
-150.0   30.0   16.666666666666668
-150.0   30.0   0.0
-200.0   30.0   16.666666666666668
-150.0   60.0   16.666666666666668
-150.0   30.0   0.0
-200.0   60.0   0.0
-200.0   30.0   16.666666666666668
-150.0   30.0   16.666666666666668
-200.0   60.0   16.666666666666668
-200.0   30.0   33.333333333333336
-150.0   30.0   16.666666666666668
-150.0   60.0   16.666666666666668
-200.0   60.0   16.666666666666668
-150.0   60.0   33.333333333333336
-200.0   30.0   33.333333333333336
-200.0   60.0   33.333333333333336
-150.0   60.0   33.333333333333336
-200.0   60.0   16.666666666666668
-200.0   30.0   33.333333333333336
-150.0   60.0   33.333333333333336
-150.0   30.0   33.333333333333336
-150.0   30.0   16.666666666666668
-200.0   30.0   33.333333333333336
-150.0   60.0   33.333333333333336
-150.0   30.0   16.666666666666668
-200.0   60.0   16.666666666666668
-200.0   30.0   33.333333333333336
-150.0   30.0   33.333333333333336
-200.0   60.0   33.333333333333336
-200.0   30.0   50.0
-150.0   30.0   33.333333333333336
-150.0   60.0   33.333333333333336
-200.0   60.0   33.333333333333336
-150.0   60.0   50.0
-200.0   30.0   50.0
-200.0   60.0   50.0
-150.0   60.0   50.0
-200.0   60.0   33.333333333333336
-200.0   30.0   50.0
-150.0   60.0   50.0
-150.0   30.0   50.0
-150.0   30.0   33.333333333333336
-200.0   30.0   50.0
-150.0   60.0   50.0
-150.0   30.0   33.333333333333336
-200.0   60.0   33.333333333333336
-200.0   60.0   0.0
-150.0   60.0   0.0
-200.0   90.0   0.0
-200.0   60.0   16.666666666666668
-150.0   60.0   0.0
-150.0   90.0   0.0
-200.0   90.0   0.0
-150.0   90.0   16.666666666666668
-200.0   60.0   16.666666666666668
-200.0   90.0   16.666666666666668
-150.0   90.0   16.666666666666668
-200.0   90.0   0.0
-200.0   60.0   16.666666666666668
-150.0   90.0   16.666666666666668
-150.0   60.0   16.666666666666668
-150.0   60.0   0.0
-200.0   60.0   16.666666666666668
-150.0   90.0   16.666666666666668
-150.0   60.0   0.0
-200.0   90.0   0.0
-200.0   60.0   16.666666666666668
-150.0   60.0   16.666666666666668
-200.0   90.0   16.666666666666668
-200.0   60.0   33.333333333333336
-150.0   60.0   16.666666666666668
-150.0   90.0   16.666666666666668
-200.0   90.0   16.666666666666668
-150.0   90.0   33.333333333333336
-200.0   60.0   33.333333333333336
-200.0   90.0   33.333333333333336
-150.0   90.0   33.333333333333336
-200.0   90.0   16.666666666666668
-200.0   60.0   33.333333333333336
-150.0   90.0   33.333333333333336
-150.0   60.0   33.333333333333336
-150.0   60.0   16.666666666666668
-200.0   60.0   33.333333333333336
-150.0   90.0   33.333333333333336
-150.0   60.0   16.666666666666668
-200.0   90.0   16.666666666666668
-200.0   60.0   33.333333333333336
-150.0   60.0   33.333333333333336
-200.0   90.0   33.333333333333336
-200.0   60.0   50.0
-150.0   60.0   33.333333333333336
-150.0   90.0   33.333333333333336
-200.0   90.0   33.333333333333336
-150.0   90.0   50.0
-200.0   60.0   50.0
-200.0   90.0   50.0
-150.0   90.0   50.0
-200.0   90.0   33.333333333333336
-200.0   60.0   50.0
-150.0   90.0   50.0
-150.0   60.0   50.0
-150.0   60.0   33.333333333333336
-200.0   60.0   50.0
-150.0   90.0   50.0
-150.0   60.0   33.333333333333336
-200.0   90.0   33.333333333333336
-200.0   90.0   0.0
-150.0   90.0   0.0
-200.0   120.0   0.0
-200.0   90.0   16.666666666666668
-150.0   90.0   0.0
-150.0   120.0   0.0
-200.0   120.0   0.0
-150.0   120.0   16.666666666666668
-200.0   90.0   16.666666666666668
-200.0   120.0   16.666666666666668
-150.0   120.0   16.666666666666668
-200.0   120.0   0.0
-200.0   90.0   16.666666666666668
-150.0   120.0   16.666666666666668
-150.0   90.0   16.666666666666668
-150.0   90.0   0.0
-200.0   90.0   16.666666666666668
-150.0   120.0   16.666666666666668
-150.0   90.0   0.0
-200.0   120.0   0.0
-200.0   90.0   16.666666666666668
-150.0   90.0   16.666666666666668
-200.0   120.0   16.666666666666668
-200.0   90.0   33.333333333333336
-150.0   90.0   16.666666666666668
-150.0   120.0   16.666666666666668
-200.0   120.0   16.666666666666668
-150.0   120.0   33.333333333333336
-200.0   90.0   33.333333333333336
-200.0   120.0   33.333333333333336
-150.0   120.0   33.333333333333336
-200.0   120.0   16.666666666666668
-200.0   90.0   33.333333333333336
-150.0   120.0   33.333333333333336
-150.0   90.0   33.333333333333336
-150.0   90.0   16.666666666666668
-200.0   90.0   33.333333333333336
-150.0   120.0   33.333333333333336
-150.0   90.0   16.666666666666668
-200.0   120.0   16.666666666666668
-200.0   90.0   33.333333333333336
-150.0   90.0   33.333333333333336
-200.0   120.0   33.333333333333336
-200.0   90.0   50.0
-150.0   90.0   33.333333333333336
-150.0   120.0   33.333333333333336
-200.0   120.0   33.333333333333336
-150.0   120.0   50.0
-200.0   90.0   50.0
-200.0   120.0   50.0
-150.0   120.0   50.0
-200.0   120.0   33.333333333333336
-200.0   90.0   50.0
-150.0   120.0   50.0
-150.0   90.0   50.0
-150.0   90.0   33.333333333333336
-200.0   90.0   50.0
-150.0   120.0   50.0
-150.0   90.0   33.333333333333336
-200.0   120.0   33.333333333333336
-200.0   120.0   0.0
-150.0   120.0   0.0
-200.0   150.0   0.0
-200.0   120.0   16.666666666666668
-150.0   120.0   0.0
-150.0   150.0   0.0
-200.0   150.0   0.0
-150.0   150.0   16.666666666666668
-200.0   120.0   16.666666666666668
-200.0   150.0   16.666666666666668
-150.0   150.0   16.666666666666668
-200.0   150.0   0.0
-200.0   120.0   16.666666666666668
-150.0   150.0   16.666666666666668
-150.0   120.0   16.666666666666668
-150.0   120.0   0.0
-200.0   120.0   16.666666666666668
-150.0   150.0   16.666666666666668
-150.0   120.0   0.0
-200.0   150.0   0.0
-200.0   120.0   16.666666666666668
-150.0   120.0   16.666666666666668
-200.0   150.0   16.666666666666668
-200.0   120.0   33.333333333333336
-150.0   120.0   16.666666666666668
-150.0   150.0   16.666666666666668
-200.0   150.0   16.666666666666668
-150.0   150.0   33.333333333333336
-200.0   120.0   33.333333333333336
-200.0   150.0   33.333333333333336
-150.0   150.0   33.333333333333336
-200.0   150.0   16.666666666666668
-200.0   120.0   33.333333333333336
-150.0   150.0   33.333333333333336
-150.0   120.0   33.333333333333336
-150.0   120.0   16.666666666666668
-200.0   120.0   33.333333333333336
-150.0   150.0   33.333333333333336
-150.0   120.0   16.666666666666668
-200.0   150.0   16.666666666666668
-200.0   120.0   33.333333333333336
-150.0   120.0   33.333333333333336
-200.0   150.0   33.333333333333336
-200.0   120.0   50.0
-150.0   120.0   33.333333333333336
-150.0   150.0   33.333333333333336
-200.0   150.0   33.333333333333336
-150.0   150.0   50.0
-200.0   120.0   50.0
-200.0   150.0   50.0
-150.0   150.0   50.0
-200.0   150.0   33.333333333333336
-200.0   120.0   50.0
-150.0   150.0   50.0
-150.0   120.0   50.0
-150.0   120.0   33.333333333333336
-200.0   120.0   50.0
-150.0   150.0   50.0
-150.0   120.0   33.333333333333336
-200.0   150.0   33.333333333333336
-150.0   0.0   0.0
-100.0   0.0   0.0
-150.0   30.0   0.0
-150.0   0.0   16.666666666666668
-100.0   0.0   0.0
-100.0   30.0   0.0
-150.0   30.0   0.0
-100.0   30.0   16.666666666666668
-150.0   0.0   16.666666666666668
-150.0   30.0   16.666666666666668
-100.0   30.0   16.666666666666668
-150.0   30.0   0.0
-150.0   0.0   16.666666666666668
-100.0   30.0   16.666666666666668
-100.0   0.0   16.666666666666668
-100.0   0.0   0.0
-150.0   0.0   16.666666666666668
-100.0   30.0   16.666666666666668
-100.0   0.0   0.0
-150.0   30.0   0.0
-150.0   0.0   16.666666666666668
-100.0   0.0   16.666666666666668
-150.0   30.0   16.666666666666668
-150.0   0.0   33.333333333333336
-100.0   0.0   16.666666666666668
-100.0   30.0   16.666666666666668
-150.0   30.0   16.666666666666668
-100.0   30.0   33.333333333333336
-150.0   0.0   33.333333333333336
-150.0   30.0   33.333333333333336
-100.0   30.0   33.333333333333336
-150.0   30.0   16.666666666666668
-150.0   0.0   33.333333333333336
-100.0   30.0   33.333333333333336
-100.0   0.0   33.333333333333336
-100.0   0.0   16.666666666666668
-150.0   0.0   33.333333333333336
-100.0   30.0   33.333333333333336
-100.0   0.0   16.666666666666668
-150.0   30.0   16.666666666666668
-150.0   0.0   33.333333333333336
-100.0   0.0   33.333333333333336
-150.0   30.0   33.333333333333336
-150.0   0.0   50.0
-100.0   0.0   33.333333333333336
-100.0   30.0   33.333333333333336
-150.0   30.0   33.333333333333336
-100.0   30.0   50.0
-150.0   0.0   50.0
-150.0   30.0   50.0
-100.0   30.0   50.0
-150.0   30.0   33.333333333333336
-150.0   0.0   50.0
-100.0   30.0   50.0
-100.0   0.0   50.0
-100.0   0.0   33.333333333333336
-150.0   0.0   50.0
-100.0   30.0   50.0
-100.0   0.0   33.333333333333336
-150.0   30.0   33.333333333333336
-150.0   30.0   0.0
-100.0   30.0   0.0
-150.0   60.0   0.0
-150.0   30.0   16.666666666666668
-100.0   30.0   0.0
-100.0   60.0   0.0
-150.0   60.0   0.0
-100.0   60.0   16.666666666666668
-150.0   30.0   16.666666666666668
-150.0   60.0   16.666666666666668
-100.0   60.0   16.666666666666668
-150.0   60.0   0.0
-150.0   30.0   16.666666666666668
-100.0   60.0   16.666666666666668
-100.0   30.0   16.666666666666668
-100.0   30.0   0.0
-150.0   30.0   16.666666666666668
-100.0   60.0   16.666666666666668
-100.0   30.0   0.0
-150.0   60.0   0.0
-150.0   30.0   16.666666666666668
-100.0   30.0   16.666666666666668
-150.0   60.0   16.666666666666668
-150.0   30.0   33.333333333333336
-100.0   30.0   16.666666666666668
-100.0   60.0   16.666666666666668
-150.0   60.0   16.666666666666668
-100.0   60.0   33.333333333333336
-150.0   30.0   33.333333333333336
-150.0   60.0   33.333333333333336
-100.0   60.0   33.333333333333336
-150.0   60.0   16.666666666666668
-150.0   30.0   33.333333333333336
-100.0   60.0   33.333333333333336
-100.0   30.0   33.333333333333336
-100.0   30.0   16.666666666666668
-150.0   30.0   33.333333333333336
-100.0   60.0   33.333333333333336
-100.0   30.0   16.666666666666668
-150.0   60.0   16.666666666666668
-150.0   30.0   33.333333333333336
-100.0   30.0   33.333333333333336
-150.0   60.0   33.333333333333336
-150.0   30.0   50.0
-100.0   30.0   33.333333333333336
-100.0   60.0   33.333333333333336
-150.0   60.0   33.333333333333336
-100.0   60.0   50.0
-150.0   30.0   50.0
-150.0   60.0   50.0
-100.0   60.0   50.0
-150.0   60.0   33.333333333333336
-150.0   30.0   50.0
-100.0   60.0   50.0
-100.0   30.0   50.0
-100.0   30.0   33.333333333333336
-150.0   30.0   50.0
-100.0   60.0   50.0
-100.0   30.0   33.333333333333336
-150.0   60.0   33.333333333333336
-150.0   60.0   0.0
-100.0   60.0   0.0
-150.0   90.0   0.0
-150.0   60.0   16.666666666666668
-100.0   60.0   0.0
-100.0   90.0   0.0
-150.0   90.0   0.0
-100.0   90.0   16.666666666666668
-150.0   60.0   16.666666666666668
-150.0   90.0   16.666666666666668
-100.0   90.0   16.666666666666668
-150.0   90.0   0.0
-150.0   60.0   16.666666666666668
-100.0   90.0   16.666666666666668
-100.0   60.0   16.666666666666668
-100.0   60.0   0.0
-150.0   60.0   16.666666666666668
-100.0   90.0   16.666666666666668
-100.0   60.0   0.0
-150.0   90.0   0.0
-150.0   60.0   16.666666666666668
-100.0   60.0   16.666666666666668
-150.0   90.0   16.666666666666668
-150.0   60.0   33.333333333333336
-100.0   60.0   16.666666666666668
-100.0   90.0   16.666666666666668
-150.0   90.0   16.666666666666668
-100.0   90.0   33.333333333333336
-150.0   60.0   33.333333333333336
-150.0   90.0   33.333333333333336
-100.0   90.0   33.333333333333336
-150.0   90.0   16.666666666666668
-150.0   60.0   33.333333333333336
-100.0   90.0   33.333333333333336
-100.0   60.0   33.333333333333336
-100.0   60.0   16.666666666666668
-150.0   60.0   33.333333333333336
-100.0   90.0   33.333333333333336
-100.0   60.0   16.666666666666668
-150.0   90.0   16.666666666666668
-150.0   60.0   33.333333333333336
-100.0   60.0   33.333333333333336
-150.0   90.0   33.333333333333336
-150.0   60.0   50.0
-100.0   60.0   33.333333333333336
-100.0   90.0   33.333333333333336
-150.0   90.0   33.333333333333336
-100.0   90.0   50.0
-150.0   60.0   50.0
-150.0   90.0   50.0
-100.0   90.0   50.0
-150.0   90.0   33.333333333333336
-150.0   60.0   50.0
-100.0   90.0   50.0
-100.0   60.0   50.0
-100.0   60.0   33.333333333333336
-150.0   60.0   50.0
-100.0   90.0   50.0
-100.0   60.0   33.333333333333336
-150.0   90.0   33.333333333333336
-150.0   90.0   0.0
-100.0   90.0   0.0
-150.0   120.0   0.0
-150.0   90.0   16.666666666666668
-100.0   90.0   0.0
-100.0   120.0   0.0
-150.0   120.0   0.0
-100.0   120.0   16.666666666666668
-150.0   90.0   16.666666666666668
-150.0   120.0   16.666666666666668
-100.0   120.0   16.666666666666668
-150.0   120.0   0.0
-150.0   90.0   16.666666666666668
-100.0   120.0   16.666666666666668
-100.0   90.0   16.666666666666668
-100.0   90.0   0.0
-150.0   90.0   16.666666666666668
-100.0   120.0   16.666666666666668
-100.0   90.0   0.0
-150.0   120.0   0.0
-150.0   90.0   16.666666666666668
-100.0   90.0   16.666666666666668
-150.0   120.0   16.666666666666668
-150.0   90.0   33.333333333333336
-100.0   90.0   16.666666666666668
-100.0   120.0   16.666666666666668
-150.0   120.0   16.666666666666668
-100.0   120.0   33.333333333333336
-150.0   90.0   33.333333333333336
-150.0   120.0   33.333333333333336
-100.0   120.0   33.333333333333336
-150.0   120.0   16.666666666666668
-150.0   90.0   33.333333333333336
-100.0   120.0   33.333333333333336
-100.0   90.0   33.333333333333336
-100.0   90.0   16.666666666666668
-150.0   90.0   33.333333333333336
-100.0   120.0   33.333333333333336
-100.0   90.0   16.666666666666668
-150.0   120.0   16.666666666666668
-150.0   90.0   33.333333333333336
-100.0   90.0   33.333333333333336
-150.0   120.0   33.333333333333336
-150.0   90.0   50.0
-100.0   90.0   33.333333333333336
-100.0   120.0   33.333333333333336
-150.0   120.0   33.333333333333336
-100.0   120.0   50.0
-150.0   90.0   50.0
-150.0   120.0   50.0
-100.0   120.0   50.0
-150.0   120.0   33.333333333333336
-150.0   90.0   50.0
-100.0   120.0   50.0
-100.0   90.0   50.0
-100.0   90.0   33.333333333333336
-150.0   90.0   50.0
-100.0   120.0   50.0
-100.0   90.0   33.333333333333336
-150.0   120.0   33.333333333333336
-150.0   120.0   0.0
-100.0   120.0   0.0
-150.0   150.0   0.0
-150.0   120.0   16.666666666666668
-100.0   120.0   0.0
-100.0   150.0   0.0
-150.0   150.0   0.0
-100.0   150.0   16.666666666666668
-150.0   120.0   16.666666666666668
-150.0   150.0   16.666666666666668
-100.0   150.0   16.666666666666668
-150.0   150.0   0.0
-150.0   120.0   16.666666666666668
-100.0   150.0   16.666666666666668
-100.0   120.0   16.666666666666668
-100.0   120.0   0.0
-150.0   120.0   16.666666666666668
-100.0   150.0   16.666666666666668
-100.0   120.0   0.0
-150.0   150.0   0.0
-150.0   120.0   16.666666666666668
-100.0   120.0   16.666666666666668
-150.0   150.0   16.666666666666668
-150.0   120.0   33.333333333333336
-100.0   120.0   16.666666666666668
-100.0   150.0   16.666666666666668
-150.0   150.0   16.666666666666668
-100.0   150.0   33.333333333333336
-150.0   120.0   33.333333333333336
-150.0   150.0   33.333333333333336
-100.0   150.0   33.333333333333336
-150.0   150.0   16.666666666666668
-150.0   120.0   33.333333333333336
-100.0   150.0   33.333333333333336
-100.0   120.0   33.333333333333336
-100.0   120.0   16.666666666666668
-150.0   120.0   33.333333333333336
-100.0   150.0   33.333333333333336
-100.0   120.0   16.666666666666668
-150.0   150.0   16.666666666666668
-150.0   120.0   33.333333333333336
-100.0   120.0   33.333333333333336
-150.0   150.0   33.333333333333336
-150.0   120.0   50.0
-100.0   120.0   33.333333333333336
-100.0   150.0   33.333333333333336
-150.0   150.0   33.333333333333336
-100.0   150.0   50.0
-150.0   120.0   50.0
-150.0   150.0   50.0
-100.0   150.0   50.0
-150.0   150.0   33.333333333333336
-150.0   120.0   50.0
-100.0   150.0   50.0
-100.0   120.0   50.0
-100.0   120.0   33.333333333333336
-150.0   120.0   50.0
-100.0   150.0   50.0
-100.0   120.0   33.333333333333336
-150.0   150.0   33.333333333333336
-100.0   0.0   0.0
-50.0   0.0   0.0
-100.0   30.0   0.0
-100.0   0.0   16.666666666666668
-50.0   0.0   0.0
-50.0   30.0   0.0
-100.0   30.0   0.0
-50.0   30.0   16.666666666666668
-100.0   0.0   16.666666666666668
-100.0   30.0   16.666666666666668
-50.0   30.0   16.666666666666668
-100.0   30.0   0.0
-100.0   0.0   16.666666666666668
-50.0   30.0   16.666666666666668
-50.0   0.0   16.666666666666668
-50.0   0.0   0.0
-100.0   0.0   16.666666666666668
-50.0   30.0   16.666666666666668
-50.0   0.0   0.0
-100.0   30.0   0.0
-100.0   0.0   16.666666666666668
-50.0   0.0   16.666666666666668
-100.0   30.0   16.666666666666668
-100.0   0.0   33.333333333333336
-50.0   0.0   16.666666666666668
-50.0   30.0   16.666666666666668
-100.0   30.0   16.666666666666668
-50.0   30.0   33.333333333333336
-100.0   0.0   33.333333333333336
-100.0   30.0   33.333333333333336
-50.0   30.0   33.333333333333336
-100.0   30.0   16.666666666666668
-100.0   0.0   33.333333333333336
-50.0   30.0   33.333333333333336
-50.0   0.0   33.333333333333336
-50.0   0.0   16.666666666666668
-100.0   0.0   33.333333333333336
-50.0   30.0   33.333333333333336
-50.0   0.0   16.666666666666668
-100.0   30.0   16.666666666666668
-100.0   0.0   33.333333333333336
-50.0   0.0   33.333333333333336
-100.0   30.0   33.333333333333336
-100.0   0.0   50.0
-50.0   0.0   33.333333333333336
-50.0   30.0   33.333333333333336
-100.0   30.0   33.333333333333336
-50.0   30.0   50.0
-100.0   0.0   50.0
-100.0   30.0   50.0
-50.0   30.0   50.0
-100.0   30.0   33.333333333333336
-100.0   0.0   50.0
-50.0   30.0   50.0
-50.0   0.0   50.0
-50.0   0.0   33.333333333333336
-100.0   0.0   50.0
-50.0   30.0   50.0
-50.0   0.0   33.333333333333336
-100.0   30.0   33.333333333333336
-100.0   30.0   0.0
-50.0   30.0   0.0
-100.0   60.0   0.0
-100.0   30.0   16.666666666666668
-50.0   30.0   0.0
-50.0   60.0   0.0
-100.0   60.0   0.0
-50.0   60.0   16.666666666666668
-100.0   30.0   16.666666666666668
-100.0   60.0   16.666666666666668
-50.0   60.0   16.666666666666668
-100.0   60.0   0.0
-100.0   30.0   16.666666666666668
-50.0   60.0   16.666666666666668
-50.0   30.0   16.666666666666668
-50.0   30.0   0.0
-100.0   30.0   16.666666666666668
-50.0   60.0   16.666666666666668
-50.0   30.0   0.0
-100.0   60.0   0.0
-100.0   30.0   16.666666666666668
-50.0   30.0   16.666666666666668
-100.0   60.0   16.666666666666668
-100.0   30.0   33.333333333333336
-50.0   30.0   16.666666666666668
-50.0   60.0   16.666666666666668
-100.0   60.0   16.666666666666668
-50.0   60.0   33.333333333333336
-100.0   30.0   33.333333333333336
-100.0   60.0   33.333333333333336
-50.0   60.0   33.333333333333336
-100.0   60.0   16.666666666666668
-100.0   30.0   33.333333333333336
-50.0   60.0   33.333333333333336
-50.0   30.0   33.333333333333336
-50.0   30.0   16.666666666666668
-100.0   30.0   33.333333333333336
-50.0   60.0   33.333333333333336
-50.0   30.0   16.666666666666668
-100.0   60.0   16.666666666666668
-100.0   30.0   33.333333333333336
-50.0   30.0   33.333333333333336
-100.0   60.0   33.333333333333336
-100.0   30.0   50.0
-50.0   30.0   33.333333333333336
-50.0   60.0   33.333333333333336
-100.0   60.0   33.333333333333336
-50.0   60.0   50.0
-100.0   30.0   50.0
-100.0   60.0   50.0
-50.0   60.0   50.0
-100.0   60.0   33.333333333333336
-100.0   30.0   50.0
-50.0   60.0   50.0
-50.0   30.0   50.0
-50.0   30.0   33.333333333333336
-100.0   30.0   50.0
-50.0   60.0   50.0
-50.0   30.0   33.333333333333336
-100.0   60.0   33.333333333333336
-100.0   60.0   0.0
-50.0   60.0   0.0
-100.0   90.0   0.0
-100.0   60.0   16.666666666666668
-50.0   60.0   0.0
-50.0   90.0   0.0
-100.0   90.0   0.0
-50.0   90.0   16.666666666666668
-100.0   60.0   16.666666666666668
-100.0   90.0   16.666666666666668
-50.0   90.0   16.666666666666668
-100.0   90.0   0.0
-100.0   60.0   16.666666666666668
-50.0   90.0   16.666666666666668
-50.0   60.0   16.666666666666668
-50.0   60.0   0.0
-100.0   60.0   16.666666666666668
-50.0   90.0   16.666666666666668
-50.0   60.0   0.0
-100.0   90.0   0.0
-100.0   60.0   16.666666666666668
-50.0   60.0   16.666666666666668
-100.0   90.0   16.666666666666668
-100.0   60.0   33.333333333333336
-50.0   60.0   16.666666666666668
-50.0   90.0   16.666666666666668
-100.0   90.0   16.666666666666668
-50.0   90.0   33.333333333333336
-100.0   60.0   33.333333333333336
-100.0   90.0   33.333333333333336
-50.0   90.0   33.333333333333336
-100.0   90.0   16.666666666666668
-100.0   60.0   33.333333333333336
-50.0   90.0   33.333333333333336
-50.0   60.0   33.333333333333336
-50.0   60.0   16.666666666666668
-100.0   60.0   33.333333333333336
-50.0   90.0   33.333333333333336
-50.0   60.0   16.666666666666668
-100.0   90.0   16.666666666666668
-100.0   60.0   33.333333333333336
-50.0   60.0   33.333333333333336
-100.0   90.0   33.333333333333336
-100.0   60.0   50.0
-50.0   60.0   33.333333333333336
-50.0   90.0   33.333333333333336
-100.0   90.0   33.333333333333336
-50.0   90.0   50.0
-100.0   60.0   50.0
-100.0   90.0   50.0
-50.0   90.0   50.0
-100.0   90.0   33.333333333333336
-100.0   60.0   50.0
-50.0   90.0   50.0
-50.0   60.0   50.0
-50.0   60.0   33.333333333333336
-100.0   60.0   50.0
-50.0   90.0   50.0
-50.0   60.0   33.333333333333336
-100.0   90.0   33.333333333333336
-100.0   90.0   0.0
-50.0   90.0   0.0
-100.0   120.0   0.0
-100.0   90.0   16.666666666666668
-50.0   90.0   0.0
-50.0   120.0   0.0
-100.0   120.0   0.0
-50.0   120.0   16.666666666666668
-100.0   90.0   16.666666666666668
-100.0   120.0   16.666666666666668
-50.0   120.0   16.666666666666668
-100.0   120.0   0.0
-100.0   90.0   16.666666666666668
-50.0   120.0   16.666666666666668
-50.0   90.0   16.666666666666668
-50.0   90.0   0.0
-100.0   90.0   16.666666666666668
-50.0   120.0   16.666666666666668
-50.0   90.0   0.0
-100.0   120.0   0.0
-100.0   90.0   16.666666666666668
-50.0   90.0   16.666666666666668
-100.0   120.0   16.666666666666668
-100.0   90.0   33.333333333333336
-50.0   90.0   16.666666666666668
-50.0   120.0   16.666666666666668
-100.0   120.0   16.666666666666668
-50.0   120.0   33.333333333333336
-100.0   90.0   33.333333333333336
-100.0   120.0   33.333333333333336
-50.0   120.0   33.333333333333336
-100.0   120.0   16.666666666666668
-100.0   90.0   33.333333333333336
-50.0   120.0   33.333333333333336
-50.0   90.0   33.333333333333336
-50.0   90.0   16.666666666666668
-100.0   90.0   33.333333333333336
-50.0   120.0   33.333333333333336
-50.0   90.0   16.666666666666668
-100.0   120.0   16.666666666666668
-100.0   90.0   33.333333333333336
-50.0   90.0   33.333333333333336
-100.0   120.0   33.333333333333336
-100.0   90.0   50.0
-50.0   90.0   33.333333333333336
-50.0   120.0   33.333333333333336
-100.0   120.0   33.333333333333336
-50.0   120.0   50.0
-100.0   90.0   50.0
-100.0   120.0   50.0
-50.0   120.0   50.0
-100.0   120.0   33.333333333333336
-100.0   90.0   50.0
-50.0   120.0   50.0
-50.0   90.0   50.0
-50.0   90.0   33.333333333333336
-100.0   90.0   50.0
-50.0   120.0   50.0
-50.0   90.0   33.333333333333336
-100.0   120.0   33.333333333333336
-100.0   120.0   0.0
-50.0   120.0   0.0
-100.0   150.0   0.0
-100.0   120.0   16.666666666666668
-50.0   120.0   0.0
-50.0   150.0   0.0
-100.0   150.0   0.0
-50.0   150.0   16.666666666666668
-100.0   120.0   16.666666666666668
-100.0   150.0   16.666666666666668
-50.0   150.0   16.666666666666668
-100.0   150.0   0.0
-100.0   120.0   16.666666666666668
-50.0   150.0   16.666666666666668
-50.0   120.0   16.666666666666668
-50.0   120.0   0.0
-100.0   120.0   16.666666666666668
-50.0   150.0   16.666666666666668
-50.0   120.0   0.0
-100.0   150.0   0.0
-100.0   120.0   16.666666666666668
-50.0   120.0   16.666666666666668
-100.0   150.0   16.666666666666668
-100.0   120.0   33.333333333333336
-50.0   120.0   16.666666666666668
-50.0   150.0   16.666666666666668
-100.0   150.0   16.666666666666668
-50.0   150.0   33.333333333333336
-100.0   120.0   33.333333333333336
-100.0   150.0   33.333333333333336
-50.0   150.0   33.333333333333336
-100.0   150.0   16.666666666666668
-100.0   120.0   33.333333333333336
-50.0   150.0   33.333333333333336
-50.0   120.0   33.333333333333336
-50.0   120.0   16.666666666666668
-100.0   120.0   33.333333333333336
-50.0   150.0   33.333333333333336
-50.0   120.0   16.666666666666668
-100.0   150.0   16.666666666666668
-100.0   120.0   33.333333333333336
-50.0   120.0   33.333333333333336
-100.0   150.0   33.333333333333336
-100.0   120.0   50.0
-50.0   120.0   33.333333333333336
-50.0   150.0   33.333333333333336
-100.0   150.0   33.333333333333336
-50.0   150.0   50.0
-100.0   120.0   50.0
-100.0   150.0   50.0
-50.0   150.0   50.0
-100.0   150.0   33.333333333333336
-100.0   120.0   50.0
-50.0   150.0   50.0
-50.0   120.0   50.0
-50.0   120.0   33.333333333333336
-100.0   120.0   50.0
-50.0   150.0   50.0
-50.0   120.0   33.333333333333336
-100.0   150.0   33.333333333333336
-50.0   0.0   0.0
0.0   0.0   0.0
-50.0   30.0   0.0
-50.0   0.0   16.666666666666668
0.0   0.0   0.0
0.0   30.0   0.0
-50.0   30.0   0.0
0.0   30.0   16.666666666666668
-50.0   0.0   16.666666666666668
-50.0   30.0   16.666666666666668
0.0   30.0   16.666666666666668
-50.0   30.0   0.0
-50.0   0.0   16.666666666666668
0.0   30.0   16.666666666666668
0.0   0.0   16.666666666666668
0.0   0.0   0.0
-50.0   0.0   16.666666666666668
0.0   30.0   16.666666666666668
0.0   0.0   0.0
-50.0   30.0   0.0
-50.0   0.0   16.666666666666668
0.0   0.0   16.666666666666668
-50.0   30.0   16.666666666666668
-50.0   0.0   33.333333333333336
0.0   0.0   16.666666666666668
0.0   30.0   16.666666666666668
-50.0   30.0   16.666666666666668
0.0   30.0   33.333333333333336
-50.0   0.0   33.333333333333336
-50.0   30.0   33.333333333333336
0.0   30.0   33.333333333333336
-50.0   30.0   16.666666666666668
-50.0   0.0   33.333333333333336
0.0   30.0   33.333333333333336
0.0   0.0   33.333333333333336
0.0   0.0   16.666666666666668
-50.0   0.0   33.333333333333336
0.0   30.0   33.333333333333336
0.0   0.0   16.666666666666668
-50.0   30.0   16.666666666666668
-50.0   0.0   33.333333333333336
0.0   0.0   33.333333333333336
-50.0   30.0   33.333333333333336
-50.0   0.0   50.0
0.0   0.0   33.333333333333336
0.0   30.0   33.333333333333336
-50.0   30.0   33.333333333333336
0.0   30.0   50.0
-50.0   0.0   50.0
-50.0   30.0   50.0
0.0   30.0   50.0
-50.0   30.0   33.333333333333336
-50.0   0.0   50.0
0.0   30.0   50.0
0.0   0.0   50.0
0.0   0.0   33.333333333333336
-50.0   0.0   50.0
0.0   30.0   50.0
0.0   0.0   33.333333333333336
-50.0   30.0   33.333333333333336
-50.0   30.0   0.0
0.0   30.0   0.0
-50.0   60.0   0.0
-50.0   30.0   16.666666666666668
0.0   30.0   0.0
0.0   60.0   0.0
-50.0   60.0   0.0
0.0   60.0   16.666666666666668
-50.0   30.0   16.666666666666668
-50.0   60.0   16.666666666666668
0.0   60.0   16.666666666666668
-50.0   60.0   0.0
-50.0   30.0   16.666666666666668
0.0   60.0   16.666666666666668
0.0   30.0   16.666666666666668
0.0   30.0   0.0
-50.0   30.0   16.666666666666668
0.0   60.0   16.666666666666668
0.0   30.0   0.0
-50.0   60.0   0.0
-50.0   30.0   16.666666666666668
0.0   30.0   16.666666666666668
-50.0   60.0   16.666666666666668
-50.0   30.0   33.333333333333336
0.0   30.0   16.666666666666668
0.0   60.0   16.666666666666668
-50.0   60.0   16.666666666666668
0.0   60.0   33.333333333333336
-50.0   30.0   33.333333333333336
-50.0   60.0   33.333333333333336
0.0   60.0   33.333333333333336
-50.0   60.0   16.666666666666668
-50.0   30.0   33.333333333333336
0.0   60.0   33.333333333333336
0.0   30.0   33.333333333333336
0.0   30.0   16.666666666666668
-50.0   30.0   33.333333333333336
0.0   60.0   33.333333333333336
0.0   30.0   16.666666666666668
-50.0   60.0   16.666666666666668
-50.0   30.0   33.333333333333336
0.0   30.0   33.333333333333336
-50.0   60.0   33.333333333333336
-50.0   30.0   50.0
0.0   30.0   33.333333333333336
0.0   60.0   33.333333333333336
-50.0   60.0   33.333333333333336
0.0   60.0   50.0
-50.0   30.0   50.0
-50.0   60.0   50.0
0.0   60.0   50.0
-50.0   60.0   33.333333333333336
-50.0   30.0   50.0
0.0   60.0   50.0
0.0   30.0   50.0
0.0   30.0   33.333333333333336
-50.0   30.0   50.0
0.0   60.0   50.0
0.0   30.0   33.333333333333336
-50.0   60.0   33.333333333333336
-50.0   60.0   0.0
0.0   60.0   0.0
-50.0   90.0   0.0
-50.0   60.0   16.666666666666668
0.0   60.0   0.0
0.0   90.0   0.0
-50.0   90.0   0.0
0.0   90.0   16.666666666666668
-50.0   60.0   16.666666666666668
-50.0   90.0   16.666666666666668
0.0   90.0   16.666666666666668
-50.0   90.0   0.0
-50.0   60.0   16.666666666666668
0.0   90.0   16.666666666666668
0.0   60.0   16.666666666666668
0.0   60.0   0.0
-50.0   60.0   16.666666666666668
0.0   90.0   16.666666666666668
0.0   60.0   0.0
-50.0   90.0   0.0
-50.0   60.0   16.666666666666668
0.0   60.0   16.666666666666668
-50.0   90.0   16.666666666666668
-50.0   60.0   33.333333333333336
0.0   60.0   16.666666666666668
0.0   90.0   16.666666666666668
-50.0   90.0   16.666666666666668
0.0   90.0   33.333333333333336
-50.0   60.0   33.333333333333336
-50.0   90.0   33.333333333333336
0.0   90.0   33.333333333333336
-50.0   90.0   16.666666666666668
-50.0   60.0   33.333333333333336
0.0   90.0   33.333333333333336
0.0   60.0   33.333333333333336
0.0   60.0   16.666666666666668
-50.0   60.0   33.333333333333336
0.0   90.0   33.333333333333336
0.0   60.0   16.666666666666668
-50.0   90.0   16.666666666666668
-50.0   60.0   33.333333333333336
0.0   60.0   33.333333333333336
-50.0   90.0   33.333333333333336
-50.0   60.0   50.0
0.0   60.0   33.333333333333336
0.0   90.0   33.333333333333336
-50.0   90.0   33.333333333333336
0.0   90.0   50.0
-50.0   60.0   50.0
-50.0   90.0   50.0
0.0   90.0   50.0
-50.0   90.0   33.333333333333336
-50.0   60.0   50.0
0.0   90.0   50.0
0.0   60.0   50.0
0.0   60.0   33.333333333333336
-50.0   60.0   50.0
0.0   90.0   50.0
0.0   60.0   33.333333333333336
-50.0   90.0   33.333333333333336
-50.0   90.0   0.0
0.0   90.0   0.0
-50.0   120.0   0.0
-50.0   90.0   16.666666666666668
0.0   90.0   0.0
0.0   120.0   0.0
-50.0   120.0   0.0
0.0   120.0   16.666666666666668
-50.0   90.0   16.666666666666668
-50.0   120.0   16.666666666666668
0.0   120.0   16.666666666666668
-50.0   120.0   0.0
-50.0   90.0   16.666666666666668
0.0   120.0   16.666666666666668
0.0   90.0   16.666666666666668
0.0   90.0   0.0
-50.0   90.0   16.666666666666668
0.0   120.0   16.666666666666668
0.0   90.0   0.0
-50.0   120.0   0.0
-50.0   90.0   16.666666666666668
0.0   90.0   16.666666666666668
-50.0   120.0   16.666666666666668
-50.0   90.0   33.333333333333336
0.0   90.0   16.666666666666668
0.0   120.0   16.666666666666668
-50.0   120.0   16.666666666666668
0.0   120.0   33.333333333333336
-50.0   90.0   33.333333333333336
-50.0   120.0   33.333333333333336
0.0   120.0   33.333333333333336
-50.0   120.0   16.666666666666668
-50.0   90.0   33.333333333333336
0.0   120.0   33.333333333333336
0.0   90.0   33.333333333333336
0.0   90.0   16.666666666666668
-50.0   90.0   33.333333333333336
0.0   120.0   33.333333333333336
0.0   90.0   16.666666666666668
-50.0   120.0   16.666666666666668
-50.0   90.0   33.333333333333336
0.0   90.0   33.333333333333336
-50.0   120.0   33.333333333333336
-50.0   90.0   50.0
0.0   90.0   33.333333333333336
0.0   120.0   33.333333333333336
-50.0   120.0   33.333333333333336
0.0   120.0   50.0
-50.0   90.0   50.0
-50.0   120.0   50.0
0.0   120.0   50.0
-50.0   120.0   33.333333333333336
-50.0   90.0   50.0
0.0   120.0   50.0
0.0   90.0   50.0
0.0   90.0   33.333333333333336
-50.0   90.0   50.0
0.0   120.0   50.0
0.0   90.0   33.333333333333336
-50.0   120.0   33.333333333333336
-50.0   120.0   0.0
0.0   120.0   0.0
-50.0   150.0   0.0
-50.0   120.0   16.666666666666668
0.0   120.0   0.0
0.0   150.0   0.0
-50.0   150.0   0.0
0.0   150.0   16.666666666666668
-50.0   120.0   16.666666666666668
-50.0   150.0   16.666666666666668
0.0   150.0   16.666666666666668
-50.0   150.0   0.0
-50.0   120.0   16.666666666666668
0.0   150.0   16.666666666666668
0.0   120.0   16.666666666666668
0.0   120.0   0.0
-50.0   120.0   16.666666666666668
0.0   150.0   16.666666666666668
0.0   120.0   0.0
-50.0   150.0   0.0
-50.0   120.0   16.666666666666668
0.0   120.0   16.666666666666668
-50.0   150.0   16.666666666666668
-50.0   120.0   33.333333333333336
0.0   120.0   16.666666666666668
0.0   150.0   16.666666666666668
-50.0   150.0   16.666666666666668
0.0   150.0   33.333333333333336
-50.0   120.0   33.333333333333336
-50.0   150.0   33.333333333333336
0.0   150.0   33.333333333333336
-50.0   150.0   16.666666666666668
-50.0   120.0   33.333333333333336
0.0   150.0   33.333333333333336
0.0   120.0   33.333333333333336
0.0   120.0   16.666666666666668
-50.0   120.0   33.333333333333336
0.0   150.0   33.333333333333336
0.0   120.0   16.666666666666668
-50.0   150.0   16.666666666666668
-50.0   120.0   33.333333333333336
0.0   120.0   33.333333333333336
-50.0   150.0   33.333333333333336
-50.0   120.0   50.0
0.0   120.0   33.333333333333336
0.0   150.0   33.333333333333336
-50.0   150.0   33.333333333333336
0.0   150.0   50.0
-50.0   120.0   50.0
-50.0   150.0   50.0
0.0   150.0   50.0
-50.0   150.0   33.333333333333336
-50.0   120.0   50.0
0.0   150.0   50.0
0.0   120.0   50.0
0.0   120.0   33.333333333333336
-50.0   120.0   50.0
0.0   150.0   50.0
0.0   120.0   33.333333333333336
-50.0   150.0   33.333333333333336
0.0   0.0   0.0
50.0   0.0   0.0
0.0   30.0   0.0
0.0   0.0   16.666666666666668
50.0   0.0   0.0
50.0   30.0   0.0
0.0   30.0   0.0
50.0   30.0   16.666666666666668
0.0   0.0   16.666666666666668
0.0   30.0   16.666666666666668
50.0   30.0   16.666666666666668
0.0   30.0   0.0
0.0   0.0   16.666666666666668
50.0   30.0   16.666666666666668
50.0   0.0   16.666666666666668
50.0   0.0   0.0
0.0   0.0   16.666666666666668
50.0   30.0   16.666666666666668
50.0   0.0   0.0
0.0   30.0   0.0
0.0   0.0   16.666666666666668
50.0   0.0   16.666666666666668
0.0   30.0   16.666666666666668
0.0   0.0   33.333333333333336
50.0   0.0   16.666666666666668
50.0   30.0   16.666666666666668
0.0   30.0   16.666666666666668
50.0   30.0   33.333333333333336
0.0   0.0   33.333333333333336
0.0   30.0   33.333333333333336
50.0   30.0   33.333333333333336
0.0   30.0   16.666666666666668
0.0   0.0   33.333333333333336
50.0   30.0   33.333333333333336
50.0   0.0   33.333333333333336
50.0   0.0   16.666666666666668
0.0   0.0   33.333333333333336
50.0   30.0   33.333333333333336
50.0   0.0   16.666666666666668
0.0   30.0   16.666666666666668
0.0   0.0   33.333333333333336
50.0   0.0   33.333333333333336
0.0   30.0   33.333333333333336
0.0   0.0   50.0
50.0   0.0   33.333333333333336
50.0   30.0   33.333333333333336
0.0   30.0   33.333333333333336
50.0   30.0   50.0
0.0   0.0   50.0
0.0   30.0   50.0
50.0   30.0   50.0
0.0   30.0   33.333333333333336
0.0   0.0   50.0
50.0   30.0   50.0
50.0   0.0   50.0
50.0   0.0   33.333333333333336
0.0   0.0   50.0
50.0   30.0   50.0
50.0   0.0   33.333333333333336
0.0   30.0   33.333333333333336
0.0   30.0   0.0
50.0   30.0   0.0
0.0   60.0   0.0
0.0   30.0   16.666666666666668
50.0   30.0   0.0
50.0   60.0   0.0
0.0   60.0   0.0
50.0   60.0   16.666666666666668
0.0   30.0   16.666666666666668
0.0   60.0   16.666666666666668
50.0   60.0   16.666666666666668
0.0   60.0   0.0
0.0   30.0   16.666666666666668
50.0   60.0   16.666666666666668
50.0   30.0   16.666666666666668
50.0   30.0   0.0
0.0   30.0   16.666666666666668
50.0   60.0   16.666666666666668
50.0   30.0   0.0
0.0   60.0   0.0
0.0   30.0   16.666666666666668
50.0   30.0   16.666666666666668
0.0   60.0   16.666666666666668
0.0   30.0   33.333333333333336
50.0   30.0   16.666666666666668
50.0   60.0   16.666666666666668
0.0   60.0   16.666666666666668
50.0   60.0   33.333333333333336
0.0   30.0   33.333333333333336
0.0   60.0   33.333333333333336
50.0   60.0   33.333333333333336
0.0   60.0   16.666666666666668
0.0   30.0   33.333333333333336
50.0   60.0   33.333333333333336
50.0   30.0   33.333333333333336
50.0   30.0   16.666666666666668
0.0   30.0   33.333333333333336
50.0   60.0   33.333333333333336
50.0   30.0   16.666666666666668
0.0   60.0   16.666666666666668
0.0   30.0   33.333333333333336
50.0   30.0   33.333333333333336
0.0   60.0   33.333333333333336
0.0   30.0   50.0
50.0   30.0   33.333333333333336
50.0   60.0   33.333333333333336
0.0   60.0   33.333333333333336
50.0   60.0   50.0
0.0   30.0   50.0
0.0   60.0   50.0
50.0   60.0   50.0
0.0   60.0   33.333333333333336
0.0   30.0   50.0
50.0   60.0   50.0
50.0   30.0   50.0
50.0   30.0   33.333333333333336
0.0   30.0   50.0
50.0   60.0   50.0
50.0   30.0   33.333333333333336
0.0   60.0   33.333333333333336
0.0   60.0   0.0
50.0   60.0   0.0
0.0   90.0   0.0
0.0   60.0   16.666666666666668
50.0   60.0   0.0
50.0   90.0   0.0
0.0   90.0   0.0
50.0   90.0   16.666666666666668
0.0   60.0   16.666666666666668
0.0   90.0   16.666666666666668
50.0   90.0   16.666666666666668
0.0   90.0   0.0
0.0   60.0   16.666666666666668
50.0   90.0   16.666666666666668
50.0   60.0   16.666666666666668
50.0   60.0   0.0
0.0   60.0   16.666666666666668
50.0   90.0   16.666666666666668
50.0   60.0   0.0
0.0   90.0   0.0
0.0   60.0   16.666666666666668
50.0   60.0   16.666666666666668
0.0   90.0   16.666666666666668
0.0   60.0   33.333333333333336
50.0   60.0   16.666666666666668
50.0   90.0   16.666666666666668
0.0   90.0   16.666666666666668
50.0   90.0   33.333333333333336
0.0   60.0   33.333333333333336
0.0   90.0   33.333333333333336
50.0   90.0   33.333333333333336
0.0   90.0   16.666666666666668
0.0   60.0   33.333333333333336
50.0   90.0   33.333333333333336
50.0   60.0   33.333333333333336
50.0   60.0   16.666666666666668
0.0   60.0   33.333333333333336
50.0   90.0   33.333333333333336
50.0   60.0   16.666666666666668
0.0   90.0   16.666666666666668
0.0   60.0   33.333333333333336
50.0   60.0   33.333333333333336
0.0   90.0   33.333333333333336
0.0   60.0   50.0
50.0   60.0   33.333333333333336
50.0   90.0   33.333333333333336
0.0   90.0   33.333333333333336
50.0   90.0   50.0
0.0   60.0   50.0
0.0   90.0   50.0
50.0   90.0   50.0
0.0   90.0   33.333333333333336
0.0   60.0   50.0
50.0   90.0   50.0
50.0   60.0   50.0
50.0   60.0   33.333333333333336
0.0   60.0   50.0
50.0   90.0   50.0
50.0   60.0   33.333333333333336
0.0   90.0   33.333333333333336
0.0   90.0   0.0
50.0   90.0   0.0
0.0   120.0   0.0
0.0   90.0   16.666666666666668
50.0   90.0   0.0
50.0   120.0   0.0
0.0   120.0   0.0
50.0   120.0   16.666666666666668
0.0   90.0   16.666666666666668
0.0   120.0   16.666666666666668
50.0   120.0   16.666666666666668
0.0   120.0   0.0
0.0   90.0   16.666666666666668
50.0   120.0   16.666666666666668
50.0   90.0   16.666666666666668
50.0   90.0   0.0
0.0   90.0   16.666666666666668
50.0   120.0   16.666666666666668
50.0   90.0   0.0
0.0   120.0   0.0
0.0   90.0   16.666666666666668
50.0   90.0   16.666666666666668
0.0   120.0   16.666666666666668
0.0   90.0   33.333333333333336
50.0   90.0   16.666666666666668
50.0   120.0   16.666666666666668
0.0   120.0   16.666666666666668
50.0   120.0   33.333333333333336
0.0   90.0   33.333333333333336
0.0   120.0   33.333333333333336
50.0   120.0   33.333333333333336
0.0   120.0   16.666666666666668
0.0   90.0   33.333333333333336
50.0   120.0   33.333333333333336
50.0   90.0   33.333333333333336
50.0   90.0   16.666666666666668
0.0   90.0   33.333333333333336
50.0   120.0   33.333333333333336
50.0   90.0   16.666666666666668
0.0   120.0   16.666666666666668
0.0   90.0   33.333333333333336
50.0   90.0   33.333333333333336
0.0   120.0   33.333333333333336
0.0   90.0   50.0
50.0   90.0   33.333333333333336
50.0   120.0   33.333333333333336
0.0   120.0   33.333333333333336
50.0   120.0   50.0
0.0   90.0   50.0
0.0   120.0   50.0
50.0   120.0   50.0
0.0   120.0   33.333333333333336
0.0   90.0   50.0
50.0   120.0   50.0
50.0   90.0   50.0
50.0   90.0   33.333333333333336
0.0   90.0   50.0
50.0   120.0   50.0
50.0   90.0   33.333333333333336
0.0   120.0   33.333333333333336
0.0   120.0   0.0
50.0   120.0   0.0
0.0   150.0   0.0
0.0   120.0   16.666666666666668
50.0   120.0   0.0
50.0   150.0   0.0
0.0   150.0   0.0
50.0   150.0   16.666666666666668
0.0   120.0   16.666666666666668
0.0   150.0   16.666666666666668
50.0   150.0   16.666666666666668
0.0   150.0   0.0
0.0   120.0   16.666666666666668
50.0   150.0   16.666666666666668
50.0   120.0   16.666666666666668
50.0   120.0   0.0
0.0   120.0   16.666666666666668
50.0   150.0   16.666666666666668
50.0   120.0   0.0
0.0   150.0   0.0
0.0   120.0   16.666666666666668
50.0   120.0   16.666666666666668
0.0   150.0   16.666666666666668
0.0   120.0   33.333333333333336
50.0   120.0   16.666666666666668
50.0   150.0   16.666666666666668
0.0   150.0   16.666666666666668
50.0   150.0   33.333333333333336
0.0   120.0   33.333333333333336
0.0   150.0   33.333333333333336
50.0   150.0   33.333333333333336
0.0   150.0   16.666666666666668
0.0   120.0   33.333333333333336
50.0   150.0   33.333333333333336
50.0   120.0   33.333333333333336
50.0   120.0   16.666666666666668
0.0   120.0   33.333333333333336
50.0   150.0   33.333333333333336
50.0   120.0   16.666666666666668
0.0   150.0   16.666666666666668
0.0   120.0   33.333333333333336
50.0   120.0   33.333333333333336
0.0   150.0   33.333333333333336
0.0   120.0   50.0
50.0   120.0   33.333333333333336
50.0   150.0   33.333333333333336
0.0   150.0   33.333333333333336
50.0   150.0   50.0
0.0   120.0   50.0
0.0   150.0   50.0
50.0   150.0   50.0
0.0   150.0   33.333333333333336
0.0   120.0   50.0
50.0   150.0   50.0
50.0   120.0   50.0
50.0   120.0   33.333333333333336
0.0   120.0   50.0
50.0   150.0   50.0
50.0   120.0   33.333333333333336
0.0   150.0   33.333333333333336
50.0   0.0   0.0
100.0   0.0   0.0
50.0   30.0   0.0
50.0   0.0   16.666666666666668
100.0   0.0   0.0
100.0   30.0   0.0
50.0   30.0   0.0
100.0   30.0   16.666666666666668
50.0   0.0   16.666666666666668
50.0   30.0   16.666666666666668
100.0   30.0   16.666666666666668
50.0   30.0   0.0
50.0   0.0   16.666666666666668
100.0   30.0   16.666666666666668
100.0   0.0   16.666666666666668
100.0   0.0   0.0
50.0   0.0   16.666666666666668
100.0   30.0   16.666666666666668
100.0   0.0   0.0
50.0   30.0   0.0
50.0   0.0   16.666666666666668
100.0   0.0   16.666666666666668
50.0   30.0   16.666666666666668
50.0   0.0   33.333333333333336
100.0   0.0   16.666666666666668
100.0   30.0   16.666666666666668
50.0   30.0   16.666666666666668
100.0   30.0   33.333333333333336
50.0   0.0   33.333333333333336
50.0   30.0   33.333333333333336
100.0   30.0   33.333333333333336
50.0   30.0   16.666666666666668
50.0   0.0   33.333333333333336
100.0   30.0   33.333333333333336
100.0   0.0   33.333333333333336
100.0   0.0   16.666666666666668
50.0   0.0   33.333333333333336
100.0   30.0   33.333333333333336
100.0   0.0   16.666666666666668
50.0   30.0   16.666666666666668
50.0   0.0   33.333333333333336
100.0   0.0   33.333333333333336
50.0   30.0   33.333333333333336
50.0   0.0   50.0
100.0   0.0   33.333333333333336
100.0   30.0   33.333333333333336
50.0   30.0   33.333333333333336
100.0   30.0   50.0
50.0   0.0   50.0
50.0   30.0   50.0
100.0   30.0   50.0
50.0   30.0   33.333333333333336
50.0   0.0   50.0
100.0   30.0   50.0
100.0   0.0   50.0
100.0   0.0   33.333333333333336
50.0   0.0   50.0
100.0   30.0   50.0
100.0   0.0   33.333333333333336
50.0   30.0   33.333333333333336
50.0   30.0   0.0
100.0   30.0   0.0
50.0   60.0   0.0
50.0   30.0   16.666666666666668
100.0   30.0   0.0
100.0   60.0   0.0
50.0   60.0   0.0
100.0   60.0   16.666666666666668
50.0   30.0   16.666666666666668
50.0   60.0   16.666666666666668
100.0   60.0   16.666666666666668
50.0   60.0   0.0
50.0   30.0   16.666666666666668
100.0   60.0   16.666666666666668
100.0   30.0   16.666666666666668
100.0   30.0   0.0
50.0   30.0   16.666666666666668
100.0   60.0   16.666666666666668
100.0   30.0   0.0
50.0   60.0   0.0
50.0   30.0   16.666666666666668
100.0   30.0   16.666666666666668
50.0   60.0   16.666666666666668
50.0   30.0   33.333333333333336
100.0   30.0   16.666666666666668
100.0   60.0   16.666666666666668
50.0   60.0   16.666666666666668
100.0   60.0   33.333333333333336
50.0   30.0   33.333333333333336
50.0   60.0   33.333333333333336
100.0   60.0   33.333333333333336
50.0   60.0   16.666666666666668
50.0   30.0   33.333333333333336
100.0   60.0   33.333333333333336
100.0   30.0   33.333333333333336
100.0   30.0   16.666666666666668
50.0   30.0   33.333333333333336
100.0   60.0   33.333333333333336
100.0   30.0   16.666666666666668
50.0   60.0   16.666666666666668
50.0   30.0   33.333333333333336
100.0   30.0   33.333333333333336
50.0   60.0   33.333333333333336
50.0   30.0   50.0
100.0   30.0   33.333333333333336
100.0   60.0   33.333333333333336
50.0   60.0   33.333333333333336
100.0   60.0   50.0
50.0   30.0   50.0
50.0   60.0   50.0
100.0   60.0   50.0
50.0   60.0   33.333333333333336
50.0   30.0   50.0
100.0   60.0   50.0
100.0   30.0   50.0
100.0   30.0   33.333333333333336
50.0   30.0   50.0
100.0   60.0   50.0
100.0   30.0   33.333333333333336
50.0   60.0   33.333333333333336
50.0   60.0   0.0
100.0   60.0   0.0
50.0   90.0   0.0
50.0   60.0   16.666666666666668
100.0   60.0   0.0
100.0   90.0   0.0
50.0   90.0   0.0
100.0   90.0   16.666666666666668
50.0   60.0   16.666666666666668
50.0   90.0   16.666666666666668
100.0   90.0   16.666666666666668
50.0   90.0   0.0
50.0   60.0   16.666666666666668
100.0   90.0   16.666666666666668
100.0   60.0   16.666666666666668
100.0   60.0   0.0
50.0   60.0   16.666666666666668
100.0   90.0   16.666666666666668
100.0   60.0   0.0
50.0   90.0   0.0
50.0   60.0   16.666666666666668
100.0   60.0   16.666666666666668
50.0   90.0   16.666666666666668
50.0   60.0   33.333333333333336
100.0   60.0   16.666666666666668
100.0   90.0   16.666666666666668
50.0   90.0   16.666666666666668
100.0   90.0   33.333333333333336
50.0   60.0   33.333333333333336
50.0   90.0   33.333333333333336
100.0   90.0   33.333333333333336
50.0   90.0   16.666666666666668
50.0   60.0   33.333333333333336
100.0   90.0   33.333333333333336
100.0   60.0   33.333333333333336
100.0   60.0   16.666666666666668
50.0   60.0   33.333333333333336
100.0   90.0   33.333333333333336
100.0   60.0   16.666666666666668
50.0   90.0   16.666666666666668
50.0   60.0   33.333333333333336
100.0   60.0   33.333333333333336
50.0   90.0   33.333333333333336
50.0   60.0   50.0
100.0   60.0   33.333333333333336
100.0   90.0   33.333333333333336
50.0   90.0   33.333333333333336
100.0   90.0   50.0
50.0   60.0   50.0
50.0   90.0   50.0
100.0   90.0   50.0
50.0   90.0   33.333333333333336
50.0   60.0   50.0
100.0   90.0   50.0
100.0   60.0   50.0
100.0   60.0   33.333333333333336
50.0   60.0   50.0
100.0   90.0   50.0
100.0   60.0   33.333333333333336
50.0   90.0   33.333333333333336
50.0   90.0   0.0
100.0   90.0   0.0
50.0   120.0   0.0
50.0   90.0   16.666666666666668
100.0   90.0   0.0
100.0   120.0   0.0
50.0   120.0   0.0
100.0   120.0   16.666666666666668
50.0   90.0   16.666666666666668
50.0   120.0   16.666666666666668
100.0   120.0   16.666666666666668
50.0   120.0   0.0
50.0   90.0   16.666666666666668
100.0   120.0   16.666666666666668
100.0   90.0   16.666666666666668
100.0   90.0   0.0
50.0   90.0   16.666666666666668
100.0   120.0   16.666666666666668
100.0   90.0   0.0
50.0   120.0   0.0
50.0   90.0   16.666666666666668
100.0   90.0   16.666666666666668
50.0   120.0   16.666666666666668
50.0   90.0   33.333333333333336
100.0   90.0   16.666666666666668
100.0   120.0   16.666666666666668
50.0   120.0   16.666666666666668
100.0   120.0   33.333333333333336
50.0   90.0   33.333333333333336
50.0   120.0   33.333333333333336
100.0   120.0   33.333333333333336
50.0   120.0   16.666666666666668
50.0   90.0   33.333333333333336
100.0   120.0   33.333333333333336
100.0   90.0   33.333333333333336
100.0   90.0   16.666666666666668
50.0   90.0   33.333333333333336
100.0   120.0   33.333333333333336
100.0   90.0   16.666666666666668
50.0   120.0   16.666666666666668
50.0   90.0   33.333333333333336
100.0   90.0   33.333333333333336
50.0   120.0   33.333333333333336
50.0   90.0   50.0
100.0   90.0   33.333333333333336
100.0   120.0   33.333333333333336
50.0   120.0   33.333333333333336
100.0   120.0   50.0
50.0   90.0   50.0
50.0   120.0   50.0
100.0   120.0   50.0
50.0   120.0   33.333333333333336
50.0   90.0   50.0
100.0   120.0   50.0
100.0   90.0   50.0
100.0   90.0   33.333333333333336
50.0   90.0   50.0
100.0   120.0   50.0
100.0   90.0   33.333333333333336
50.0   120.0   33.333333333333336
50.0   120.0   0.0
100.0   120.0   0.0
50.0   150.0   0.0
50.0   120.0   16.666666666666668
100.0   120.0   0.0
100.0   150.0   0.0
50.0   150.0   0.0
100.0   150.0   16.666666666666668
50.0   120.0   16.666666666666668
50.0   150.0   16.666666666666668
100.0   150.0   16.666666666666668
50.0   150.0   0.0
50.0   120.0   16.666666666666668
100.0   150.0   16.666666666666668
100.0   120.0   16.666666666666668
100.0   120.0   0.0
50.0   120.0   16.666666666666668
100.0   150.0   16.666666666666668
100.0   120.0   0.0
50.0   150.0   0.0
50.0   120.0   16.666666666666668
100.0   120.0   16.666666666666668
50.0   150.0   16.666666666666668
50.0   120.0   33.333333333333336
100.0   120.0   16.666666666666668
100.0   150.0   16.666666666666668
50.0   150.0   16.666666666666668
100.0   150.0   33.333333333333336
50.0   120.0   33.333333333333336
50.0   150.0   33.333333333333336
100.0   150.0   33.333333333333336
50.0   150.0   16.666666666666668
50.0   120.0   33.333333333333336
100.0   150.0   33.333333333333336
100.0   120.0   33.333333333333336
100.0   120.0   16.666666666666668
50.0   120.0   33.333333333333336
100.0   150.0   33.333333333333336
100.0   120.0   16.666666666666668
50.0   150.0   16.666666666666668
50.0   120.0   33.333333333333336
100.0   120.0   33.333333333333336
50.0   150.0   33.333333333333336
50.0   120.0   50.0
100.0   120.0   33.333333333333336
100.0   150.0   33.333333333333336
50.0   150.0   33.333333333333336
100.0   150.0   50.0
50.0   120.0   50.0
50.0   150.0   50.0
100.0   150.0   50.0
50.0   150.0   33.333333333333336
50.0   120.0   50.0
100.0   150.0   50.0
100.0   120.0   50.0
100.0   120.0   33.333333333333336
50.0   120.0   50.0
100.0   150.0   50.0
100.0   120.0   33.333333333333336
50.0   150.0   33.333333333333336
100.0   0.0   0.0
150.0   0.0   0.0
100.0   30.0   0.0
100.0   0.0   16.666666666666668
150.0   0.0   0.0
150.0   30.0   0.0
100.0   30.0   0.0
150.0   30.0   16.666666666666668
100.0   0.0   16.666666666666668
100.0   30.0   16.666666666666668
150.0   30.0   16.666666666666668
100.0   30.0   0.0
100.0   0.0   16.666666666666668
150.0   30.0   16.666666666666668
150.0   0.0   16.666666666666668
150.0   0.0   0.0
100.0   0.0   16.666666666666668
150.0   30.0   16.666666666666668
150.0   0.0   0.0
100.0   30.0   0.0
100.0   0.0   16.666666666666668
150.0   0.0   16.666666666666668
100.0   30.0   16.666666666666668
100.0   0.0   33.333333333333336
150.0   0.0   16.666666666666668
150.0   30.0   16.666666666666668
100.0   30.0   16.666666666666668
150.0   30.0   33.333333333333336
100.0   0.0   33.333333333333336
100.0   30.0   33.333333333333336
150.0   30.0   33.333333333333336
100.0   30.0   16.666666666666668
100.0   0.0   33.333333333333336
150.0   30.0   33.333333333333336
150.0   0.0   33.333333333333336
150.0   0.0   16.666666666666668
100.0   0.0   33.333333333333336
150.0   30.0   33.333333333333336
150.0   0.0   16.666666666666668
100.0   30.0   16.666666666666668
100.0   0.0   33.333333333333336
150.0   0.0   33.333333333333336
100.0   30.0   33.333333333333336
100.0   0.0   50.0
150.0   0.0   33.333333333333336
150.0   30.0   33.333333333333336
100.0   30.0   33.333333333333336
150.0   30.0   50.0
100.0   0.0   50.0
100.0   30.0   50.0
150.0   30.0   50.0
100.0   30.0   33.333333333333336
100.0   0.0   50.0
150.0   30.0   50.0
150.0   0.0   50.0
150.0   0.0   33.333333333333336
100.0   0.0   50.0
150.0   30.0   50.0
150.0   0.0   33.333333333333336
100.0   30.0   33.333333333333336
100.0   30.0   0.0
150.0   30.0   0.0
100.0   60.0   0.0
100.0   30.0   16.666666666666668
150.0   30.0   0.0
150.0   60.0   0.0
100.0   60.0   0.0
150.0   60.0   16.666666666666668
100.0   30.0   16.666666666666668
100.0   60.0   16.666666666666668
150.0   60.0   16.666666666666668
100.0   60.0   0.0
100.0   30.0   16.666666666666668
150.0   60.0   16.666666666666668
150.0   30.0   16.666666666666668
150.0   30.0   0.0
100.0   30.0   16.666666666666668
150.0   60.0   16.666666666666668
150.0   30.0   0.0
100.0   60.0   0.0
100.0   30.0   16.666666666666668
150.0   30.0   16.666666666666668
100.0   60.0   16.666666666666668
100.0   30.0   33.333333333333336
150.0   30.0   16.666666666666668
150.0   60.0   16.666666666666668
100.0   60.0   16.666666666666668
150.0   60.0   33.333333333333336
100.0   30.0   33.333333333333336
100.0   60.0   33.333333333333336
150.0   60.0   33.333333333333336
100.0   60.0   16.666666666666668
100.0   30.0   33.333333333333336
150.0   60.0   33.333333333333336
150.0   30.0   33.333333333333336
150.0   30.0   16.666666666666668
100.0   30.0   33.333333333333336
150.0   60.0   33.333333333333336
150.0   30.0   16.666666666666668
100.0   60.0   16.666666666666668
100.0   30.0   33.333333333333336
150.0   30.0   33.333333333333336
100.0   60.0   33.333333333333336
100.0   30.0   50.0
150.0   30.0   33.333333333333336
150.0   60.0   33.333333333333336
100.0   60.0   33.333333333333336
150.0   60.0   50.0
100.0   30.0   50.0
100.0   60.0   50.0
150.0   60.0   50.0
100.0   60.0   33.333333333333336
100.0   30.0   50.0
150.0   60.0   50.0
150.0   30.0   50.0
150.0   30.0   33.333333333333336
100.0   30.0   50.0
150.0   60.0   50.0
150.0   30.0   33.333333333333336
100.0   60.0   33.333333333333336
100.0   60.0   0.0
150.0   60.0   0.0
100.0   90.0   0.0
100.0   60.0   16.666666666666668
150.0   60.0   0.0
150.0   90.0   0.0
100.0   90.0   0.0
150.0   90.0   16.666666666666668
100.0   60.0   16.666666666666668
100.0   90.0   16.666666666666668
150.0   90.0   16.666666666666668
100.0   90.0   0.0
100.0   60.0   16.666666666666668
150.0   90.0   16.666666666666668
150.0   60.0   16.666666666666668
150.0   60.0   0.0
100.0   60.0   16.666666666666668
150.0   90.0   16.666666666666668
150.0   60.0   0.0
100.0   90.0   0.0
100.0   60.0   16.666666666666668
150.0   60.0   16.666666666666668
100.0   90.0   16.666666666666668
100.0   60.0   33.333333333333336
150.0   60.0   16.666666666666668
150.0   90.0   16.666666666666668
100.0   90.0   16.666666666666668
150.0   90.0   33.333333333333336
100.0   60.0   33.333333333333336
100.0   90.0   33.333333333333336
150.0   90.0   33.333333333333336
100.0   90.0   16.666666666666668
100.0   60.0   33.333333333333336
150.0   90.0   33.333333333333336
150.0   60.0   33.333333333333336
150.0   60.0   16.666666666666668
100.0   60.0   33.333333333333336
150.0   90.0   33.333333333333336
150.0   60.0   16.666666666666668
100.0   90.0   16.666666666666668
100.0   60.0   33.333333333333336
150.0   60.0   33.333333333333336
100.0   90.0   33.333333333333336
100.0   60.0   50.0
150.0   60.0   33.333333333333336
150.0   90.0   33.333333333333336
100.0   90.0   33.333333333333336
150.0   90.0   50.0
100.0   60.0   50.0
100.0   90.0   50.0
150.0   90.0   50.0
100.0   90.0   33.333333333333336
100.0   60.0   50.0
150.0   90.0   50.0
150.0   60.0   50.0
150.0   60.0   33.333333333333336
100.0   60.0   50.0
150.0   90.0   50.0
150.0   60.0   33.333333333333336
100.0   90.0   33.333333333333336
100.0   90.0   0.0
150.0   90.0   0.0
100.0   120.0   0.0
100.0   90.0   16.666666666666668
150.0   90.0   0.0
150.0   120.0   0.0
100.0   120.0   0.0
150.0   120.0   16.666666666666668
100.0   90.0   16.666666666666668
100.0   120.0   16.666666666666668
150.0   120.0   16.666666666666668
100.0   120.0   0.0
100.0   90.0   16.666666666666668
150.0   120.0   16.666666666666668
150.0   90.0   16.666666666666668
150.0   90.0   0.0
100.0   90.0   16.666666666666668
150.0   120.0   16.666666666666668
150.0   90.0   0.0
100.0   120.0   0.0
100.0   90.0   16.666666666666668
150.0   90.0   16.666666666666668
100.0   120.0   16.666666666666668
100.0   90.0   33.333333333333336
150.0   90.0   16.666666666666668
150.0   120.0   16.666666666666668
100.0   120.0   16.666666666666668
150.0   120.0   33.333333333333336
100.0   90.0   33.333333333333336
100.0   120.0   33.333333333333336
150.0   120.0   33.333333333333336
100.0   120.0   16.666666666666668
100.0   90.0   33.333333333333336
150.0   120.0   33.333333333333336
150.0   90.0   33.333333333333336
150.0   90.0   16.666666666666668
100.0   90.0   33.333333333333336
150.0   120.0   33.333333333333336
150.0   90.0   16.666666666666668
100.0   120.0   16.666666666666668
100.0   90.0   33.333333333333336
150.0   90.0   33.333333333333336
100.0   120.0   33.333333333333336
100.0   90.0   50.0
150.0   90.0   33.333333333333336
150.0   120.0   33.333333333333336
100.0   120.0   33.333333333333336
150.0   120.0   50.0
100.0   90.0   50.0
100.0   120.0   50.0
150.0   120.0   50.0
100.0   120.0   33.333333333333336
100.0   90.0   50.0
150.0   120.0   50.0
150.0   90.0   50.0
150.0   90.0   33.333333333333336
100.0   90.0   50.0
150.0   120.0   50.0
150.0   90.0   33.333333333333336
100.0   120.0   33.333333333333336
100.0   120.0   0.0
150.0   120.0   0.0
100.0   150.0   0.0
100.0   120.0   16.666666666666668
150.0   120.0   0.0
150.0   150.0   0.0
100.0   150.0   0.0
150.0   150.0   16.666666666666668
100.0   120.0   16.666666666666668
100.0   150.0   16.666666666666668
150.0   150.0   16.666666666666668
100.0   150.0   0.0
100.0   120.0   16.666666666666668
150.0   150.0   16.666666666666668
150.0   120.0   16.666666666666668
150.0   120.0   0.0
100.0   120.0   16.666666666666668
150.0   150.0   16.666666666666668
150.0   120.0   0.0
100.0   150.0   0.0
100.0   120.0   16.666666666666668
150.0   120.0   16.666666666666668
100.0   150.0   16.666666666666668
100.0   120.0   33.333333333333336
150.0   120.0   16.666666666666668
150.0   150.0   16.666666666666668
100.0   150.0   16.666666666666668
150.0   150.0   33.333333333333336
100.0   120.0   33.333333333333336
100.0   150.0   33.333333333333336
150.0   150.0   33.333333333333336
100.0   150.0   16.666666666666668
100.0   120.0   33.333333333333336
150.0   150.0   33.333333333333336
150.0   120.0   33.333333333333336
150.0   120.0   16.666666666666668
100.0   120.0   33.333333333333336
150.0   150.0   33.333333333333336
150.0   120.0   16.666666666666668
100.0   150.0   16.666666666666668
100.0   120.0   33.333333333333336
150.0   120.0   33.333333333333336
100.0   150.0   33.333333333333336
100.0   120.0   50.0
150.0   120.0   33.333333333333336
150.0   150.0   33.333333333333336
100.0   150.0   33.333333333333336
150.0   150.0   50.0
100.0   120.0   50.0
100.0   150.0   50.0
150.0   150.0   50.0
100.0   150.0   33.333333333333336
100.0   120.0   50.0
150.0   150.0   50.0
150.0   120.0   50.0
150.0   120.0   33.333333333333336
100.0   120.0   50.0
150.0   150.0   50.0
150.0   120.0   33.333333333333336
100.0   150.0   33.333333333333336
150.0   0.0   0.0
200.0   0.0   0.0
150.0   30.0   0.0
150.0   0.0   16.666666666666668
200.0   0.0   0.0
200.0   30.0   0.0
150.0   30.0   0.0
200.0   30.0   16.666666666666668
150.0   0.0   16.666666666666668
150.0   30.0   16.666666666666668
200.0   30.0   16.666666666666668
150.0   30.0   0.0
150.0   0.0   16.666666666666668
200.0   30.0   16.666666666666668
200.0   0.0   16.666666666666668
200.0   0.0   0.0
150.0   0.0   16.666666666666668
200.0   30.0   16.666666666666668
200.0   0.0   0.0
150.0   30.0   0.0
150.0   0.0   16.666666666666668
200.0   0.0   16.666666666666668
150.0   30.0   16.666666666666668
150.0   0.0   33.333333333333336
200.0   0.0   16.666666666666668
200.0   30.0   16.666666666666668
150.0   30.0   16.666666666666668
200.0   30.0   33.333333333333336
150.0   0.0   33.333333333333336
150.0   30.0   33.333333333333336
200.0   30.0   33.333333333333336
150.0   30.0   16.666666666666668
150.0   0.0   33.333333333333336
200.0   30.0   33.333333333333336
200.0   0.0   33.333333333333336
200.0   0.0   16.666666666666668
150.0   0.0   33.333333333333336
200.0   30.0   33.333333333333336
200.0   0.0   16.666666666666668
150.0   30.0   16.666666666666668
150.0   0.0   33.333333333333336
200.0   0.0   33.333333333333336
150.0   30.0   33.333333333333336
150.0   0.0   50.0
200.0   0.0   33.333333333333336
200.0   30.0   33.333333333333336
150.0   30.0   33.333333333333336
200.0   30.0   50.0
150.0   0.0   50.0
150.0   30.0   50.0
200.0   30.0   50.0
150.0   30.0   33.333333333333336
150.0   0.0   50.0
200.0   30.0   50.0
200.0   0.0   50.0
200.0   0.0   33.333333333333336
150.0   0.0   50.0
200.0   30.0   50.0
200.0   0.0   33.333333333333336
150.0   30.0   33.333333333333336
150.0   30.0   0.0
200.0   30.0   0.0
150.0   60.0   0.0
150.0   30.0   16.666666666666668
200.0   30.0   0.0
200.0   60.0   0.0
150.0   60.0   0.0
200.0   60.0   16.666666666666668
150.0   30.0   16.666666666666668
150.0   60.0   16.666666666666668
200.0   60.0   16.666666666666668
150.0   60.0   0.0
150.0   30.0   16.666666666666668
200.0   60.0   16.666666666666668
200.0   30.0   16.666666666666668
200.0   30.0   0.0
150.0   30.0   16.666666666666668
200.0   60.0   16.666666666666668
200.0   30.0   0.0
150.0   60.0   0.0
150.0   30.0   16.666666666666668
200.0   30.0   16.666666666666668
150.0   60.0   16.666666666666668
150.0   30.0   33.333333333333336
200.0   30.0   16.666666666666668
200.0   60.0   16.666666666666668
150.0   60.0   16.666666666666668
200.0   60.0   33.333333333333336
150.0   30.0   33.333333333333336
150.0   60.0   33.333333333333336
200.0   60.0   33.333333333333336
150.0   60.0   16.666666666666668
150.0   30.0   33.333333333333336
200.0   60.0   33.333333333333336
200.0   30.0   33.333333333333336
200.0   30.0   16.666666666666668
150.0   30.0   33.333333333333336
200.0   60.0   33.333333333333336
200.0   30.0   16.666666666666668
150.0   60.0   16.666666666666668
150.0   30.0   33.333333333333336
200.0   30.0   33.333333333333336
150.0   60.0   33.333333333333336
150.0   30.0   50.0
200.0   30.0   33.333333333333336
200.0   60.0   33.333333333333336
150.0   60.0   33.333333333333336
200.0   60.0   50.0
150.0   30.0   50.0
150.0   60.0   50.0
200.0   60.0   50.0
150.0   60.0   33.333333333333336
150.0   30.0   50.0
200.0   60.0   50.0
200.0   30.0   50.0
200.0   30.0   33.333333333333336
150.0   30.0   50.0
200.0   60.0   50.0
200.0   30.0   33.333333333333336
150.0   60.0   33.333333333333336
150.0   60.0   0.0
200.0   60.0   0.0
150.0   90.0   0.0
150.0   60.0   16.666666666666668
200.0   60.0   0.0
200.0   90.0   0.0
150.0   90.0   0.0
200.0   90.0   16.666666666666668
150.0   60.0   16.666666666666668
150.0   90.0   16.666666666666668
200.0   90.0   16.666666666666668
150.0   90.0   0.0
150.0   60.0   16.666666666666668
200.0   90.0   16.666666666666668
200.0   60.0   16.666666666666668
200.0   60.0   0.0
150.0   60.0   16.666666666666668
200.0   90.0   16.666666666666668
200.0   60.0   0.0
150.0   90.0   0.0
150.0   60.0   16.666666666666668
200.0   60.0   16.666666666666668
150.0   90.0   16.666666666666668
150.0   60.0   33.333333333333336
200.0   60.0   16.666666666666668
200.0   90.0   16.666666666666668
150.0   90.0   16.666666666666668
200.0   90.0   33.333333333333336
150.0   60.0   33.333333333333336
150.0   90.0   33.333333333333336
200.0   90.0   33.333333333333336
150.0   90.0   16.666666666666668
150.0   60.0   33.333333333333336
200.0   90.0   33.333333333333336
200.0   60.0   33.333333333333336
200.0   60.0   16.666666666666668
150.0   60.0   33.333333333333336
200.0   90.0   33.333333333333336
200.0   60.0   16.666666666666668
150.0   90.0   16.666666666666668
150.0   60.0   33.333333333333336
200.0   60.0   33.333333333333336
150.0   90.0   33.333333333333336
150.0   60.0   50.0
200.0   60.0   33.333333333333336
200.0   90.0   33.333333333333336
150.0   90.0   33.333333333333336
200.0   90.0   50.0
150.0   60.0   50.0
150.0   90.0   50.0
200.0   90.0   50.0
150.0   90.0   33.333333333333336
150.0   60.0   50.0
200.0   90.0   50.0
200.0   60.0   50.0
200.0   60.0   33.333333333333336
150.0   60.0   50.0
200.0   90.0   50.0
200.0   60.0   33.333333333333336
150.0   90.0   33.333333333333336
150.0   90.0   0.0
200.0   90.0   0.0
150.0   120.0   0.0
150.0   90.0   16.666666666666668
200.0   90.0   0.0
200.0   120.0   0.0
150.0   120.0   0.0
200.0   120.0   16.666666666666668
150.0   90.0   16.666666666666668
150.0   120.0   16.666666666666668
200.0   120.0   16.666666666666668
150.0   120.0   0.0
150.0   90.0   16.666666666666668
200.0   120.0   16.666666666666668
200.0   90.0   16.666666666666668
200.0   90.0   0.0
150.0   90.0   16.666666666666668
200.0   120.0   16.666666666666668
200.0   90.0   0.0
150.0   120.0   0.0
150.0   90.0   16.666666666666668
200.0   90.0   16.666666666666668
150.0   120.0   16.666666666666668
150.0   90.0   33.333333333333336
200.0   90.0   16.666666666666668
200.0   120.0   16.666666666666668
150.0   120.0   16.666666666666668
200.0   120.0   33.333333333333336
150.0   90.0   33.333333333333336
150.0   120.0   33.333333333333336
200.0   120.0   33.333333333333336
150.0   120.0   16.666666666666668
150.0   90.0   33.333333333333336
200.0   120.0   33.333333333333336
200.0   90.0   33.333333333333336
200.0   90.0   16.666666666666668
150.0   90.0   33.333333333333336
200.0   120.0   33.333333333333336
200.0   90.0   16.666666666666668
150.0   120.0   16.666666666666668
150.0   90.0   33.333333333333336
200.0   90.0   33.333333333333336
150.0   120.0   33.333333333333336
150.0   90.0   50.0
200.0   90.0   33.333333333333336
200.0   120.0   33.333333333333336
150.0   120.0   33.333333333333336
200.0   120.0   50.0
150.0   90.0   50.0
150.0   120.0   50.0
200.0   120.0   50.0
150.0   120.0   33.333333333333336
150.0   90.0   50.0
200.0   120.0   50.0
200.0   90.0   50.0
200.0   90.0   33.333333333333336
150.0   90.0   50.0
200.0   120.0   50.0
200.0   90.0   33.333333333333336
150.0   120.0   33.333333333333336
150.0   120.0   0.0
200.0   120.0   0.0
150.0   150.0   0.0
150.0   120.0   16.666666666666668
200.0   120.0   0.0
200.0   150.0   0.0
150.0   150.0   0.0
200.0   150.0   16.666666666666668
150.0   120.0   16.666666666666668
150.0   150.0   16.666666666666668
200.0   150.0   16.666666666666668
150.0   150.0   0.0
150.0   120.0   16.666666666666668
200.0   150.0   16.666666666666668
200.0   120.0   16.666666666666668
200.0   120.0   0.0
150.0   120.0   16.666666666666668
200.0   150.0   16.666666666666668
200.0   120.0   0.0
150.0   150.0   0.0
150.0   120.0   16.666666666666668
200.0   120.0   16.666666666666668
150.0   150.0   16.666666666666668
150.0   120.0   33.333333333333336
200.0   120.0   16.666666666666668
200.0   150.0   16.666666666666668
150.0   150.0   16.666666666666668
200.0   150.0   33.333333333333336
150.0   120.0   33.333333333333336
150.0   150.0   33.333333333333336
200.0   150.0   33.333333333333336
150.0   150.0   16.666666666666668
150.0   120.0   33.333333333333336
200.0   150.0   33.333333333333336
200.0   120.0   33.333333333333336
200.0   120.0   16.666666666666668
150.0   120.0   33.333333333333336
200.0   150.0   33.333333333333336
200.0   120.0   16.666666666666668
150.0   150.0   16.666666666666668
150.0   120.0   33.333333333333336
200.0   120.0   33.333333333333336
150.0   150.0   33.333333333333336
150.0   120.0   50.0
200.0   120.0   33.333333333333336
200.0   150.0   33.333333333333336
150.0   150.0   33.333333333333336
200.0   150.0   50.0
150.0   120.0   50.0
150.0   150.0   50.0
200.0   150.0   50.0
150.0   150.0   33.333333333333336
150.0   120.0   50.0
200.0   150.0   50.0
200.0   120.0   50.0
200.0   120.0   33.333333333333336
150.0   120.0   50.0
200.0   150.0   50.0
200.0   120.0   33.333333333333336
150.0   150.0   33.333333333333336
200.0   0.0   0.0
250.0   0.0   0.0
200.0   30.0   0.0
200.0   0.0   16.666666666666668
250.0   0.0   0.0
250.0   30.0   0.0
200.0   30.0   0.0
250.0   30.0   16.666666666666668
200.0   0.0   16.666666666666668
200.0   30.0   16.666666666666668
250.0   30.0   16.666666666666668
200.0   30.0   0.0
200.0   0.0   16.666666666666668
250.0   30.0   16.666666666666668
250.0   0.0   16.666666666666668
250.0   0.0   0.0
200.0   0.0   16.666666666666668
250.0   30.0   16.666666666666668
250.0   0.0   0.0
200.0   30.0   0.0
200.0   0.0   16.666666666666668
250.0   0.0   16.666666666666668
200.0   30.0   16.666666666666668
200.0   0.0   33.333333333333336
250.0   0.0   16.666666666666668
250.0   30.0   16.666666666666668
200.0   30.0   16.666666666666668
250.0   30.0   33.333333333333336
200.0   0.0   33.333333333333336
200.0   30.0   33.333333333333336
250.0   30.0   33.333333333333336
200.0   30.0   16.666666666666668
200.0   0.0   33.333333333333336
250.0   30.0   33.333333333333336
250.0   0.0   33.333333333333336
250.0   0.0   16.666666666666668
200.0   0.0   33.333333333333336
250.0   30.0   33.333333333333336
250.0   0.0   16.666666666666668
200.0   30.0   16.666666666666668
200.0   0.0   33.333333333333336
250.0   0.0   33.333333333333336
200.0   30.0   33.333333333333336
200.0   0.0   50.0
250.0   0.0   33.333333333333336
250.0   30.0   33.333333333333336
200.0   30.0   33.333333333333336
250.0   30.0   50.0
200.0   0.0   50.0
200.0   30.0   50.0
250.0   30.0   50.0
200.0   30.0   33.333333333333336
200.0   0.0   50.0
250.0   30.0   50.0
250.0   0.0   50.0
250.0   0.0   33.333333333333336
200.0   0.0   50.0
250.0   30.0   50.0
250.0   0.0   33.333333333333336
200.0   30.0   33.333333333333336
200.0   30.0   0.0
250.0   30.0   0.0
200.0   60.0   0.0
200.0   30.0   16.666666666666668
250.0   30.0   0.0
250.0   60.0   0.0
200.0   60.0   0.0
250.0   60.0   16.666666666666668
200.0   30.0   16.666666666666668
200.0   60.0   16.666666666666668
250.0   60.0   16.666666666666668
200.0   60.0   0.0
200.0   30.0   16.666666666666668
250.0   60.0   16.666666666666668
250.0   30.0   16.666666666666668
250.0   30.0   0.0
200.0   30.0   16.666666666666668
250.0   60.0   16.666666666666668
250.0   30.0   0.0
200.0   60.0   0.0
200.0   30.0   16.666666666666668
250.0   30.0   16.666666666666668
200.0   60.0   16.666666666666668
200.0   30.0   33.333333333333336
250.0   30.0   16.666666666666668
250.0   60.0   16.666666666666668
200.0   60.0   16.666666666666668
250.0   60.0   33.333333333333336
200.0   30.0   33.333333333333336
200.0   60.0   33.333333333333336
250.0   60.0   33.333333333333336
200.0   60.0   16.666666666666668
200.0   30.0   33.333333333333336
250.0   60.0   33.333333333333336
250.0   30.0   33.333333333333336
250.0   30.0   16.666666666666668
200.0   30.0   33.333333333333336
250.0   60.0   33.333333333333336
250.0   30.0   16.666666666666668
200.0   60.0   16.666666666666668
200.0   30.0   33.333333333333336
250.0   30.0   33.333333333333336
200.0   60.0   33.333333333333336
200.0   30.0   50.0
250.0   30.0   33.333333333333336
250.0   60.0   33.333333333333336
200.0   60.0   33.333333333333336
250.0   60.0   50.0
200.0   30.0   50.0
200.0   60.0   50.0
250.0   60.0   50.0
200.0   60.0   33.333333333333336
200.0   30.0   50.0
250.0   60.0   50.0
250.0   30.0   50.0
250.0   30.0   33.333333333333336
200.0   30.0   50.0
250.0   60.0   50.0
250.0   30.0   33.333333333333336
200.0   60.0   33.333333333333336
200.0   60.0   0.0
250.0   60.0   0.0
200.0   90.0   0.0
200.0   60.0   16.666666666666668
250.0   60.0   0.0
250.0   90.0   0.0
200.0   90.0   0.0
250.0   90.0   16.666666666666668
200.0   60.0   16.666666666666668
200.0   90.0   16.666666666666668
250.0   90.0   16.666666666666668
200.0   90.0   0.0
200.0   60.0   16.666666666666668
250.0   90.0   16.666666666666668
250.0   60.0   16.666666666666668
250.0   60.0   0.0
200.0   60.0   16.666666666666668
250.0   90.0   16.666666666666668
250.0   60.0   0.0
200.0   90.0   0.0
200.0   60.0   16.666666666666668
250.0   60.0   16.666666666666668
200.0   90.0   16.666666666666668
200.0   60.0   33.333333333333336
250.0   60.0   16.666666666666668
250.0   90.0   16.666666666666668
200.0   90.0   16.666666666666668
250.0   90.0   33.333333333333336
200.0   60.0   33.333333333333336
200.0   90.0   33.333333333333336
250.0   90.0   33.333333333333336
200.0   90.0   16.666666666666668
200.0   60.0   33.333333333333336
250.0   90.0   33.333333333333336
250.0   60.0   33.333333333333336
250.0   60.0   16.666666666666668
200.0   60.0   33.333333333333336
250.0   90.0   33.333333333333336
250.0   60.0   16.666666666666668
200.0   90.0   16.666666666666668
200.0   60.0   33.333333333333336
250.0   60.0   33.333333333333336
200.0   90.0   33.333333333333336
200.0   60.0   50.0
250.0   60.0   33.333333333333336
250.0   90.0   33.333333333333336
200.0   90.0   33.333333333333336
250.0   90.0   50.0
200.0   60.0   50.0
200.0   90.0   50.0
250.0   90.0   50.0
200.0   90.0   33.333333333333336
200.0   60.0   50.0
250.0   90.0   50.0
250.0   60.0   50.0
250.0   60.0   33.333333333333336
200.0   60.0   50.0
250.0   90.0   50.0
250.0   60.0   33.333333333333336
200.0   90.0   33.333333333333336
200.0   90.0   0.0
250.0   90.0   0.0
200.0   120.0   0.0
200.0   90.0   16.666666666666668
250.0   90.0   0.0
250.0   120.0   0.0
200.0   120.0   0.0
250.0   120.0   16.666666666666668
200.0   90.0   16.666666666666668
200.0   120.0   16.666666666666668
250.0   120.0   16.666666666666668
200.0   120.0   0.0
200.0   90.0   16.666666666666668
250.0   120.0   16.666666666666668
250.0   90.0   16.666666666666668
250.0   90.0   0.0
200.0   90.0   16.666666666666668
250.0   120.0   16.666666666666668
250.0   90.0   0.0
200.0   120.0   0.0
200.0   90.0   16.666666666666668
250.0   90.0   16.666666666666668
200.0   120.0   16.666666666666668
200.0   90.0   33.333333333333336
250.0   90.0   16.666666666666668
250.0   120.0   16.666666666666668
200.0   120.0   16.666666666666668
250.0   120.0   33.333333333333336
200.0   90.0   33.333333333333336
200.0   120.0   33.333333333333336
250.0   120.0   33.333333333333336
200.0   120.0   16.666666666666668
200.0   90.0   33.333333333333336
250.0   120.0   33.333333333333336
250.0   90.0   33.333333333333336
250.0   90.0   16.666666666666668
200.0   90.0   33.333333333333336
250.0   120.0   33.333333333333336
250.0   90.0   16.666666666666668
200.0   120.0   16.666666666666668
200.0   90.0   33.333333333333336
250.0   90.0   33.333333333333336
200.0   120.0   33.333333333333336
200.0   90.0   50.0
250.0   90.0   33.333333333333336
250.0   120.0   33.333333333333336
200.0   120.0   33.333333333333336
250.0   120.0   50.0
200.0   90.0   50.0
200.0   120.0   50.0
250.0   120.0   50.0
200.0   120.0   33.333333333333336
200.0   90.0   50.0
250.0   120.0   50.0
250.0   90.0   50.0
250.0   90.0   33.333333333333336
200.0   90.0   50.0
250.0   120.0   50.0
250.0   90.0   33.333333333333336
200.0   120.0   33.333333333333336
200.0   120.0   0.0
250.0   120.0   0.0
200.0   150.0   0.0
200.0   120.0   16.666666666666668
250.0   120.0   0.0
250.0   150.0   0.0
200.0   150.0   0.0
250.0   150.0   16.666666666666668
200.0   120.0   16.666666666666668
200.0   150.0   16.666666666666668
250.0   150.0   16.666666666666668
200.0   150.0   0.0
200.0   120.0   16.666666666666668
250.0   150.0   16.666666666666668
250.0   120.0   16.666666666666668
250.0   120.0   0.0
200.0   120.0   16.666666666666668
250.0   150.0   16.666666666666668
250.0   120.0   0.0
200.0   150.0   0.0
200.0   120.0   16.666666666666668
250.0   120.0   16.666666666666668
200.0   150.0   16.666666666666668
200.0   120.0   33.333333333333336
250.0   120.0   16.666666666666668
250.0   150.0   16.666666666666668
200.0   150.0   16.666666666666668
250.0   150.0   33.333333333333336
200.0   120.0   33.333333333333336
200.0   150.0   33.333333333333336
250.0   150.0   33.333333333333336
200.0   150.0   16.666666666666668
200.0   120.0   33.333333333333336
250.0   150.0   33.333333333333336
250.0   120.0   33.333333333333336
250.0   120.0   16.666666666666668
200.0   120.0   33.333333333333336
250.0   150.0   33.333333333333336
250.0   120.0   16.666666666666668
200.0   150.0   16.666666666666668
200.0   120.0   33.333333333333336
250.0   120.0   33.333333333333336
200.0   150.0   33.333333333333336
200.0   120.0   50.0
250.0   120.0   33.333333333333336
250.0   150.0   33.333333333333336
200.0   150.0   33.333333333333336
250.0   150.0   50.0
200.0   120.0   50.0
200.0   150.0   50.0
250.0   150.0   50.0
200.0   150.0   33.333333333333336
200.0   120.0   50.0
250.0   150.0   50.0
250.0   120.0   50.0
250.0   120.0   33.333333333333336
200.0   120.0   50.0
250.0   150.0   50.0
250.0   120.0   33.333333333333336
200.0   150.0   33.333333333333336
250.0   0.0   0.0
300.0   0.0   0.0
250.0   30.0   0.0
250.0   0.0   16.666666666666668
300.0   0.0   0.0
300.0   30.0   0.0
250.0   30.0   0.0
300.0   30.0   16.666666666666668
250.0   0.0   16.666666666666668
250.0   30.0   16.666666666666668
300.0   30.0   16.666666666666668
250.0   30.0   0.0
250.0   0.0   16.666666666666668
300.0   30.0   16.666666666666668
300.0   0.0   16.666666666666668
300.0   0.0   0.0
250.0   0.0   16.666666666666668
300.0   30.0   16.666666666666668
300.0   0.0   0.0
250.0   30.0   0.0
250.0   0.0   16.666666666666668
300.0   0.0   16.666666666666668
250.0   30.0   16.666666666666668
250.0   0.0   33.333333333333336
300.0   0.0   16.666666666666668
300.0   30.0   16.666666666666668
250.0   30.0   16.666666666666668
300.0   30.0   33.333333333333336
250.0   0.0   33.333333333333336
250.0   30.0   33.333333333333336
300.0   30.0   33.333333333333336
250.0   30.0   16.666666666666668
250.0   0.0   33.333333333333336
300.0   30.0   33.333333333333336
300.0   0.0   33.333333333333336
300.0   0.0   16.666666666666668
250.0   0.0   33.333333333333336
300.0   30.0   33.333333333333336
300.0   0.0   16.666666666666668
250.0   30.0   16.666666666666668
250.0   0.0   33.333333333333336
300.0   0.0   33.333333333333336
250.0   30.0   33.333333333333336
250.0   0.0   50.0
300.0   0.0   33.333333333333336
300.0   30.0   33.333333333333336
250.0   30.0   33.333333333333336
300.0   30.0   50.0
250.0   0.0   50.0
250.0   30.0   50.0
300.0   30.0   50.0
250.0   30.0   33.333333333333336
250.0   0.0   50.0
300.0   30.0   50.0
300.0   0.0   50.0
300.0   0.0   33.333333333333336
250.0   0.0   50.0
300.0   30.0   50.0
300.0   0.0   33.333333333333336
250.0   30.0   33.333333333333336
250.0   30.0   0.0
300.0   30.0   0.0
250.0   60.0   0.0
250.0   30.0   16.666666666666668
300.0   30.0   0.0
300.0   60.0   0.0
250.0   60.0   0.0
300.0   60.0   16.666666666666668
250.0   30.0   16.666666666666668
250.0   60.0   16.666666666666668
300.0   60.0   16.666666666666668
250.0   60.0   0.0
250.0   30.0   16.666666666666668
300.0   60.0   16.666666666666668
300.0   30.0   16.666666666666668
300.0   30.0   0.0
250.0   30.0   16.666666666666668
300.0   60.0   16.666666666666668
300.0   30.0   0.0
250.0   60.0   0.0
250.0   30.0   16.666666666666668
300.0   30.0   16.666666666666668
250.0   60.0   16.666666666666668
250.0   30.0   33.333333333333336
300.0   30.0   16.666666666666668
300.0   60.0   16.666666666666668
250.0   60.0   16.666666666666668
300.0   60.0   33.333333333333336
250.0   30.0   33.333333333333336
250.0   60.0   33.333333333333336
300.0   60.0   33.333333333333336
250.0   60.0   16.666666666666668
250.0   30.0   33.333333333333336
300.0   60.0   33.333333333333336
300.0   30.0   33.333333333333336
300.0   30.0   16.666666666666668
250.0   30.0   33.333333333333336
300.0   60.0   33.333333333333336
300.0   30.0   16.666666666666668
250.0   60.0   16.666666666666668
250.0   30.0   33.333333333333336
300.0   30.0   33.333333333333336
250.0   60.0   33.333333333333336
250.0   30.0   50.0
300.0   30.0   33.333333333333336
300.0   60.0   33.333333333333336
250.0   60.0   33.333333333333336
300.0   60.0   50.0
250.0   30.0   50.0
250.0   60.0   50.0
300.0   60.0   50.0
250.0   60.0   33.333333333333336
250.0   30.0   50.0
300.0   60.0   50.0
300.0   30.0   50.0
300.0   30.0   33.333333333333336
250.0   30.0   50.0
300.0   60.0   50.0
300.0   30.0   33.333333333333336
250.0   60.0   33.333333333333336
250.0   60.0   0.0
300.0   60.0   0.0
250.0   90.0   0.0
250.0   60.0   16.666666666666668
300.0   60.0   0.0
300.0   90.0   0.0
250.0   90.0   0.0
300.0   90.0   16.666666666666668
250.0   60.0   16.666666666666668
250.0   90.0   16.666666666666668
300.0   90.0   16.666666666666668
250.0   90.0   0.0
250.0   60.0   16.666666666666668
300.0   90.0   16.666666666666668
300.0   60.0   16.666666666666668
300.0   60.0   0.0
250.0   60.0   16.666666666666668
300.0   90.0   16.666666666666668
300.0   60.0   0.0
250.0   90.0   0.0
250.0   60.0   16.666666666666668
300.0   60.0   16.666666666666668
250.0   90.0   16.666666666666668
250.0   60.0   33.333333333333336
300.0   60.0   16.666666666666668
300.0   90.0   16.666666666666668
250.0   90.0   16.666666666666668
300.0   90.0   33.333333333333336
250.0   60.0   33.333333333333336
250.0   90.0   33.333333333333336
300.0   90.0   33.333333333333336
250.0   90.0   16.666666666666668
250.0   60.0   33.333333333333336
300.0   90.0   33.333333333333336
300.0   60.0   33.333333333333336
300.0   60.0   16.666666666666668
250.0   60.0   33.333333333333336
300.0   90.0   33.333333333333336
300.0   60.0   16.666666666666668
250.0   90.0   16.666666666666668
250.0   60.0   33.333333333333336
300.0   60.0   33.333333333333336
250.0   90.0   33.333333333333336
250.0   60.0   50.0
300.0   60.0   33.333333333333336
300.0   90.0   33.333333333333336
250.0   90.0   33.333333333333336
300.0   90.0   50.0
250.0   60.0   50.0
250.0   90.0   50.0
300.0   90.0   50.0
250.0   90.0   33.333333333333336
250.0   60.0   50.0
300.0   90.0   50.0
300.0   60.0   50.0
300.0   60.0   33.333333333333336
250.0   60.0   50.0
300.0   90.0   50.0
300.0   60.0   33.333333333333336
250.0   90.0   33.333333333333336
250.0   90.0   0.0
300.0   90.0   0.0
250.0   120.0   0.0
250.0   90.0   16.666666666666668
300.0   90.0   0.0
300.0   120.0   0.0
250.0   120.0   0.0
300.0   120.0   16.666666666666668
250.0   90.0   16.666666666666668
250.0   120.0   16.666666666666668
300.0   120.0   16.666666666666668
250.0   120.0   0.0
250.0   90.0   16.666666666666668
300.0   120.0   16.666666666666668
300.0   90.0   16.666666666666668
300.0   90.0   0.0
250.0   90.0   16.666666666666668
300.0   120.0   16.666666666666668
300.0   90.0   0.0
250.0   120.0   0.0
250.0   90.0   16.666666666666668
300.0   90.0   16.666666666666668
250.0   120.0   16.666666666666668
250.0   90.0   33.333333333333336
300.0   90.0   16.666666666666668
300.0   120.0   16.666666666666668
250.0   120.0   16.666666666666668
300.0   120.0   33.333333333333336
250.0   90.0   33.333333333333336
250.0   120.0   33.333333333333336
300.0   120.0   33.333333333333336
250.0   120.0   16.666666666666668
250.0   90.0   33.333333333333336
300.0   120.0   33.333333333333336
300.0   90.0   33.333333333333336
300.0   90.0   16.666666666666668
250.0   90.0   33.333333333333336
300.0   120.0   33.333333333333336
300.0   90.0   16.666666666666668
250.0   120.0   16.666666666666668
250.0   90.0   33.333333333333336
300.0   90.0   33.333333333333336
250.0   120.0   33.333333333333336
250.0   90.0   50.0
300.0   90.0   33.333333333333336
300.0   120.0   33.333333333333336
250.0   120.0   33.333333333333336
300.0   120.0   50.0
250.0   90.0   50.0
250.0   120.0   50.0
300.0   120.0   50.0
250.0   120.0   33.333333333333336
250.0   90.0   50.0
300.0   120.0   50.0
300.0   90.0   50.0
300.0   90.0   33.333333333333336
250.0   90.0   50.0
300.0   120.0   50.0
300.0   90.0   33.333333333333336
250.0   120.0   33.333333333333336
250.0   120.0   0.0
300.0   120.0   0.0
250.0   150.0   0.0
250.0   120.0   16.666666666666668
300.0   120.0   0.0
300.0   150.0   0.0
250.0   150.0   0.0
300.0   150.0   16.666666666666668
250.0   120.0   16.666666666666668
250.0   150.0   16.666666666666668
300.0   150.0   16.666666666666668
250.0   150.0   0.0
250.0   120.0   16.666666666666668
300.0   150.0   16.666666666666668
300.0   120.0   16.666666666666668
300.0   120.0   0.0
250.0   120.0   16.666666666666668
300.0   150.0   16.666666666666668
300.0   120.0   0.0
250.0   150.0   0.0
250.0   120.0   16.666666666666668
300.0   120.0   16.666666666666668
250.0   150.0   16.666666666666668
250.0   120.0   33.333333333333336
300.0   120.0   16.666666666666668
300.0   150.0   16.666666666666668
250.0   150.0   16.666666666666668
300.0   150.0   33.333333333333336
250.0   120.0   33.333333333333336
250.0   150.0   33.333333333333336
300.0   150.0   33.333333333333336
250.0   150.0   16.666666666666668
250.0   120.0   33.333333333333336
300.0   150.0   33.333333333333336
300.0   120.0   33.333333333333336
300.0   120.0   16.666666666666668
250.0   120.0   33.333333333333336
300.0   150.0   33.333333333333336
300.0   120.0   16.666666666666668
250.0   150.0   16.666666666666668
250.0   120.0   33.333333333333336
300.0   120.0   33.333333333333336
250.0   150.0   33.333333333333336
250.0   120.0   50.0
300.0   120.0   33.333333333333336
300.0   150.0   33.333333333333336
250.0   150.0   33.333333333333336
300.0   150.0   50.0
250.0   120.0   50.0
250.0   150.0   50.0
300.0   150.0   50.0
250.0   150.0   33.333333333333336
250.0   120.0   50.0
300.0   150.0   50.0
300.0   120.0   50.0
300.0   120.0   33.333333333333336
250.0   120.0   50.0
300.0   150.0   50.0
300.0   120.0   33.333333333333336
250.0   150.0   33.333333333333336
300.0   0.0   0.0
350.0   0.0   0.0
300.0   30.0   0.0
300.0   0.0   16.666666666666668
350.0   0.0   0.0
350.0   30.0   0.0
300.0   30.0   0.0
350.0   30.0   16.666666666666668
300.0   0.0   16.666666666666668
300.0   30.0   16.666666666666668
350.0   30.0   16.666666666666668
300.0   30.0   0.0
300.0   0.0   16.666666666666668
350.0   30.0   16.666666666666668
350.0   0.0   16.666666666666668
350.0   0.0   0.0
300.0   0.0   16.666666666666668
350.0   30.0   16.666666666666668
350.0   0.0   0.0
300.0   30.0   0.0
300.0   0.0   16.666666666666668
350.0   0.0   16.666666666666668
300.0   30.0   16.666666666666668
300.0   0.0   33.333333333333336
350.0   0.0   16.666666666666668
350.0   30.0   16.666666666666668
300.0   30.0   16.666666666666668
350.0   30.0   33.333333333333336
300.0   0.0   33.333333333333336
300.0   30.0   33.333333333333336
350.0   30.0   33.333333333333336
300.0   30.0   16.666666666666668
300.0   0.0   33.333333333333336
350.0   30.0   33.333333333333336
350.0   0.0   33.333333333333336
350.0   0.0   16.666666666666668
300.0   0.0   33.333333333333336
350.0   30.0   33.333333333333336
350.0   0.0   16.666666666666668
300.0   30.0   16.666666666666668
300.0   0.0   33.333333333333336
350.0   0.0   33.333333333333336
300.0   30.0   33.333333333333336
300.0   0.0   50.0
350.0   0.0   33.333333333333336
350.0   30.0   33.333333333333336
300.0   30.0   33.333333333333336
350.0   30.0   50.0
300.0   0.0   50.0
300.0   30.0   50.0
350.0   30.0   50.0
300.0   30.0   33.333333333333336
300.0   0.0   50.0
350.0   30.0   50.0
350.0   0.0   50.0
350.0   0.0   33.333333333333336
300.0   0.0   50.0
350.0   30.0   50.0
350.0   0.0   33.333333333333336
300.0   30.0   33.333333333333336
300.0   30.0   0.0
350.0   30.0   0.0
300.0   60.0   0.0
300.0   30.0   16.666666666666668
350.0   30.0   0.0
350.0   60.0   0.0
300.0   60.0   0.0
350.0   60.0   16.666666666666668
300.0   30.0   16.666666666666668
300.0   60.0   16.666666666666668
350.0   60.0   16.666666666666668
300.0   60.0   0.0
300.0   30.0   16.666666666666668
350.0   60.0   16.666666666666668
350.0   30.0   16.666666666666668
350.0   30.0   0.0
300.0   30.0   16.666666666666668
350.0   60.0   16.666666666666668
350.0   30.0   0.0
300.0   60.0   0.0
300.0   30.0   16.666666666666668
350.0   30.0   16.666666666666668
300.0   60.0   16.666666666666668
300.0   30.0   33.333333333333336
350.0   30.0   16.666666666666668
350.0   60.0   16.666666666666668
300.0   60.0   16.666666666666668
350.0   60.0   33.333333333333336
300.0   30.0   33.333333333333336
300.0   60.0   33.333333333333336
350.0   60.0   33.333333333333336
300.0   60.0   16.666666666666668
300.0   30.0   33.333333333333336
350.0   60.0   33.333333333333336
350.0   30.0   33.333333333333336
350.0   30.0   16.666666666666668
300.0   30.0   33.333333333333336
350.0   60.0   33.333333333333336
350.0   30.0   16.666666666666668
300.0   60.0   16.666666666666668
300.0   30.0   33.333333333333336
350.0   30.0   33.333333333333336
300.0   60.0   33.333333333333336
300.0   30.0   50.0
350.0   30.0   33.333333333333336
350.0   60.0   33.333333333333336
300.0   60.0   33.333333333333336
350.0   60.0   50.0
300.0   30.0   50.0
300.0   60.0   50.0
350.0   60.0   50.0
300.0   60.0   33.333333333333336
300.0   30.0   50.0
350.0   60.0   50.0
350.0   30.0   50.0
350.0   30.0   33.333333333333336
300.0   30.0   50.0
350.0   60.0   50.0
350.0   30.0   33.333333333333336
300.0   60.0   33.333333333333336
300.0   60.0   0.0
350.0   60.0   0.0
300.0   90.0   0.0
300.0   60.0   16.666666666666668
350.0   60.0   0.0
350.0   90.0   0.0
300.0   90.0   0.0
350.0   90.0   16.666666666666668
300.0   60.0   16.666666666666668
300.0   90.0   16.666666666666668
350.0   90.0   16.666666666666668
300.0   90.0   0.0
300.0   60.0   16.666666666666668
350.0   90.0   16.666666666666668
350.0   60.0   16.666666666666668
350.0   60.0   0.0
300.0   60.0   16.666666666666668
350.0   90.0   16.666666666666668
350.0   60.0   0.0
300.0   90.0   0.0
300.0   60.0   16.666666666666668
350.0   60.0   16.666666666666668
300.0   90.0   16.666666666666668
300.0   60.0   33.333333333333336
350.0   60.0   16.666666666666668
350.0   90.0   16.666666666666668
300.0   90.0   16.666666666666668
350.0   90.0   33.333333333333336
300.0   60.0   33.333333333333336
300.0   90.0   33.333333333333336
350.0   90.0   33.333333333333336
300.0   90.0   16.666666666666668
300.0   60.0   33.333333333333336
350.0   90.0   33.333333333333336
350.0   60.0   33.333333333333336
350.0   60.0   16.666666666666668
300.0   60.0   33.333333333333336
350.0   90.0   33.333333333333336
350.0   60.0   16.666666666666668
300.0   90.0   16.666666666666668
300.0   60.0   33.333333333333336
350.0   60.0   33.333333333333336
300.0   90.0   33.333333333333336
300.0   60.0   50.0
350.0   60.0   33.333333333333336
350.0   90.0   33.333333333333336
300.0   90.0   33.333333333333336
350.0   90.0   50.0
300.0   60.0   50.0
300.0   90.0   50.0
350.0   90.0   50.0
300.0   90.0   33.333333333333336
300.0   60.0   50.0
350.0   90.0   50.0
350.0   60.0   50.0
350.0   60.0   33.333333333333336
300.0   60.0   50.0
350.0   90.0   50.0
350.0   60.0   33.333333333333336
300.0   90.0   33.333333333333336
300.0   90.0   0.0
350.0   90.0   0.0
300.0   120.0   0.0
300.0   90.0   16.666666666666668
350.0   90.0   0.0
350.0   120.0   0.0
300.0   120.0   0.0
350.0   120.0   16.666666666666668
300.0   90.0   16.666666666666668
300.0   120.0   16.666666666666668
350.0   120.0   16.666666666666668
300.0   120.0   0.0
300.0   90.0   16.666666666666668
350.0   120.0   16.666666666666668
350.0   90.0   16.666666666666668
350.0   90.0   0.0
300.0   90.0   16.666666666666668
350.0   120.0   16.666666666666668
350.0   90.0   0.0
300.0   120.0   0.0
300.0   90.0   16.666666666666668
350.0   90.0   16.666666666666668
300.0   120.0   16.666666666666668
300.0   90.0   33.333333333333336
350.0   90.0   16.666666666666668
350.0   120.0   16.666666666666668
300.0   120.0   16.666666666666668
350.0   120.0   33.333333333333336
300.0   90.0   33.333333333333336
300.0   120.0   33.333333333333336
350.0   120.0   33.333333333333336
300.0   120.0   16.666666666666668
300.0   90.0   33.333333333333336
350.0   120.0   33.333333333333336
350.0   90.0   33.333333333333336
350.0   90.0   16.666666666666668
300.0   90.0   33.333333333333336
350.0   120.0   33.333333333333336
350.0   90.0   16.666666666666668
300.0   120.0   16.666666666666668
300.0   90.0   33.333333333333336
350.0   90.0   33.333333333333336
300.0   120.0   33.333333333333336
300.0   90.0   50.0
350.0   90.0   33.333333333333336
350.0   120.0   33.333333333333336
300.0   120.0   33.333333333333336
350.0   120.0   50.0
300.0   90.0   50.0
300.0   120.0   50.0
350.0   120.0   50.0
300.0   120.0   33.333333333333336
300.0   90.0   50.0
350.0   120.0   50.0
350.0   90.0   50.0
350.0   90.0   33.333333333333336
300.0   90.0   50.0
350.0   120.0   50.0
350.0   90.0   33.333333333333336
300.0   120.0   33.333333333333336
300.0   120.0   0.0
350.0   120.0   0.0
300.0   150.0   0.0
300.0   120.0   16.666666666666668
350.0   120.0   0.0
350.0   150.0   0.0
300.0   150.0   0.0
350.0   150.0   16.666666666666668
300.0   120.0   16.666666666666668
300.0   150.0   16.666666666666668
350.0   150.0   16.666666666666668
300.0   150.0   0.0
300.0   120.0   16.666666666666668
350.0   150.0   16.666666666666668
350.0   120.0   16.666666666666668
350.0   120.0   0.0
300.0   120.0   16.666666666666668
350.0   150.0   16.666666666666668
350.0   120.0   0.0
300.0   150.0   0.0
300.0   120.0   16.666666666666668
350.0   120.0   16.666666666666668
300.0   150.0   16.666666666666668
300.0   120.0   33.333333333333336
350.0   120.0   16.666666666666668
350.0   150.0   16.666666666666668
300.0   150.0   16.666666666666668
350.0   150.0   33.333333333333336
300.0   120.0   33.333333333333336
300.0   150.0   33.333333333333336
350.0   150.0   33.333333333333336
300.0   150.0   16.666666666666668
300.0   120.0   33.333333333333336
350.0   150.0   33.333333333333336
350.0   120.0   33.333333333333336
350.0   120.0   16.666666666666668
300.0   120.0   33.333333333333336
350.0   150.0   33.333333333333336
350.0   120.0   16.666666666666668
300.0   150.0   16.666666666666668
300.0   120.0   33.333333333333336
350.0   120.0   33.333333333333336
300.0   150.0   33.333333333333336
300.0   120.0   50.0
350.0   120.0   33.333333333333336
350.0   150.0   33.333333333333336
300.0   150.0   33.333333333333336
350.0   150.0   50.0
300.0   120.0   50.0
300.0   150.0   50.0
350.0   150.0   50.0
300.0   150.0   33.333333333333336
300.0   120.0   50.0
350.0   150.0   50.0
350.0   120.0   50.0
350.0   120.0   33.333333333333336
300.0   120.0   50.0
350.0   150.0   50.0
350.0   120.0   33.333333333333336
300.0   150.0   33.333333333333336
350.0   0.0   0.0
400.0   0.0   0.0
350.0   30.0   0.0
350.0   0.0   16.666666666666668
400.0   0.0   0.0
400.0   30.0   0.0
350.0   30.0   0.0
400.0   30.0   16.666666666666668
350.0   0.0   16.666666666666668
350.0   30.0   16.666666666666668
400.0   30.0   16.666666666666668
350.0   30.0   0.0
350.0   0.0   16.666666666666668
400.0   30.0   16.666666666666668
400.0   0.0   16.666666666666668
400.0   0.0   0.0
350.0   0.0   16.666666666666668
400.0   30.0   16.666666666666668
400.0   0.0   0.0
350.0   30.0   0.0
350.0   0.0   16.666666666666668
400.0   0.0   16.666666666666668
350.0   30.0   16.666666666666668
350.0   0.0   33.333333333333336
400.0   0.0   16.666666666666668
400.0   30.0   16.666666666666668
350.0   30.0   16.666666666666668
400.0   30.0   33.333333333333336
350.0   0.0   33.333333333333336
350.0   30.0   33.333333333333336
400.0   30.0   33.333333333333336
350.0   30.0   16.666666666666668
350.0   0.0   33.333333333333336
400.0   30.0   33.333333333333336
400.0   0.0   33.333333333333336
400.0   0.0   16.666666666666668
350.0   0.0   33.333333333333336
400.0   30.0   33.333333333333336
400.0   0.0   16.666666666666668
350.0   30.0   16.666666666666668
350.0   0.0   33.333333333333336
400.0   0.0   33.333333333333336
350.0   30.0   33.333333333333336
350.0   0.0   50.0
400.0   0.0   33.333333333333336
400.0   30.0   33.333333333333336
350.0   30.0   33.333333333333336
400.0   30.0   50.0
350.0   0.0   50.0
350.0   30.0   50.0
400.0   30.0   50.0
350.0   30.0   33.333333333333336
350.0   0.0   50.0
400.0   30.0   50.0
400.0   0.0   50.0
400.0   0.0   33.333333333333336
350.0   0.0   50.0
400.0   30.0   50.0
400.0   0.0   33.333333333333336
350.0   30.0   33.333333333333336
350.0   30.0   0.0
400.0   30.0   0.0
350.0   60.0   0.0
350.0   30.0   16.666666666666668
400.0   30.0   0.0
400.0   60.0   0.0
350.0   60.0   0.0
400.0   60.0   16.666666666666668
350.0   30.0   16.666666666666668
350.0   60.0   16.666666666666668
400.0   60.0   16.666666666666668
350.0   60.0   0.0
350.0   30.0   16.666666666666668
400.0   60.0   16.666666666666668
400.0   30.0   16.666666666666668
400.0   30.0   0.0
350.0   30.0   16.666666666666668
400.0   60.0   16.666666666666668
400.0   30.0   0.0
350.0   60.0   0.0
350.0   30.0   16.666666666666668
400.0   30.0   16.666666666666668
350.0   60.0   16.666666666666668
350.0   30.0   33.333333333333336
400.0   30.0   16.666666666666668
400.0   60.0   16.666666666666668
350.0   60.0   16.666666666666668
400.0   60.0   33.333333333333336
350.0   30.0   33.333333333333336
350.0   60.0   33.333333333333336
400.0   60.0   33.333333333333336
350.0   60.0   16.666666666666668
350.0   30.0   33.333333333333336
400.0   60.0   33.333333333333336
400.0   30.0   33.333333333333336
400.0   30.0   16.666666666666668
350.0   30.0   33.333333333333336
400.0   60.0   33.333333333333336
400.0   30.0   16.666666666666668
350.0   60.0   16.666666666666668
350.0   30.0   33.333333333333336
400.0   30.0   33.333333333333336
350.0   60.0   33.333333333333336
350.0   30.0   50.0
400.0   30.0   33.333333333333336
400.0   60.0   33.333333333333336
350.0   60.0   33.333333333333336
400.0   60.0   50.0
350.0   30.0   50.0
350.0   60.0   50.0
400.0   60.0   50.0
350.0   60.0   33.333333333333336
350.0   30.0   50.0
400.0   60.0   50.0
400.0   30.0   50.0
400.0   30.0   33.333333333333336
350.0   30.0   50.0
400.0   60.0   50.0
400.0   30.0   33.333333333333336
350.0   60.0   33.333333333333336
350.0   60.0   0.0
400.0   60.0   0.0
350.0   90.0   0.0
350.0   60.0   16.666666666666668
400.0   60.0   0.0
400.0   90.0   0.0
350.0   90.0   0.0
400.0   90.0   16.666666666666668
350.0   60.0   16.666666666666668
350.0   90.0   16.666666666666668
400.0   90.0   16.666666666666668
350.0   90.0   0.0
350.0   60.0   16.666666666666668
400.0   90.0   16.666666666666668
400.0   60.0   16.666666666666668
400.0   60.0   0.0
350.0   60.0   16.666666666666668
400.0   90.0   16.666666666666668
400.0   60.0   0.0
350.0   90.0   0.0
350.0   60.0   16.666666666666668
400.0   60.0   16.666666666666668
350.0   90.0   16.666666666666668
350.0   60.0   33.333333333333336
400.0   60.0   16.666666666666668
400.0   90.0   16.666666666666668
350.0   90.0   16.666666666666668
400.0   90.0   33.333333333333336
350.0   60.0   33.333333333333336
350.0   90.0   33.333333333333336
400.0   90.0   33.333333333333336
350.0   90.0   16.666666666666668
350.0   60.0   33.333333333333336
400.0   90.0   33.333333333333336
400.0   60.0   33.333333333333336
400.0   60.0   16.666666666666668
350.0   60.0   33.333333333333336
400.0   90.0   33.333333333333336
400.0   60.0   16.666666666666668
350.0   90.0   16.666666666666668
350.0   60.0   33.333333333333336
400.0   60.0   33.333333333333336
350.0   90.0   33.333333333333336
350.0   60.0   50.0
400.0   60.0   33.333333333333336
400.0   90.0   33.333333333333336
350.0   90.0   33.333333333333336
400.0   90.0   50.0
350.0   60.0   50.0
350.0   90.0   50.0
400.0   90.0   50.0
350.0   90.0   33.333333333333336
350.0   60.0   50.0
400.0   90.0   50.0
400.0   60.0   50.0
400.0   60.0   33.333333333333336
350.0   60.0   50.0
400.0   90.0   50.0
400.0   60.0   33.333333333333336
350.0   90.0   33.333333333333336
350.0   90.0   0.0
400.0   90.0   0.0
350.0   120.0   0.0
350.0   90.0   16.666666666666668
400.0   90.0   0.0
400.0   120.0   0.0
350.0   120.0   0.0
400.0   120.0   16.666666666666668
350.0   90.0   16.666666666666668
350.0   120.0   16.666666666666668
400.0   120.0   16.666666666666668
350.0   120.0   0.0
350.0   90.0   16.666666666666668
400.0   120.0   16.666666666666668
400.0   90.0   16.666666666666668
400.0   90.0   0.0
350.0   90.0   16.666666666666668
400.0   120.0   16.666666666666668
400.0   90.0   0.0
350.0   120.0   0.0
350.0   90.0   16.666666666666668
400.0   90.0   16.666666666666668
350.0   120.0   16.666666666666668
350.0   90.0   33.333333333333336
400.0   90.0   16.666666666666668
400.0   120.0   16.666666666666668
350.0   120.0   16.666666666666668
400.0   120.0   33.333333333333336
350.0   90.0   33.333333333333336
350.0   120.0   33.333333333333336
400.0   120.0   33.333333333333336
350.0   120.0   16.666666666666668
350.0   90.0   33.333333333333336
400.0   120.0   33.333333333333336
400.0   90.0   33.333333333333336
400.0   90.0   16.666666666666668
350.0   90.0   33.333333333333336
400.0   120.0   33.333333333333336
400.0   90.0   16.666666666666668
350.0   120.0   16.666666666666668
350.0   90.0   33.333333333333336
400.0   90.0   33.333333333333336
350.0   120.0   33.333333333333336
350.0   90.0   50.0
400.0   90.0   33.333333333333336
400.0   120.0   33.333333333333336
350.0   120.0   33.333333333333336
400.0   120.0   50.0
350.0   90.0   50.0
350.0   120.0   50.0
400.0   120.0   50.0
350.0   120.0   33.333333333333336
350.0   90.0   50.0
400.0   120.0   50.0
400.0   90.0   50.0
400.0   90.0   33.333333333333336
350.0   90.0   50.0
400.0   120.0   50.0
400.0   90.0   33.333333333333336
350.0   120.0   33.333333333333336
350.0   120.0   0.0
400.0   120.0   0.0
350.0   150.0   0.0
350.0   120.0   16.666666666666668
400.0   120.0   0.0
400.0   150.0   0.0
350.0   150.0   0.0
400.0   150.0   16.666666666666668
350.0   120.0   16.666666666666668
350.0   150.0   16.666666666666668
400.0   150.0   16.666666666666668
350.0   150.0   0.0
350.0   120.0   16.666666666666668
400.0   150.0   16.666666666666668
400.0   120.0   16.666666666666668
400.0   120.0   0.0
350.0   120.0   16.666666666666668
400.0   150.0   16.666666666666668
400.0   120.0   0.0
350.0   150.0   0.0
350.0   120.0   16.666666666666668
400.0   120.0   16.666666666666668
350.0   150.0   16.666666666666668
350.0   120.0   33.333333333333336
400.0   120.0   16.666666666666668
400.0   150.0   16.666666666666668
350.0   150.0   16.666666666666668
400.0   150.0   33.333333333333336
350.0   120.0   33.333333333333336
350.0   150.0   33.333333333333336
400.0   150.0   33.333333333333336
350.0   150.0   16.666666666666668
350.0   120.0   33.333333333333336
400.0   150.0   33.333333333333336
400.0   120.0   33.333333333333336
400.0   120.0   16.666666666666668
350.0   120.0   33.333333333333336
400.0   150.0   33.333333333333336
400.0   120.0   16.666666666666668
350.0   150.0   16.666666666666668
350.0   120.0   33.333333333333336
400.0   120.0   33.333333333333336
350.0   150.0   33.333333333333336
350.0   120.0   50.0
400.0   120.0   33.333333333333336
400.0   150.0   33.333333333333336
350.0   150.0   33.333333333333336
400.0   150.0   50.0
350.0   120.0   50.0
350.0   150.0   50.0
400.0   150.0   50.0
350.0   150.0   33.333333333333336
350.0   120.0   50.0
400.0   150.0   50.0
400.0   120.0   50.0
400.0   120.0   33.333333333333336
350.0   120.0   50.0
400.0   150.0   50.0
400.0   120.0   33.333333333333336
350.0   150.0   33.333333333333336
400.0   0.0   0.0
450.0   0.0   0.0
400.0   30.0   0.0
400.0   0.0   16.666666666666668
450.0   0.0   0.0
450.0   30.0   0.0
400.0   30.0   0.0
450.0   30.0   16.666666666666668
400.0   0.0   16.666666666666668
400.0   30.0   16.666666666666668
450.0   30.0   16.666666666666668
400.0   30.0   0.0
400.0   0.0   16.666666666666668
450.0   30.0   16.666666666666668
450.0   0.0   16.666666666666668
450.0   0.0   0.0
400.0   0.0   16.666666666666668
450.0   30.0   16.666666666666668
450.0   0.0   0.0
400.0   30.0   0.0
400.0   0.0   16.666666666666668
450.0   0.0   16.666666666666668
400.0   30.0   16.666666666666668
400.0   0.0   33.333333333333336
450.0   0.0   16.666666666666668
450.0   30.0   16.666666666666668
400.0   30.0   16.666666666666668
450.0   30.0   33.333333333333336
400.0   0.0   33.333333333333336
400.0   30.0   33.333333333333336
450.0   30.0   33.333333333333336
400.0   30.0   16.666666666666668
400.0   0.0   33.333333333333336
450.0   30.0   33.333333333333336
450.0   0.0   33.333333333333336
450.0   0.0   16.666666666666668
400.0   0.0   33.333333333333336
450.0   30.0   33.333333333333336
450.0   0.0   16.666666666666668
400.0   30.0   16.666666666666668
400.0   0.0   33.333333333333336
450.0   0.0   33.333333333333336
400.0   30.0   33.333333333333336
400.0   0.0   50.0
450.0   0.0   33.333333333333336
450.0   30.0   33.333333333333336
400.0   30.0   33.333333333333336
450.0   30.0   50.0
400.0   0.0   50.0
400.0   30.0   50.0
450.0   30.0   50.0
400.0   30.0   33.333333333333336
400.0   0.0   50.0
450.0   30.0   50.0
450.0   0.0   50.0
450.0   0.0   33.333333333333336
400.0   0.0   50.0
450.0   30.0   50.0
450.0   0.0   33.333333333333336
400.0   30.0   33.333333333333336
400.0   30.0   0.0
450.0   30.0   0.0
400.0   60.0   0.0
400.0   30.0   16.666666666666668
450.0   30.0   0.0
450.0   60.0   0.0
400.0   60.0   0.0
450.0   60.0   16.666666666666668
400.0   30.0   16.666666666666668
400.0   60.0   16.666666666666668
450.0   60.0   16.666666666666668
400.0   60.0   0.0
400.0   30.0   16.666666666666668
450.0   60.0   16.666666666666668
450.0   30.0   16.666666666666668
450.0   30.0   0.0
400.0   30.0   16.666666666666668
450.0   60.0   16.666666666666668
450.0   30.0   0.0
400.0   60.0   0.0
400.0   30.0   16.666666666666668
450.0   30.0   16.666666666666668
400.0   60.0   16.666666666666668
400.0   30.0   33.333333333333336
450.0   30.0   16.666666666666668
450.0   60.0   16.666666666666668
400.0   60.0   16.666666666666668
450.0   60.0   33.333333333333336
400.0   30.0   33.333333333333336
400.0   60.0   33.333333333333336
450.0   60.0   33.333333333333336
400.0   60.0   16.666666666666668
400.0   30.0   33.333333333333336
450.0   60.0   33.333333333333336
450.0   30.0   33.333333333333336
450.0   30.0   16.666666666666668
400.0   30.0   33.333333333333336
450.0   60.0   33.333333333333336
450.0   30.0   16.666666666666668
400.0   60.0   16.666666666666668
400.0   30.0   33.333333333333336
450.0   30.0   33.333333333333336
400.0   60.0   33.333333333333336
400.0   30.0   50.0
450.0   30.0   33.333333333333336
450.0   60.0   33.333333333333336
400.0   60.0   33.333333333333336
450.0   60.0   50.0
400.0   30.0   50.0
400.0   60.0   50.0
450.0   60.0   50.0
400.0   60.0   33.333333333333336
400.0   30.0   50.0
450.0   60.0   50.0
450.0   30.0   50.0
450.0   30.0   33.333333333333336
400.0   30.0   50.0
450.0   60.0   50.0
450.0   30.0   33.333333333333336
400.0   60.0   33.333333333333336
400.0   60.0   0.0
450.0   60.0   0.0
400.0   90.0   0.0
400.0   60.0   16.666666666666668
450.0   60.0   0.0
450.0   90.0   0.0
400.0   90.0   0.0
450.0   90.0   16.666666666666668
400.0   60.0   16.666666666666668
400.0   90.0   16.666666666666668
450.0   90.0   16.666666666666668
400.0   90.0   0.0
400.0   60.0   16.666666666666668
450.0   90.0   16.666666666666668
450.0   60.0   16.666666666666668
450.0   60.0   0.0
400.0   60.0   16.666666666666668
450.0   90.0   16.666666666666668
450.0   60.0   0.0
400.0   90.0   0.0
400.0   60.0   16.666666666666668
450.0   60.0   16.666666666666668
400.0   90.0   16.666666666666668
400.0   60.0   33.333333333333336
450.0   60.0   16.666666666666668
450.0   90.0   16.666666666666668
400.0   90.0   16.666666666666668
450.0   90.0   33.333333333333336
400.0   60.0   33.333333333333336
400.0   90.0   33.333333333333336
450.0   90.0   33.333333333333336
400.0   90.0   16.666666666666668
400.0   60.0   33.333333333333336
450.0   90.0   33.333333333333336
450.0   60.0   33.333333333333336
450.0   60.0   16.666666666666668
400.0   60.0   33.333333333333336
450.0   90.0   33.333333333333336
450.0   60.0   16.666666666666668
400.0   90.0   16.666666666666668
400.0   60.0   33.333333333333336
450.0   60.0   33.333333333333336
400.0   90.0   33.333333333333336
400.0   60.0   50.0
450.0   60.0   33.333333333333336
450.0   90.0   33.333333333333336
400.0   90.0   33.333333333333336
450.0   90.0   50.0
400.0   60.0   50.0
400.0   90.0   50.0
450.0   90.0   50.0
400.0   90.0   33.333333333333336
400.0   60.0   50.0
450.0   90.0   50.0
450.0   60.0   50.0
450.0   60.0   33.333333333333336
400.0   60.0   50.0
450.0   90.0   50.0
450.0   60.0   33.333333333333336
400.0   90.0   33.333333333333336
400.0   90.0   0.0
450.0   90.0   0.0
400.0   120.0   0.0
400.0   90.0   16.666666666666668
450.0   90.0   0.0
450.0   120.0   0.0
400.0   120.0   0.0
450.0   120.0   16.666666666666668
400.0   90.0   16.666666666666668
400.0   120.0   16.666666666666668
450.0   120.0   16.666666666666668
400.0   120.0   0.0
400.0   90.0   16.666666666666668
450.0   120.0   16.666666666666668
450.0   90.0   16.666666666666668
450.0   90.0   0.0
400.0   90.0   16.666666666666668
450.0   120.0   16.666666666666668
450.0   90.0   0.0
400.0   120.0   0.0
400.0   90.0   16.666666666666668
450.0   90.0   16.666666666666668
400.0   120.0   16.666666666666668
400.0   90.0   33.333333333333336
450.0   90.0   16.666666666666668
450.0   120.0   16.666666666666668
400.0   120.0   16.666666666666668
450.0   120.0   33.333333333333336
400.0   90.0   33.333333333333336
400.0   120.0   33.333333333333336
450.0   120.0   33.333333333333336
400.0   120.0   16.666666666666668
400.0   90.0   33.333333333333336
450.0   120.0   33.333333333333336
450.0   90.0   33.333333333333336
450.0   90.0   16.666666666666668
400.0   90.0   33.333333333333336
450.0   120.0   33.333333333333336
450.0   90.0   16.666666666666668
400.0   120.0   16.666666666666668
400.0   90.0   33.333333333333336
450.0   90.0   33.333333333333336
400.0   120.0   33.333333333333336
400.0   90.0   50.0
450.0   90.0   33.333333333333336
450.0   120.0   33.333333333333336
400.0   120.0   33.333333333333336
450.0   120.0   50.0
400.0   90.0   50.0
400.0   120.0   50.0
450.0   120.0   50.0
400.0   120.0   33.333333333333336
400.0   90.0   50.0
450.0   120.0   50.0
450.0   90.0   50.0
450.0   90.0   33.333333333333336
400.0   90.0   50.0
450.0   120.0   50.0
450.0   90.0   33.333333333333336
400.0   120.0   33.333333333333336
400.0   120.0   0.0
450.0   120.0   0.0
400.0   150.0   0.0
400.0   120.0   16.666666666666668
450.0   120.0   0.0
450.0   150.0   0.0
400.0   150.0   0.0
450.0   150.0   16.666666666666668
400.0   120.0   16.666666666666668
400.0   150.0   16.666666666666668
450.0   150.0   16.666666666666668
400.0   150.0   0.0
400.0   120.0   16.666666666666668
450.0   150.0   16.666666666666668
450.0   120.0   16.666666666666668
450.0   120.0   0.0
400.0   120.0   16.666666666666668
450.0   150.0   16.666666666666668
450.0   120.0   0.0
400.0   150.0   0.0
400.0   120.0   16.666666666666668
450.0   120.0   16.666666666666668
400.0   150.0   16.666666666666668
400.0   120.0   33.333333333333336
450.0   120.0   16.666666666666668
450.0   150.0   16.666666666666668
400.0   150.0   16.666666666666668
450.0   150.0   33.333333333333336
400.0   120.0   33.333333333333336
400.0   150.0   33.333333333333336
450.0   150.0   33.333333333333336
400.0   150.0   16.666666666666668
400.0   120.0   33.333333333333336
450.0   150.0   33.333333333333336
450.0   120.0   33.333333333333336
450.0   120.0   16.666666666666668
400.0   120.0   33.333333333333336
450.0   150.0   33.333333333333336
450.0   120.0   16.666666666666668
400.0   150.0   16.666666666666668
400.0   120.0   33.333333333333336
450.0   120.0   33.333333333333336
400.0   150.0   33.333333333333336
400.0   120.0   50.0
450.0   120.0   33.333333333333336
450.0   150.0   33.333333333333336
400.0   150.0   33.333333333333336
450.0   150.0   50.0
400.0   120.0   50.0
400.0   150.0   50.0
450.0   150.0   50.0
400.0   150.0   33.333333333333336
400.0   120.0   50.0
450.0   150.0   50.0
450.0   120.0   50.0
450.0   120.0   33.333333333333336
400.0   120.0   50.0
450.0   150.0   50.0
450.0   120.0   33.333333333333336
400.0   150.0   33.333333333333336
450.0   0.0   0.0
500.0   0.0   0.0
450.0   30.0   0.0
450.0   0.0   16.666666666666668
500.0   0.0   0.0
500.0   30.0   0.0
450.0   30.0   0.0
500.0   30.0   16.666666666666668
450.0   0.0   16.666666666666668
450.0   30.0   16.666666666666668
500.0   30.0   16.666666666666668
450.0   30.0   0.0
450.0   0.0   16.666666666666668
500.0   30.0   16.666666666666668
500.0   0.0   16.666666666666668
500.0   0.0   0.0
450.0   0.0   16.666666666666668
500.0   30.0   16.666666666666668
500.0   0.0   0.0
450.0   30.0   0.0
450.0   0.0   16.666666666666668
500.0   0.0   16.666666666666668
450.0   30.0   16.666666666666668
450.0   0.0   33.333333333333336
500.0   0.0   16.666666666666668
500.0   30.0   16.666666666666668
450.0   30.0   16.666666666666668
500.0   30.0   33.333333333333336
450.0   0.0   33.333333333333336
450.0   30.0   33.333333333333336
500.0   30.0   33.333333333333336
450.0   30.0   16.666666666666668
450.0   0.0   33.333333333333336
500.0   30.0   33.333333333333336
500.0   0.0   33.333333333333336
500.0   0.0   16.666666666666668
450.0   0.0   33.333333333333336
500.0   30.0   33.333333333333336
500.0   0.0   16.666666666666668
450.0   30.0   16.666666666666668
450.0   0.0   33.333333333333336
500.0   0.0   33.333333333333336
450.0   30.0   33.333333333333336
450.0   0.0   50.0
500.0   0.0   33.333333333333336
500.0   30.0   33.333333333333336
450.0   30.0   33.333333333333336
500.0   30.0   50.0
450.0   0.0   50.0
450.0   30.0   50.0
500.0   30.0   50.0
450.0   30.0   33.333333333333336
450.0   0.0   50.0
500.0   30.0   50.0
500.0   0.0   50.0
500.0   0.0   33.333333333333336
450.0   0.0   50.0
500.0   30.0   50.0
500.0   0.0   33.333333333333336
450.0   30.0   33.333333333333336
450.0   30.0   0.0
500.0   30.0   0.0
450.0   60.0   0.0
450.0   30.0   16.666666666666668
500.0   30.0   0.0
500.0   60.0   0.0
450.0   60.0   0.0
500.0   60.0   16.666666666666668
450.0   30.0   16.666666666666668
450.0   60.0   16.666666666666668
500.0   60.0   16.666666666666668
450.0   60.0   0.0
450.0   30.0   16.666666666666668
500.0   60.0   16.666666666666668
500.0   30.0   16.666666666666668
500.0   30.0   0.0
450.0   30.0   16.666666666666668
500.0   60.0   16.666666666666668
500.0   30.0   0.0
450.0   60.0   0.0
450.0   30.0   16.666666666666668
500.0   30.0   16.666666666666668
450.0   60.0   16.666666666666668
450.0   30.0   33.333333333333336
500.0   30.0   16.666666666666668
500.0   60.0   16.666666666666668
450.0   60.0   16.666666666666668
500.0   60.0   33.333333333333336
450.0   30.0   33.333333333333336
450.0   60.0   33.333333333333336
500.0   60.0   33.333333333333336
450.0   60.0   16.666666666666668
450.0   30.0   33.333333333333336
500.0   60.0   33.333333333333336
500.0   30.0   33.333333333333336
500.0   30.0   16.666666666666668
450.0   30.0   33.333333333333336
500.0   60.0   33.333333333333336
500.0   30.0   16.666666666666668
450.0   60.0   16.666666666666668
450.0   30.0   33.333333333333336
500.0   30.0   33.333333333333336
450.0   60.0   33.333333333333336
450.0   30.0   50.0
500.0   30.0   33.333333333333336
500.0   60.0   33.333333333333336
450.0   60.0   33.333333333333336
500.0   60.0   50.0
450.0   30.0   50.0
450.0   60.0   50.0
500.0   60.0   50.0
450.0   60.0   33.333333333333336
450.0   30.0   50.0
500.0   60.0   50.0
500.0   30.0   50.0
500.0   30.0   33.333333333333336
450.0   30.0   50.0
500.0   60.0   50.0
500.0   30.0   33.333333333333336
450.0   60.0   33.333333333333336
450.0   60.0   0.0
500.0   60.0   0.0
450.0   90.0   0.0
450.0   60.0   16.666666666666668
500.0   60.0   0.0
500.0   90.0   0.0
450.0   90.0   0.0
500.0   90.0   16.666666666666668
450.0   60.0   16.666666666666668
450.0   90.0   16.666666666666668
500.0   90.0   16.666666666666668
450.0   90.0   0.0
450.0   60.0   16.666666666666668
500.0   90.0   16.666666666666668
500.0   60.0   16.666666666666668
500.0   60.0   0.0
450.0   60.0   16.666666666666668
500.0   90.0   16.666666666666668
500.0   60.0   0.0
450.0   90.0   0.0
450.0   60.0   16.666666666666668
500.0   60.0   16.666666666666668
450.0   90.0   16.666666666666668
450.0   60.0   33.333333333333336
500.0   60.0   16.666666666666668
500.0   90.0   16.666666666666668
450.0   90.0   16.666666666666668
500.0   90.0   33.333333333333336
450.0   60.0   33.333333333333336
450.0   90.0   33.333333333333336
500.0   90.0   33.333333333333336
450.0   90.0   16.666666666666668
450.0   60.0   33.333333333333336
500.0   90.0   33.333333333333336
500.0   60.0   33.333333333333336
500.0   60.0   16.666666666666668
450.0   60.0   33.333333333333336
500.0   90.0   33.333333333333336
500.0   60.0   16.666666666666668
450.0   90.0   16.666666666666668
450.0   60.0   33.333333333333336
500.0   60.0   33.333333333333336
450.0   90.0   33.333333333333336
450.0   60.0   50.0
500.0   60.0   33.333333333333336
500.0   90.0   33.333333333333336
450.0   90.0   33.333333333333336
500.0   90.0   50.0
450.0   60.0   50.0
450.0   90.0   50.0
500.0   90.0   50.0
450.0   90.0   33.333333333333336
450.0   60.0   50.0
500.0   90.0   50.0
500.0   60.0   50.0
500.0   60.0   33.333333333333336
450.0   60.0   50.0
500.0   90.0   50.0
500.0   60.0   33.333333333333336
450.0   90.0   33.333333333333336
450.0   90.0   0.0
500.0   90.0   0.0
450.0   120.0   0.0
450.0   90.0   16.666666666666668
500.0   90.0   0.0
500.0   120.0   0.0
450.0   120.0   0.0
500.0   120.0   16.666666666666668
450.0   90.0   16.666666666666668
450.0   120.0   16.666666666666668
500.0   120.0   16.666666666666668
450.0   120.0   0.0
450.0   90.0   16.666666666666668
500.0   120.0   16.666666666666668
500.0   90.0   16.666666666666668
500.0   90.0   0.0
450.0   90.0   16.666666666666668
500.0   120.0   16.666666666666668
500.0   90.0   0.0
450.0   120.0   0.0
450.0   90.0   16.666666666666668
500.0   90.0   16.666666666666668
450.0   120.0   16.666666666666668
450.0   90.0   33.333333333333336
500.0   90.0   16.666666666666668
500.0   120.0   16.666666666666668
450.0   120.0   16.666666666666668
500.0   120.0   33.333333333333336
450.0   90.0   33.333333333333336
450.0   120.0   33.333333333333336
500.0   120.0   33.333333333333336
450.0   120.0   16.666666666666668
450.0   90.0   33.333333333333336
500.0   120.0   33.333333333333336
500.0   90.0   33.333333333333336
500.0   90.0   16.666666666666668
450.0   90.0   33.333333333333336
500.0   120.0   33.333333333333336
500.0   90.0   16.666666666666668
450.0   120.0   16.666666666666668
450.0   90.0   33.333333333333336
500.0   90.0   33.333333333333336
450.0   120.0   33.333333333333336
450.0   90.0   50.0
500.0   90.0   33.333333333333336
500.0   120.0   33.333333333333336
450.0   120.0   33.333333333333336
500.0   120.0   50.0
450.0   90.0   50.0
450.0   120.0   50.0
500.0   120.0   50.0
450.0   120.0   33.333333333333336
450.0   90.0   50.0
500.0   120.0   50.0
500.0   90.0   50.0
500.0   90.0   33.333333333333336
450.0   90.0   50.0
500.0   120.0   50.0
500.0   90.0   33.333333333333336
450.0   120.0   33.333333333333336
450.0   120.0   0.0
500.0   120.0   0.0
450.0   150.0   0.0
450.0   120.0   16.666666666666668
500.0   120.0   0.0
500.0   150.0   0.0
450.0   150.0   0.0
500.0   150.0   16.666666666666668
450.0   120.0   16.666666666666668
450.0   150.0   16.666666666666668
500.0   150.0   16.666666666666668
450.0   150.0   0.0
450.0   120.0   16.666666666666668
500.0   150.0   16.666666666666668
500.0   120.0   16.666666666666668
500.0   120.0   0.0
450.0   120.0   16.666666666666668
500.0   150.0   16.666666666666668
500.0   120.0   0.0
450.0   150.0   0.0
450.0   120.0   16.666666666666668
500.0   120.0   16.666666666666668
450.0   150.0   16.666666666666668
450.0   120.0   33.333333333333336
500.0   120.0   16.666666666666668
500.0   150.0   16.666666666666668
450.0   150.0   16.666666666666668
500.0   150.0   33.333333333333336
450.0   120.0   33.333333333333336
450.0   150.0   33.333333333333336
500.0   150.0   33.333333333333336
450.0   150.0   16.666666666666668
450.0   120.0   33.333333333333336
500.0   150.0   33.333333333333336
500.0   120.0   33.333333333333336
500.0   120.0   16.666666666666668
450.0   120.0   33.333333333333336
500.0   150.0   33.333333333333336
500.0   120.0   16.666666666666668
450.0   150.0   16.666666666666668
450.0   120.0   33.333333333333336
500.0   120.0   33.333333333333336
450.0   150.0   33.333333333333336
450.0   120.0   50.0
500.0   120.0   33.333333333333336
500.0   150.0   33.333333333333336
450.0   150.0   33.333333333333336
500.0   150.0   50.0
450.0   120.0   50.0
450.0   150.0   50.0
500.0   150.0   50.0
450.0   150.0   33.333333333333336
450.0   120.0   50.0
500.0   150.0   50.0
500.0   120.0   50.0
500.0   120.0   33.333333333333336
450.0   120.0   50.0
500.0   150.0   50.0
500.0   120.0   33.333333333333336
450.0   150.0   33.333333333333336
             </DataArray>   
          </Points>  
          <Cells>  
             <DataArray type="Int32" Name="connectivity" format="ascii">   
0   1   2   3
4   5   6   7
8   9   10   11
12   13   14   15
16   17   18   19
20   21   22   23
24   25   26   27
28   29   30   31
32   33   34   35
36   37   38   39
40   41   42   43
44   45   46   47
48   49   50   51
52   53   54   55
56   57   58   59
60   61   62   63
64   65   66   67
68   69   70   71
72   73   74   75
76   77   78   79
80   81   82   83
84   85   86   87
88   89   90   91
92   93   94   95
96   97   98   99
100   101   102   103
104   105   106   107
108   109   110   111
112   113   114   115
116   117   118   119
120   121   122   123
124   125   126   127
128   129   130   131
132   133   134   135
136   137   138   139
140   141   142   143
144   145   146   147
148   149   150   151
152   153   154   155
156   157   158   159
160   161   162   163
164   165   166   167
168   169   170   171
172   173   174   175
176   177   178   179
180   181   182   183
184   185   186   187
188   189   190   191
192   193   194   195
196   197   198   199
200   201   202   203
204   205   206   207
208   209   210   211
212   213   214   215
216   217   218   219
220   221   222   223
224   225   226   227
228   229   230   231
232   233   234   235
236   237   238   239
240   241   242   243
244   245   246   247
248   249   250   251
252   253   254   255
256   257   258   259
260   261   262   263
264   265   266   267
268   269   270   271
272   273   274   275
276   277   278   279
280   281   282   283
284   285   286   287
288   289   290   291
292   293   294   295
296   297   298   299
300   301   302   303
304   305   306   307
308   309   310   311
312   313   314   315
316   317   318   319
320   321   322   323
324   325   326   327
328   329   330   331
332   333   334   335
336   337   338   339
340   341   342   343
344   345   346   347
348   349   350   351
352   353   354   355
356   357   358   359
360   361   362   363
364   365   366   367
368   369   370   371
372   373   374   375
376   377   378   379
380   381   382   383
384   385   386   387
388   389   390   391
392   393   394   395
396   397   398   399
400   401   402   403
404   405   406   407
408   409   410   411
412   413   414   415
416   417   418   419
420   421   422   423
424   425   426   427
428   429   430   431
432   433   434   435
436   437   438   439
440   441   442   443
444   445   446   447
448   449   450   451
452   453   454   455
456   457   458   459
460   461   462   463
464   465   466   467
468   469   470   471
472   473   474   475
476   477   478   479
480   481   482   483
484   485   486   487
488   489   490   491
492   493   494   495
496   497   498   499
500   501   502   503
504   505   506   507
508   509   510   511
512   513   514   515
516   517   518   519
520   521   522   523
524   525   526   527
528   529   530   531
532   533   534   535
536   537   538   539
540   541   542   543
544   545   546   547
548   549   550   551
552   553   554   555
556   557   558   559
560   561   562   563
564   565   566   567
568   569   570   571
572   573   574   575
576   577   578   579
580   581   582   583
584   585   586   587
588   589   590   591
592   593   594   595
596   597   598   599
600   601   602   603
604   605   606   607
608   609   610   611
612   613   614   615
616   617   618   619
620   621   622   623
624   625   626   627
628   629   630   631
632   633   634   635
636   637   638   639
640   641   642   643
644   645   646   647
648   649   650   651
652   653   654   655
656   657   658   659
660   661   662   663
664   665   666   667
668   669   670   671
672   673   674   675
676   677   678   679
680   681   682   683
684   685   686   687
688   689   690   691
692   693   694   695
696   697   698   699
700   701   702   703
704   705   706   707
708   709   710   711
712   713   714   715
716   717   718   719
720   721   722   723
724   725   726   727
728   729   730   731
732   733   734   735
736   737   738   739
740   741   742   743
744   745   746   747
748   749   750   751
752   753   754   755
756   757   758   759
760   761   762   763
764   765   766   767
768   769   770   771
772   773   774   775
776   777   778   779
780   781   782   783
784   785   786   787
788   789   790   791
792   793   794   795
796   797   798   799
800   801   802   803
804   805   806   807
808   809   810   811
812   813   814   815
816   817   818   819
820   821   822   823
824   825   826   827
828   829   830   831
832   833   834   835
836   837   838   839
840   841   842   843
844   845   846   847
848   849   850   851
852   853   854   855
856   857   858   859
860   861   862   863
864   865   866   867
868   869   870   871
872   873   874   875
876   877   878   879
880   881   882   883
884   885   886   887
888   889   890   891
892   893   894   895
896   897   898   899
900   901   902   903
904   905   906   907
908   909   910   911
912   913   914   915
916   917   918   919
920   921   922   923
924   925   926   927
928   929   930   931
932   933   934   935
936   937   938   939
940   941   942   943
944   945   946   947
948   949   950   951
952   953   954   955
956   957   958   959
960   961   962   963
964   965   966   967
968   969   970   971
972   973   974   975
976   977   978   979
980   981   982   983
984   985   986   987
988   989   990   991
992   993   994   995
996   997   998   999
1000   1001   1002   1003
1004   1005   1006   1007
1008   1009   1010   1011
1012   1013   1014   1015
1016   1017   1018   1019
1020   1021   1022   1023
1024   1025   1026   1027
1028   1029   1030   1031
1032   1033   1034   1035
1036   1037   1038   1039
1040   1041   1042   1043
1044   1045   1046   1047
1048   1049   1050   1051
1052   1053   1054   1055
1056   1057   1058   1059
1060   1061   1062   1063
1064   1065   1066   1067
1068   1069   1070   1071
1072   1073   1074   1075
1076   1077   1078   1079
1080   1081   1082   1083
1084   1085   1086   1087
1088   1089   1090   1091
1092   1093   1094   1095
1096   1097   1098   1099
1100   1101   1102   1103
1104   1105   1106   1107
1108   1109   1110   1111
1112   1113   1114   1115
1116   1117   1118   1119
1120   1121   1122   1123
1124   1125   1126   1127
1128   1129   1130   1131
1132   1133   1134   1135
1136   1137   1138   1139
1140   1141   1142   1143
1144   1145   1146   1147
1148   1149   1150   1151
1152   1153   1154   1155
1156   1157   1158   1159
1160   1161   1162   1163
1164   1165   1166   1167
1168   1169   1170   1171
1172   1173   1174   1175
1176   1177   1178   1179
1180   1181   1182   1183
1184   1185   1186   1187
1188   1189   1190   1191
1192   1193   1194   1195
1196   1197   1198   1199
1200   1201   1202   1203
1204   1205   1206   1207
1208   1209   1210   1211
1212   1213   1214   1215
1216   1217   1218   1219
1220   1221   1222   1223
1224   1225   1226   1227
1228   1229   1230   1231
1232   1233   1234   1235
1236   1237   1238   1239
1240   1241   1242   1243
1244   1245   1246   1247
1248   1249   1250   1251
1252   1253   1254   1255
1256   1257   1258   1259
1260   1261   1262   1263
1264   1265   1266   1267
1268   1269   1270   1271
1272   1273   1274   1275
1276   1277   1278   1279
1280   1281   1282   1283
1284   1285   1286   1287
1288   1289   1290   1291
1292   1293   1294   1295
1296   1297   1298   1299
1300   1301   1302   1303
1304   1305   1306   1307
1308   1309   1310   1311
1312   1313   1314   1315
1316   1317   1318   1319
1320   1321   1322   1323
1324   1325   1326   1327
1328   1329   1330   1331
1332   1333   1334   1335
1336   1337   1338   1339
1340   1341   1342   1343
1344   1345   1346   1347
1348   1349   1350   1351
1352   1353   1354   1355
1356   1357   1358   1359
1360   1361   1362   1363
1364   1365   1366   1367
1368   1369   1370   1371
1372   1373   1374   1375
1376   1377   1378   1379
1380   1381   1382   1383
1384   1385   1386   1387
1388   1389   1390   1391
1392   1393   1394   1395
1396   1397   1398   1399
1400   1401   1402   1403
1404   1405   1406   1407
1408   1409   1410   1411
1412   1413   1414   1415
1416   1417   1418   1419
1420   1421   1422   1423
1424   1425   1426   1427
1428   1429   1430   1431
1432   1433   1434   1435
1436   1437   1438   1439
1440   1441   1442   1443
1444   1445   1446   1447
1448   1449   1450   1451
1452   1453   1454   1455
1456   1457   1458   1459
1460   1461   1462   1463
1464   1465   1466   1467
1468   1469   1470   1471
1472   1473   1474   1475
1476   1477   1478   1479
1480   1481   1482   1483
1484   1485   1486   1487
1488   1489   1490   1491
1492   1493   1494   1495
1496   1497   1498   1499
1500   1501   1502   1503
1504   1505   1506   1507
1508   1509   1510   1511
1512   1513   1514   1515
1516   1517   1518   1519
1520   1521   1522   1523
1524   1525   1526   1527
1528   1529   1530   1531
1532   1533   1534   1535
1536   1537   1538   1539
1540   1541   1542   1543
1544   1545   1546   1547
1548   1549   1550   1551
1552   1553   1554   1555
1556   1557   1558   1559
1560   1561   1562   1563
1564   1565   1566   1567
1568   1569   1570   1571
1572   1573   1574   1575
1576   1577   1578   1579
1580   1581   1582   1583
1584   1585   1586   1587
1588   1589   1590   1591
1592   1593   1594   1595
1596   1597   1598   1599
1600   1601   1602   1603
1604   1605   1606   1607
1608   1609   1610   1611
1612   1613   1614   1615
1616   1617   1618   1619
1620   1621   1622   1623
1624   1625   1626   1627
1628   1629   1630   1631
1632   1633   1634   1635
1636   1637   1638   1639
1640   1641   1642   1643
1644   1645   1646   1647
1648   1649   1650   1651
1652   1653   1654   1655
1656   1657   1658   1659
1660   1661   1662   1663
1664   1665   1666   1667
1668   1669   1670   1671
1672   1673   1674   1675
1676   1677   1678   1679
1680   1681   1682   1683
1684   1685   1686   1687
1688   1689   1690   1691
1692   1693   1694   1695
1696   1697   1698   1699
1700   1701   1702   1703
1704   1705   1706   1707
1708   1709   1710   1711
1712   1713   1714   1715
1716   1717   1718   1719
1720   1721   1722   1723
1724   1725   1726   1727
1728   1729   1730   1731
1732   1733   1734   1735
1736   1737   1738   1739
1740   1741   1742   1743
1744   1745   1746   1747
1748   1749   1750   1751
1752   1753   1754   1755
1756   1757   1758   1759
1760   1761   1762   1763
1764   1765   1766   1767
1768   1769   1770   1771
1772   1773   1774   1775
1776   1777   1778   1779
1780   1781   1782   1783
1784   1785   1786   1787
1788   1789   1790   1791
1792   1793   1794   1795
1796   1797   1798   1799
1800   1801   1802   1803
1804   1805   1806   1807
1808   1809   1810   1811
1812   1813   1814   1815
1816   1817   1818   1819
1820   1821   1822   1823
1824   1825   1826   1827
1828   1829   1830   1831
1832   1833   1834   1835
1836   1837   1838   1839
1840   1841   1842   1843
1844   1845   1846   1847
1848   1849   1850   1851
1852   1853   1854   1855
1856   1857   1858   1859
1860   1861   1862   1863
1864   1865   1866   1867
1868   1869   1870   1871
1872   1873   1874   1875
1876   1877   1878   1879
1880   1881   1882   1883
1884   1885   1886   1887
1888   1889   1890   1891
1892   1893   1894   1895
1896   1897   1898   1899
1900   1901   1902   1903
1904   1905   1906   1907
1908   1909   1910   1911
1912   1913   1914   1915
1916   1917   1918   1919
1920   1921   1922   1923
1924   1925   1926   1927
1928   1929   1930   1931
1932   1933   1934   1935
1936   1937   1938   1939
1940   1941   1942   1943
1944   1945   1946   1947
1948   1949   1950   1951
1952   1953   1954   1955
1956   1957   1958   1959
1960   1961   1962   1963
1964   1965   1966   1967
1968   1969   1970   1971
1972   1973   1974   1975
1976   1977   1978   1979
1980   1981   1982   1983
1984   1985   1986   1987
1988   1989   1990   1991
1992   1993   1994   1995
1996   1997   1998   1999
2000   2001   2002   2003
2004   2005   2006   2007
2008   2009   2010   2011
2012   2013   2014   2015
2016   2017   2018   2019
2020   2021   2022   2023
2024   2025   2026   2027
2028   2029   2030   2031
2032   2033   2034   2035
2036   2037   2038   2039
2040   2041   2042   2043
2044   2045   2046   2047
2048   2049   2050   2051
2052   2053   2054   2055
2056   2057   2058   2059
2060   2061   2062   2063
2064   2065   2066   2067
2068   2069   2070   2071
2072   2073   2074   2075
2076   2077   2078   2079
2080   2081   2082   2083
2084   2085   2086   2087
2088   2089   2090   2091
2092   2093   2094   2095
2096   2097   2098   2099
2100   2101   2102   2103
2104   2105   2106   2107
2108   2109   2110   2111
2112   2113   2114   2115
2116   2117   2118   2119
2120   2121   2122   2123
2124   2125   2126   2127
2128   2129   2130   2131
2132   2133   2134   2135
2136   2137   2138   2139
2140   2141   2142   2143
2144   2145   2146   2147
2148   2149   2150   2151
2152   2153   2154   2155
2156   2157   2158   2159
2160   2161   2162   2163
2164   2165   2166   2167
2168   2169   2170   2171
2172   2173   2174   2175
2176   2177   2178   2179
2180   2181   2182   2183
2184   2185   2186   2187
2188   2189   2190   2191
2192   2193   2194   2195
2196   2197   2198   2199
2200   2201   2202   2203
2204   2205   2206   2207
2208   2209   2210   2211
2212   2213   2214   2215
2216   2217   2218   2219
2220   2221   2222   2223
2224   2225   2226   2227
2228   2229   2230   2231
2232   2233   2234   2235
2236   2237   2238   2239
2240   2241   2242   2243
2244   2245   2246   2247
2248   2249   2250   2251
2252   2253   2254   2255
2256   2257   2258   2259
2260   2261   2262   2263
2264   2265   2266   2267
2268   2269   2270   2271
2272   2273   2274   2275
2276   2277   2278   2279
2280   2281   2282   2283
2284   2285   2286   2287
2288   2289   2290   2291
2292   2293   2294   2295
2296   2297   2298   2299
2300   2301   2302   2303
2304   2305   2306   2307
2308   2309   2310   2311
2312   2313   2314   2315
2316   2317   2318   2319
2320   2321   2322   2323
2324   2325   2326   2327
2328   2329   2330   2331
2332   2333   2334   2335
2336   2337   2338   2339
2340   2341   2342   2343
2344   2345   2346   2347
2348   2349   2350   2351
2352   2353   2354   2355
2356   2357   2358   2359
2360   2361   2362   2363
2364   2365   2366   2367
2368   2369   2370   2371
2372   2373   2374   2375
2376   2377   2378   2379
2380   2381   2382   2383
2384   2385   2386   2387
2388   2389   2390   2391
2392   2393   2394   2395
2396   2397   2398   2399
2400   2401   2402   2403
2404   2405   2406   2407
2408   2409   2410   2411
2412   2413   2414   2415
2416   2417   2418   2419
2420   2421   2422   2423
2424   2425   2426   2427
2428   2429   2430   2431
2432   2433   2434   2435
2436   2437   2438   2439
2440   2441   2442   2443
2444   2445   2446   2447
2448   2449   2450   2451
2452   2453   2454   2455
2456   2457   2458   2459
2460   2461   2462   2463
2464   2465   2466   2467
2468   2469   2470   2471
2472   2473   2474   2475
2476   2477   2478   2479
2480   2481   2482   2483
2484   2485   2486   2487
2488   2489   2490   2491
2492   2493   2494   2495
2496   2497   2498   2499
2500   2501   2502   2503
2504   2505   2506   2507
2508   2509   2510   2511
2512   2513   2514   2515
2516   2517   2518   2519
2520   2521   2522   2523
2524   2525   2526   2527
2528   2529   2530   2531
2532   2533   2534   2535
2536   2537   2538   2539
2540   2541   2542   2543
2544   2545   2546   2547
2548   2549   2550   2551
2552   2553   2554   2555
2556   2557   2558   2559
2560   2561   2562   2563
2564   2565   2566   2567
2568   2569   2570   2571
2572   2573   2574   2575
2576   2577   2578   2579
2580   2581   2582   2583
2584   2585   2586   2587
2588   2589   2590   2591
2592   2593   2594   2595
2596   2597   2598   2599
2600   2601   2602   2603
2604   2605   2606   2607
2608   2609   2610   2611
2612   2613   2614   2615
2616   2617   2618   2619
2620   2621   2622   2623
2624   2625   2626   2627
2628   2629   2630   2631
2632   2633   2634   2635
2636   2637   2638   2639
2640   2641   2642   2643
2644   2645   2646   2647
2648   2649   2650   2651
2652   2653   2654   2655
2656   2657   2658   2659
2660   2661   2662   2663
2664   2665   2666   2667
2668   2669   2670   2671
2672   2673   2674   2675
2676   2677   2678   2679
2680   2681   2682   2683
2684   2685   2686   2687
2688   2689   2690   2691
2692   2693   2694   2695
2696   2697   2698   2699
2700   2701   2702   2703
2704   2705   2706   2707
2708   2709   2710   2711
2712   2713   2714   2715
2716   2717   2718   2719
2720   2721   2722   2723
2724   2725   2726   2727
2728   2729   2730   2731
2732   2733   2734   2735
2736   2737   2738   2739
2740   2741   2742   2743
2744   2745   2746   2747
2748   2749   2750   2751
2752   2753   2754   2755
2756   2757   2758   2759
2760   2761   2762   2763
2764   2765   2766   2767
2768   2769   2770   2771
2772   2773   2774   2775
2776   2777   2778   2779
2780   2781   2782   2783
2784   2785   2786   2787
2788   2789   2790   2791
2792   2793   2794   2795
2796   2797   2798   2799
2800   2801   2802   2803
2804   2805   2806   2807
2808   2809   2810   2811
2812   2813   2814   2815
2816   2817   2818   2819
2820   2821   2822   2823
2824   2825   2826   2827
2828   2829   2830   2831
2832   2833   2834   2835
2836   2837   2838   2839
2840   2841   2842   2843
2844   2845   2846   2847
2848   2849   2850   2851
2852   2853   2854   2855
2856   2857   2858   2859
2860   2861   2862   2863
2864   2865   2866   2867
2868   2869   2870   2871
2872   2873   2874   2875
2876   2877   2878   2879
2880   2881   2882   2883
2884   2885   2886   2887
2888   2889   2890   2891
2892   2893   2894   2895
2896   2897   2898   2899
2900   2901   2902   2903
2904   2905   2906   2907
2908   2909   2910   2911
2912   2913   2914   2915
2916   2917   2918   2919
2920   2921   2922   2923
2924   2925   2926   2927
2928   2929   2930   2931
2932   2933   2934   2935
2936   2937   2938   2939
2940   2941   2942   2943
2944   2945   2946   2947
2948   2949   2950   2951
2952   2953   2954   2955
2956   2957   2958   2959
2960   2961   2962   2963
2964   2965   2966   2967
2968   2969   2970   2971
2972   2973   2974   2975
2976   2977   2978   2979
2980   2981   2982   2983
2984   2985   2986   2987
2988   2989   2990   2991
2992   2993   2994   2995
2996   2997   2998   2999
3000   3001   3002   3003
3004   3005   3006   3007
3008   3009   3010   3011
3012   3013   3014   3015
3016   3017   3018   3019
3020   3021   3022   3023
3024   3025   3026   3027
3028   3029   3030   3031
3032   3033   3034   3035
3036   3037   3038   3039
3040   3041   3042   3043
3044   3045   3046   3047
3048   3049   3050   3051
3052   3053   3054   3055
3056   3057   3058   3059
3060   3061   3062   3063
3064   3065   3066   3067
3068   3069   3070   3071
3072   3073   3074   3075
3076   3077   3078   3079
3080   3081   3082   3083
3084   3085   3086   3087
3088   3089   3090   3091
3092   3093   3094   3095
3096   3097   3098   3099
3100   3101   3102   3103
3104   3105   3106   3107
3108   3109   3110   3111
3112   3113   3114   3115
3116   3117   3118   3119
3120   3121   3122   3123
3124   3125   3126   3127
3128   3129   3130   3131
3132   3133   3134   3135
3136   3137   3138   3139
3140   3141   3142   3143
3144   3145   3146   3147
3148   3149   3150   3151
3152   3153   3154   3155
3156   3157   3158   3159
3160   3161   3162   3163
3164   3165   3166   3167
3168   3169   3170   3171
3172   3173   3174   3175
3176   3177   3178   3179
3180   3181   3182   3183
3184   3185   3186   3187
3188   3189   3190   3191
3192   3193   3194   3195
3196   3197   3198   3199
3200   3201   3202   3203
3204   3205   3206   3207
3208   3209   3210   3211
3212   3213   3214   3215
3216   3217   3218   3219
3220   3221   3222   3223
3224   3225   3226   3227
3228   3229   3230   3231
3232   3233   3234   3235
3236   3237   3238   3239
3240   3241   3242   3243
3244   3245   3246   3247
3248   3249   3250   3251
3252   3253   3254   3255
3256   3257   3258   3259
3260   3261   3262   3263
3264   3265   3266   3267
3268   3269   3270   3271
3272   3273   3274   3275
3276   3277   3278   3279
3280   3281   3282   3283
3284   3285   3286   3287
3288   3289   3290   3291
3292   3293   3294   3295
3296   3297   3298   3299
3300   3301   3302   3303
3304   3305   3306   3307
3308   3309   3310   3311
3312   3313   3314   3315
3316   3317   3318   3319
3320   3321   3322   3323
3324   3325   3326   3327
3328   3329   3330   3331
3332   3333   3334   3335
3336   3337   3338   3339
3340   3341   3342   3343
3344   3345   3346   3347
3348   3349   3350   3351
3352   3353   3354   3355
3356   3357   3358   3359
3360   3361   3362   3363
3364   3365   3366   3367
3368   3369   3370   3371
3372   3373   3374   3375
3376   3377   3378   3379
3380   3381   3382   3383
3384   3385   3386   3387
3388   3389   3390   3391
3392   3393   3394   3395
3396   3397   3398   3399
3400   3401   3402   3403
3404   3405   3406   3407
3408   3409   3410   3411
3412   3413   3414   3415
3416   3417   3418   3419
3420   3421   3422   3423
3424   3425   3426   3427
3428   3429   3430   3431
3432   3433   3434   3435
3436   3437   3438   3439
3440   3441   3442   3443
3444   3445   3446   3447
3448   3449   3450   3451
3452   3453   3454   3455
3456   3457   3458   3459
3460   3461   3462   3463
3464   3465   3466   3467
3468   3469   3470   3471
3472   3473   3474   3475
3476   3477   3478   3479
3480   3481   3482   3483
3484   3485   3486   3487
3488   3489   3490   3491
3492   3493   3494   3495
3496   3497   3498   3499
3500   3501   3502   3503
3504   3505   3506   3507
3508   3509   3510   3511
3512   3513   3514   3515
3516   3517   3518   3519
3520   3521   3522   3523
3524   3525   3526   3527
3528   3529   3530   3531
3532   3533   3534   3535
3536   3537   3538   3539
3540   3541   3542   3543
3544   3545   3546   3547
3548   3549   3550   3551
3552   3553   3554   3555
3556   3557   3558   3559
3560   3561   3562   3563
3564   3565   3566   3567
3568   3569   3570   3571
3572   3573   3574   3575
3576   3577   3578   3579
3580   3581   3582   3583
3584   3585   3586   3587
3588   3589   3590   3591
3592   3593   3594   3595
3596   3597   3598   3599
3600   3601   3602   3603
3604   3605   3606   3607
3608   3609   3610   3611
3612   3613   3614   3615
3616   3617   3618   3619
3620   3621   3622   3623
3624   3625   3626   3627
3628   3629   3630   3631
3632   3633   3634   3635
3636   3637   3638   3639
3640   3641   3642   3643
3644   3645   3646   3647
3648   3649   3650   3651
3652   3653   3654   3655
3656   3657   3658   3659
3660   3661   3662   3663
3664   3665   3666   3667
3668   3669   3670   3671
3672   3673   3674   3675
3676   3677   3678   3679
3680   3681   3682   3683
3684   3685   3686   3687
3688   3689   3690   3691
3692   3693   3694   3695
3696   3697   3698   3699
3700   3701   3702   3703
3704   3705   3706   3707
3708   3709   3710   3711
3712   3713   3714   3715
3716   3717   3718   3719
3720   3721   3722   3723
3724   3725   3726   3727
3728   3729   3730   3731
3732   3733   3734   3735
3736   3737   3738   3739
3740   3741   3742   3743
3744   3745   3746   3747
3748   3749   3750   3751
3752   3753   3754   3755
3756   3757   3758   3759
3760   3761   3762   3763
3764   3765   3766   3767
3768   3769   3770   3771
3772   3773   3774   3775
3776   3777   3778   3779
3780   3781   3782   3783
3784   3785   3786   3787
3788   3789   3790   3791
3792   3793   3794   3795
3796   3797   3798   3799
3800   3801   3802   3803
3804   3805   3806   3807
3808   3809   3810   3811
3812   3813   3814   3815
3816   3817   3818   3819
3820   3821   3822   3823
3824   3825   3826   3827
3828   3829   3830   3831
3832   3833   3834   3835
3836   3837   3838   3839
3840   3841   3842   3843
3844   3845   3846   3847
3848   3849   3850   3851
3852   3853   3854   3855
3856   3857   3858   3859
3860   3861   3862   3863
3864   3865   3866   3867
3868   3869   3870   3871
3872   3873   3874   3875
3876   3877   3878   3879
3880   3881   3882   3883
3884   3885   3886   3887
3888   3889   3890   3891
3892   3893   3894   3895
3896   3897   3898   3899
3900   3901   3902   3903
3904   3905   3906   3907
3908   3909   3910   3911
3912   3913   3914   3915
3916   3917   3918   3919
3920   3921   3922   3923
3924   3925   3926   3927
3928   3929   3930   3931
3932   3933   3934   3935
3936   3937   3938   3939
3940   3941   3942   3943
3944   3945   3946   3947
3948   3949   3950   3951
3952   3953   3954   3955
3956   3957   3958   3959
3960   3961   3962   3963
3964   3965   3966   3967
3968   3969   3970   3971
3972   3973   3974   3975
3976   3977   3978   3979
3980   3981   3982   3983
3984   3985   3986   3987
3988   3989   3990   3991
3992   3993   3994   3995
3996   3997   3998   3999
4000   4001   4002   4003
4004   4005   4006   4007
4008   4009   4010   4011
4012   4013   4014   4015
4016   4017   4018   4019
4020   4021   4022   4023
4024   4025   4026   4027
4028   4029   4030   4031
4032   4033   4034   4035
4036   4037   4038   4039
4040   4041   4042   4043
4044   4045   4046   4047
4048   4049   4050   4051
4052   4053   4054   4055
4056   4057   4058   4059
4060   4061   4062   4063
4064   4065   4066   4067
4068   4069   4070   4071
4072   4073   4074   4075
4076   4077   4078   4079
4080   4081   4082   4083
4084   4085   4086   4087
4088   4089   4090   4091
4092   4093   4094   4095
4096   4097   4098   4099
4100   4101   4102   4103
4104   4105   4106   4107
4108   4109   4110   4111
4112   4113   4114   4115
4116   4117   4118   4119
4120   4121   4122   4123
4124   4125   4126   4127
4128   4129   4130   4131
4132   4133   4134   4135
4136   4137   4138   4139
4140   4141   4142   4143
4144   4145   4146   4147
4148   4149   4150   4151
4152   4153   4154   4155
4156   4157   4158   4159
4160   4161   4162   4163
4164   4165   4166   4167
4168   4169   4170   4171
4172   4173   4174   4175
4176   4177   4178   4179
4180   4181   4182   4183
4184   4185   4186   4187
4188   4189   4190   4191
4192   4193   4194   4195
4196   4197   4198   4199
4200   4201   4202   4203
4204   4205   4206   4207
4208   4209   4210   4211
4212   4213   4214   4215
4216   4217   4218   4219
4220   4221   4222   4223
4224   4225   4226   4227
4228   4229   4230   4231
4232   4233   4234   4235
4236   4237   4238   4239
4240   4241   4242   4243
4244   4245   4246   4247
4248   4249   4250   4251
4252   4253   4254   4255
4256   4257   4258   4259
4260   4261   4262   4263
4264   4265   4266   4267
4268   4269   4270   4271
4272   4273   4274   4275
4276   4277   4278   4279
4280   4281   4282   4283
4284   4285   4286   4287
4288   4289   4290   4291
4292   4293   4294   4295
4296   4297   4298   4299
4300   4301   4302   4303
4304   4305   4306   4307
4308   4309   4310   4311
4312   4313   4314   4315
4316   4317   4318   4319
4320   4321   4322   4323
4324   4325   4326   4327
4328   4329   4330   4331
4332   4333   4334   4335
4336   4337   4338   4339
4340   4341   4342   4343
4344   4345   4346   4347
4348   4349   4350   4351
4352   4353   4354   4355
4356   4357   4358   4359
4360   4361   4362   4363
4364   4365   4366   4367
4368   4369   4370   4371
4372   4373   4374   4375
4376   4377   4378   4379
4380   4381   4382   4383
4384   4385   4386   4387
4388   4389   4390   4391
4392   4393   4394   4395
4396   4397   4398   4399
4400   4401   4402   4403
4404   4405   4406   4407
4408   4409   4410   4411
4412   4413   4414   4415
4416   4417   4418   4419
4420   4421   4422   4423
4424   4425   4426   4427
4428   4429   4430   4431
4432   4433   4434   4435
4436   4437   4438   4439
4440   4441   4442   4443
4444   4445   4446   4447
4448   4449   4450   4451
4452   4453   4454   4455
4456   4457   4458   4459
4460   4461   4462   4463
4464   4465   4466   4467
4468   4469   4470   4471
4472   4473   4474   4475
4476   4477   4478   4479
4480   4481   4482   4483
4484   4485   4486   4487
4488   4489   4490   4491
4492   4493   4494   4495
4496   4497   4498   4499
4500   4501   4502   4503
4504   4505   4506   4507
4508   4509   4510   4511
4512   4513   4514   4515
4516   4517   4518   4519
4520   4521   4522   4523
4524   4525   4526   4527
4528   4529   4530   4531
4532   4533   4534   4535
4536   4537   4538   4539
4540   4541   4542   4543
4544   4545   4546   4547
4548   4549   4550   4551
4552   4553   4554   4555
4556   4557   4558   4559
4560   4561   4562   4563
4564   4565   4566   4567
4568   4569   4570   4571
4572   4573   4574   4575
4576   4577   4578   4579
4580   4581   4582   4583
4584   4585   4586   4587
4588   4589   4590   4591
4592   4593   4594   4595
4596   4597   4598   4599
4600   4601   4602   4603
4604   4605   4606   4607
4608   4609   4610   4611
4612   4613   4614   4615
4616   4617   4618   4619
4620   4621   4622   4623
4624   4625   4626   4627
4628   4629   4630   4631
4632   4633   4634   4635
4636   4637   4638   4639
4640   4641   4642   4643
4644   4645   4646   4647
4648   4649   4650   4651
4652   4653   4654   4655
4656   4657   4658   4659
4660   4661   4662   4663
4664   4665   4666   4667
4668   4669   4670   4671
4672   4673   4674   4675
4676   4677   4678   4679
4680   4681   4682   4683
4684   4685   4686   4687
4688   4689   4690   4691
4692   4693   4694   4695
4696   4697   4698   4699
4700   4701   4702   4703
4704   4705   4706   4707
4708   4709   4710   4711
4712   4713   4714   4715
4716   4717   4718   4719
4720   4721   4722   4723
4724   4725   4726   4727
4728   4729   4730   4731
4732   4733   4734   4735
4736   4737   4738   4739
4740   4741   4742   4743
4744   4745   4746   4747
4748   4749   4750   4751
4752   4753   4754   4755
4756   4757   4758   4759
4760   4761   4762   4763
4764   4765   4766   4767
4768   4769   4770   4771
4772   4773   4774   4775
4776   4777   4778   4779
4780   4781   4782   4783
4784   4785   4786   4787
4788   4789   4790   4791
4792   4793   4794   4795
4796   4797   4798   4799
4800   4801   4802   4803
4804   4805   4806   4807
4808   4809   4810   4811
4812   4813   4814   4815
4816   4817   4818   4819
4820   4821   4822   4823
4824   4825   4826   4827
4828   4829   4830   4831
4832   4833   4834   4835
4836   4837   4838   4839
4840   4841   4842   4843
4844   4845   4846   4847
4848   4849   4850   4851
4852   4853   4854   4855
4856   4857   4858   4859
4860   4861   4862   4863
4864   4865   4866   4867
4868   4869   4870   4871
4872   4873   4874   4875
4876   4877   4878   4879
4880   4881   4882   4883
4884   4885   4886   4887
4888   4889   4890   4891
4892   4893   4894   4895
4896   4897   4898   4899
4900   4901   4902   4903
4904   4905   4906   4907
4908   4909   4910   4911
4912   4913   4914   4915
4916   4917   4918   4919
4920   4921   4922   4923
4924   4925   4926   4927
4928   4929   4930   4931
4932   4933   4934   4935
4936   4937   4938   4939
4940   4941   4942   4943
4944   4945   4946   4947
4948   4949   4950   4951
4952   4953   4954   4955
4956   4957   4958   4959
4960   4961   4962   4963
4964   4965   4966   4967
4968   4969   4970   4971
4972   4973   4974   4975
4976   4977   4978   4979
4980   4981   4982   4983
4984   4985   4986   4987
4988   4989   4990   4991
4992   4993   4994   4995
4996   4997   4998   4999
5000   5001   5002   5003
5004   5005   5006   5007
5008   5009   5010   5011
5012   5013   5014   5015
5016   5017   5018   5019
5020   5021   5022   5023
5024   5025   5026   5027
5028   5029   5030   5031
5032   5033   5034   5035
5036   5037   5038   5039
5040   5041   5042   5043
5044   5045   5046   5047
5048   5049   5050   5051
5052   5053   5054   5055
5056   5057   5058   5059
5060   5061   5062   5063
5064   5065   5066   5067
5068   5069   5070   5071
5072   5073   5074   5075
5076   5077   5078   5079
5080   5081   5082   5083
5084   5085   5086   5087
5088   5089   5090   5091
5092   5093   5094   5095
5096   5097   5098   5099
5100   5101   5102   5103
5104   5105   5106   5107
5108   5109   5110   5111
5112   5113   5114   5115
5116   5117   5118   5119
5120   5121   5122   5123
5124   5125   5126   5127
5128   5129   5130   5131
5132   5133   5134   5135
5136   5137   5138   5139
5140   5141   5142   5143
5144   5145   5146   5147
5148   5149   5150   5151
5152   5153   5154   5155
5156   5157   5158   5159
5160   5161   5162   5163
5164   5165   5166   5167
5168   5169   5170   5171
5172   5173   5174   5175
5176   5177   5178   5179
5180   5181   5182   5183
5184   5185   5186   5187
5188   5189   5190   5191
5192   5193   5194   5195
5196   5197   5198   5199
5200   5201   5202   5203
5204   5205   5206   5207
5208   5209   5210   5211
5212   5213   5214   5215
5216   5217   5218   5219
5220   5221   5222   5223
5224   5225   5226   5227
5228   5229   5230   5231
5232   5233   5234   5235
5236   5237   5238   5239
5240   5241   5242   5243
5244   5245   5246   5247
5248   5249   5250   5251
5252   5253   5254   5255
5256   5257   5258   5259
5260   5261   5262   5263
5264   5265   5266   5267
5268   5269   5270   5271
5272   5273   5274   5275
5276   5277   5278   5279
5280   5281   5282   5283
5284   5285   5286   5287
5288   5289   5290   5291
5292   5293   5294   5295
5296   5297   5298   5299
5300   5301   5302   5303
5304   5305   5306   5307
5308   5309   5310   5311
5312   5313   5314   5315
5316   5317   5318   5319
5320   5321   5322   5323
5324   5325   5326   5327
5328   5329   5330   5331
5332   5333   5334   5335
5336   5337   5338   5339
5340   5341   5342   5343
5344   5345   5346   5347
5348   5349   5350   5351
5352   5353   5354   5355
5356   5357   5358   5359
5360   5361   5362   5363
5364   5365   5366   5367
5368   5369   5370   5371
5372   5373   5374   5375
5376   5377   5378   5379
5380   5381   5382   5383
5384   5385   5386   5387
5388   5389   5390   5391
5392   5393   5394   5395
5396   5397   5398   5399
5400   5401   5402   5403
5404   5405   5406   5407
5408   5409   5410   5411
5412   5413   5414   5415
5416   5417   5418   5419
5420   5421   5422   5423
5424   5425   5426   5427
5428   5429   5430   5431
5432   5433   5434   5435
5436   5437   5438   5439
5440   5441   5442   5443
5444   5445   5446   5447
5448   5449   5450   5451
5452   5453   5454   5455
5456   5457   5458   5459
5460   5461   5462   5463
5464   5465   5466   5467
5468   5469   5470   5471
5472   5473   5474   5475
5476   5477   5478   5479
5480   5481   5482   5483
5484   5485   5486   5487
5488   5489   5490   5491
5492   5493   5494   5495
5496   5497   5498   5499
5500   5501   5502   5503
5504   5505   5506   5507
5508   5509   5510   5511
5512   5513   5514   5515
5516   5517   5518   5519
5520   5521   5522   5523
5524   5525   5526   5527
5528   5529   5530   5531
5532   5533   5534   5535
5536   5537   5538   5539
5540   5541   5542   5543
5544   5545   5546   5547
5548   5549   5550   5551
5552   5553   5554   5555
5556   5557   5558   5559
5560   5561   5562   5563
5564   5565   5566   5567
5568   5569   5570   5571
5572   5573   5574   5575
5576   5577   5578   5579
5580   5581   5582   5583
5584   5585   5586   5587
5588   5589   5590   5591
5592   5593   5594   5595
5596   5597   5598   5599
5600   5601   5602   5603
5604   5605   5606   5607
5608   5609   5610   5611
5612   5613   5614   5615
5616   5617   5618   5619
5620   5621   5622   5623
5624   5625   5626   5627
5628   5629   5630   5631
5632   5633   5634   5635
5636   5637   5638   5639
5640   5641   5642   5643
5644   5645   5646   5647
5648   5649   5650   5651
5652   5653   5654   5655
5656   5657   5658   5659
5660   5661   5662   5663
5664   5665   5666   5667
5668   5669   5670   5671
5672   5673   5674   5675
5676   5677   5678   5679
5680   5681   5682   5683
5684   5685   5686   5687
5688   5689   5690   5691
5692   5693   5694   5695
5696   5697   5698   5699
5700   5701   5702   5703
5704   5705   5706   5707
5708   5709   5710   5711
5712   5713   5714   5715
5716   5717   5718   5719
5720   5721   5722   5723
5724   5725   5726   5727
5728   5729   5730   5731
5732   5733   5734   5735
5736   5737   5738   5739
5740   5741   5742   5743
5744   5745   5746   5747
5748   5749   5750   5751
5752   5753   5754   5755
5756   5757   5758   5759
5760   5761   5762   5763
5764   5765   5766   5767
5768   5769   5770   5771
5772   5773   5774   5775
5776   5777   5778   5779
5780   5781   5782   5783
5784   5785   5786   5787
5788   5789   5790   5791
5792   5793   5794   5795
5796   5797   5798   5799
5800   5801   5802   5803
5804   5805   5806   5807
5808   5809   5810   5811
5812   5813   5814   5815
5816   5817   5818   5819
5820   5821   5822   5823
5824   5825   5826   5827
5828   5829   5830   5831
5832   5833   5834   5835
5836   5837   5838   5839
5840   5841   5842   5843
5844   5845   5846   5847
5848   5849   5850   5851
5852   5853   5854   5855
5856   5857   5858   5859
5860   5861   5862   5863
5864   5865   5866   5867
5868   5869   5870   5871
5872   5873   5874   5875
5876   5877   5878   5879
5880   5881   5882   5883
5884   5885   5886   5887
5888   5889   5890   5891
5892   5893   5894   5895
5896   5897   5898   5899
5900   5901   5902   5903
5904   5905   5906   5907
5908   5909   5910   5911
5912   5913   5914   5915
5916   5917   5918   5919
5920   5921   5922   5923
5924   5925   5926   5927
5928   5929   5930   5931
5932   5933   5934   5935
5936   5937   5938   5939
5940   5941   5942   5943
5944   5945   5946   5947
5948   5949   5950   5951
5952   5953   5954   5955
5956   5957   5958   5959
5960   5961   5962   5963
5964   5965   5966   5967
5968   5969   5970   5971
5972   5973   5974   5975
5976   5977   5978   5979
5980   5981   5982   5983
5984   5985   5986   5987
5988   5989   5990   5991
5992   5993   5994   5995
5996   5997   5998   5999
              </DataArray>   
              <DataArray type="Int32" Name="offsets" format="ascii">   
4
8
12
16
20
24
28
32
36
40
44
48
52
56
60
64
68
72
76
80
84
88
92
96
100
104
108
112
116
120
124
128
132
136
140
144
148
152
156
160
164
168
172
176
180
184
188
192
196
200
204
208
212
216
220
224
228
232
236
240
244
248
252
256
260
264
268
272
276
280
284
288
292
296
300
304
308
312
316
320
324
328
332
336
340
344
348
352
356
360
364
368
372
376
380
384
388
392
396
400
404
408
412
416
420
424
428
432
436
440
444
448
452
456
460
464
468
472
476
480
484
488
492
496
500
504
508
512
516
520
524
528
532
536
540
544
548
552
556
560
564
568
572
576
580
584
588
592
596
600
604
608
612
616
620
624
628
632
636
640
644
648
652
656
660
664
668
672
676
680
684
688
692
696
700
704
708
712
716
720
724
728
732
736
740
744
748
752
756
760
764
768
772
776
780
784
788
792
796
800
804
808
812
816
820
824
828
832
836
840
844
848
852
856
860
864
868
872
876
880
884
888
892
896
900
904
908
912
916
920
924
928
932
936
940
944
948
952
956
960
964
968
972
976
980
984
988
992
996
1000
1004
1008
1012
1016
1020
1024
1028
1032
1036
1040
1044
1048
1052
1056
1060
1064
1068
1072
1076
1080
1084
1088
1092
1096
1100
1104
1108
1112
1116
1120
1124
1128
1132
1136
1140
1144
1148
1152
1156
1160
1164
1168
1172
1176
1180
1184
1188
1192
1196
1200
1204
1208
1212
1216
1220
1224
1228
1232
1236
1240
1244
1248
1252
1256
1260
1264
1268
1272
1276
1280
1284
1288
1292
1296
1300
1304
1308
1312
1316
1320
1324
1328
1332
1336
1340
1344
1348
1352
1356
1360
1364
1368
1372
1376
1380
1384
1388
1392
1396
1400
1404
1408
1412
1416
1420
1424
1428
1432
1436
1440
1444
1448
1452
1456
1460
1464
1468
1472
1476
1480
1484
1488
1492
1496
1500
1504
1508
1512
1516
1520
1524
1528
1532
1536
1540
1544
1548
1552
1556
1560
1564
1568
1572
1576
1580
1584
1588
1592
1596
1600
1604
1608
1612
1616
1620
1624
1628
1632
1636
1640
1644
1648
1652
1656
1660
1664
1668
1672
1676
1680
1684
1688
1692
1696
1700
1704
1708
1712
1716
1720
1724
1728
1732
1736
1740
1744
1748
1752
1756
1760
1764
1768
1772
1776
1780
1784
1788
1792
1796
1800
1804
1808
1812
1816
1820
1824
1828
1832
1836
1840
1844
1848
1852
1856
1860
1864
1868
1872
1876
1880
1884
1888
1892
1896
1900
1904
1908
1912
1916
1920
1924
1928
1932
1936
1940
1944
1948
1952
1956
1960
1964
1968
1972
1976
1980
1984
1988
1992
1996
2000
2004
2008
2012
2016
2020
2024
2028
2032
2036
2040
2044
2048
2052
2056
2060
2064
2068
2072
2076
2080
2084
2088
2092
2096
2100
2104
2108
2112
2116
2120
2124
2128
2132
2136
2140
2144
2148
2152
2156
2160
2164
2168
2172
2176
2180
2184
2188
2192
2196
2200
2204
2208
2212
2216
2220
2224
2228
2232
2236
2240
2244
2248
2252
2256
2260
2264
2268
2272
2276
2280
2284
2288
2292
2296
2300
2304
2308
2312
2316
2320
2324
2328
2332
2336
2340
2344
2348
2352
2356
2360
2364
2368
2372
2376
2380
2384
2388
2392
2396
2400
2404
2408
2412
2416
2420
2424
2428
2432
2436
2440
2444
2448
2452
2456
2460
2464
2468
2472
2476
2480
2484
2488
2492
2496
2500
2504
2508
2512
2516
2520
2524
2528
2532
2536
2540
2544
2548
2552
2556
2560
2564
2568
2572
2576
2580
2584
2588
2592
2596
2600
2604
2608
2612
2616
2620
2624
2628
2632
2636
2640
2644
2648
2652
2656
2660
2664
2668
2672
2676
2680
2684
2688
2692
2696
2700
2704
2708
2712
2716
2720
2724
2728
2732
2736
2740
2744
2748
2752
2756
2760
2764
2768
2772
2776
2780
2784
2788
2792
2796
2800
2804
2808
2812
2816
2820
2824
2828
2832
2836
2840
2844
2848
2852
2856
2860
2864
2868
2872
2876
2880
2884
2888
2892
2896
2900
2904
2908
2912
2916
2920
2924
2928
2932
2936
2940
2944
2948
2952
2956
2960
2964
2968
2972
2976
2980
2984
2988
2992
2996
3000
3004
3008
3012
3016
3020
3024
3028
3032
3036
3040
3044
3048
3052
3056
3060
3064
3068
3072
3076
3080
3084
3088
3092
3096
3100
3104
3108
3112
3116
3120
3124
3128
3132
3136
3140
3144
3148
3152
3156
3160
3164
3168
3172
3176
3180
3184
3188
3192
3196
3200
3204
3208
3212
3216
3220
3224
3228
3232
3236
3240
3244
3248
3252
3256
3260
3264
3268
3272
3276
3280
3284
3288
3292
3296
3300
3304
3308
3312
3316
3320
3324
3328
3332
3336
3340
3344
3348
3352
3356
3360
3364
3368
3372
3376
3380
3384
3388
3392
3396
3400
3404
3408
3412
3416
3420
3424
3428
3432
3436
3440
3444
3448
3452
3456
3460
3464
3468
3472
3476
3480
3484
3488
3492
3496
3500
3504
3508
3512
3516
3520
3524
3528
3532
3536
3540
3544
3548
3552
3556
3560
3564
3568
3572
3576
3580
3584
3588
3592
3596
3600
3604
3608
3612
3616
3620
3624
3628
3632
3636
3640
3644
3648
3652
3656
3660
3664
3668
3672
3676
3680
3684
3688
3692
3696
3700
3704
3708
3712
3716
3720
3724
3728
3732
3736
3740
3744
3748
3752
3756
3760
3764
3768
3772
3776
3780
3784
3788
3792
3796
3800
3804
3808
3812
3816
3820
3824
3828
3832
3836
3840
3844
3848
3852
3856
3860
3864
3868
3872
3876
3880
3884
3888
3892
3896
3900
3904
3908
3912
3916
3920
3924
3928
3932
3936
3940
3944
3948
3952
3956
3960
3964
3968
3972
3976
3980
3984
3988
3992
3996
4000
4004
4008
4012
4016
4020
4024
4028
4032
4036
4040
4044
4048
4052
4056
4060
4064
4068
4072
4076
4080
4084
4088
4092
4096
4100
4104
4108
4112
4116
4120
4124
4128
4132
4136
4140
4144
4148
4152
4156
4160
4164
4168
4172
4176
4180
4184
4188
4192
4196
4200
4204
4208
4212
4216
4220
4224
4228
4232
4236
4240
4244
4248
4252
4256
4260
4264
4268
4272
4276
4280
4284
4288
4292
4296
4300
4304
4308
4312
4316
4320
4324
4328
4332
4336
4340
4344
4348
4352
4356
4360
4364
4368
4372
4376
4380
4384
4388
4392
4396
4400
4404
4408
4412
4416
4420
4424
4428
4432
4436
4440
4444
4448
4452
4456
4460
4464
4468
4472
4476
4480
4484
4488
4492
4496
4500
4504
4508
4512
4516
4520
4524
4528
4532
4536
4540
4544
4548
4552
4556
4560
4564
4568
4572
4576
4580
4584
4588
4592
4596
4600
4604
4608
4612
4616
4620
4624
4628
4632
4636
4640
4644
4648
4652
4656
4660
4664
4668
4672
4676
4680
4684
4688
4692
4696
4700
4704
4708
4712
4716
4720
4724
4728
4732
4736
4740
4744
4748
4752
4756
4760
4764
4768
4772
4776
4780
4784
4788
4792
4796
4800
4804
4808
4812
4816
4820
4824
4828
4832
4836
4840
4844
4848
4852
4856
4860
4864
4868
4872
4876
4880
4884
4888
4892
4896
4900
4904
4908
4912
4916
4920
4924
4928
4932
4936
4940
4944
4948
4952
4956
4960
4964
4968
4972
4976
4980
4984
4988
4992
4996
5000
5004
5008
5012
5016
5020
5024
5028
5032
5036
5040
5044
5048
5052
5056
5060
5064
5068
5072
5076
5080
5084
5088
5092
5096
5100
5104
5108
5112
5116
5120
5124
5128
5132
5136
5140
5144
5148
5152
5156
5160
5164
5168
5172
5176
5180
5184
5188
5192
5196
5200
5204
5208
5212
5216
5220
5224
5228
5232
5236
5240
5244
5248
5252
5256
5260
5264
5268
5272
5276
5280
5284
5288
5292
5296
5300
5304
5308
5312
5316
5320
5324
5328
5332
5336
5340
5344
5348
5352
5356
5360
5364
5368
5372
5376
5380
5384
5388
5392
5396
5400
5404
5408
5412
5416
5420
5424
5428
5432
5436
5440
5444
5448
5452
5456
5460
5464
5468
5472
5476
5480
5484
5488
5492
5496
5500
5504
5508
5512
5516
5520
5524
5528
5532
5536
5540
5544
5548
5552
5556
5560
5564
5568
5572
5576
5580
5584
5588
5592
5596
5600
5604
5608
5612
5616
5620
5624
5628
5632
5636
5640
5644
5648
5652
5656
5660
5664
5668
5672
5676
5680
5684
5688
5692
5696
5700
5704
5708
5712
5716
5720
5724
5728
5732
5736
5740
5744
5748
5752
5756
5760
5764
5768
5772
5776
5780
5784
5788
5792
5796
5800
5804
5808
5812
5816
5820
5824
5828
5832
5836
5840
5844
5848
5852
5856
5860
5864
5868
5872
5876
5880
5884
5888
5892
5896
5900
5904
5908
5912
5916
5920
5924
5928
5932
5936
5940
5944
5948
5952
5956
5960
5964
5968
5972
5976
5980
5984
5988
5992
5996
6000
              </DataArray>   
              <DataArray type="UInt8" Name="types" format="ascii">   
10
10
10
10
10
10
10
10
10
10
10
10
10
10
10
10
10
10
10
10
10
10
10
10
10
10
10
10
10
10
10
10
10
10
10
10
10
10
10
10
10
10
10
10
10
10
10
10
10
10
10
10
10
10
10
10
10
10
10
10
10
10
10
10
10
10
10
10
10
10
10
10
10
10
10
10
10
10
10
10
10
10
10
10
10
10
10
10
10
10
10
10
10
10
10
10
10
10
10
10
10
10
10
10
10
10
10
10
10
10
10
10
10
10
10
10
10
10
10
10
10
10
10
10
10
10
10
10
10
10
10
10
10
10
10
10
10
10
10
10
10
10
10
10
10
10
10
10
10
10
10
10
10
10
10
10
10
10
10
10
10
10
10
10
10
10
10
10
10
10
10
10
10
10
10
10
10
10
10
10
10
10
10
10
10
10
10
10
10
10
10
10
10
10
10
10
10
10
10
10
10
10
10
10
10
10
10
10
10
10
10
10
10
10
10
10
10
10
10
10
10
10
10
10
10
10
10
10
10
10
10
10
10
10
10
10
10
10
10
10
10
10
10
10
10
10
10
10
10
10
10
10
10
10
10
10
10
10
10
10
10
10
10
10
10
10
10
10
10
10
10
10
10
10
10
10
10
10
10
10
10
10
10
10
10
10
10
10
10
10
10
10
10
10
10
10
10
10
10
10
10
10
10
10
10
10
10
10
10
10
10
10
10
10
10
10
10
10
10
10
10
10
10
10
10
10
10
10
10
10
10
10
10
10
10
10
10
10
10
10
10
10
10
10
10
10
10
10
10
10
10
10
10
10
10
10
10
10
10
10
10
10
10
10
10
10
10
10
10
10
10
10
10
10
10
10
10
10
10
10
10
10
10
10
10
10
10
10
10
10
10
10
10
10
10
10
10
10
10
10
10
10
10
10
10
10
10
10
10
10
10
10
10
10
10
10
10
10
10
10
10
10
10
10
10
10
10
10
10
10
10
10
10
10
10
10
10
10
10
10
10
10
10
10
10
10
10
10
10
10
10
10
10
10
10
10
10
10
10
10
10
10
10
10
10
10
10
10
10
10
10
10
10
10
10
10
10
10
10
10
10
10
10
10
10
10
10
10
10
10
10
10
10
10
10
10
10
10
10
10
10
10
10
10
10
10
10
10
10
10
10
10
10
10
10
10
10
10
10
10
10
10
10
10
10
10
10
10
10
10
10
10
10
10
10
10
10
10
10
10
10
10
10
10
10
10
10
10
10
10
10
10
10
10
10
10
10
10
10
10
10
10
10
10
10
10
10
10
10
10
10
10
10
10
10
10
10
10
10
10
10
10
10
10
10
10
10
10
10
10
10
10
10
10
10
10
10
10
10
10
10
10
10
10
10
10
10
10
10
10
10
10
10
10
10
10
10
10
10
10
10
10
10
10
10
10
10
10
10
10
10
10
10
10
10
10
10
10
10
10
10
10
10
10
10
10
10
10
10
10
10
10
10
10
10
10
10
10
10
10
10
10
10
10
10
10
10
10
10
10
10
10
10
10
10
10
10
10
10
10
10
10
10
10
10
10
10
10
10
10
10
10
10
10
10
10
10
10
10
10
10
10
10
10
10
10
10
10
10
10
10
10
10
10
10
10
10
10
10
10
10
10
10
10
10
10
10
10
10
10
10
10
10
10
10
10
10
10
10
10
10
10
10
10
10
10
10
10
10
10
10
10
10
10
10
10
10
10
10
10
10
10
10
10
10
10
10
10
10
10
10
10
10
10
10
10
10
10
10
10
10
10
10
10
10
10
10
10
10
10
10
10
10
10
10
10
10
10
10
10
10
10
10
10
10
10
10
10
10
10
10
10
10
10
10
10
10
10
10
10
10
10
10
10
10
10
10
10
10
10
10
10
10
10
10
10
10
10
10
10
10
10
10
10
10
10
10
10
10
10
10
10
10
10
10
10
10
10
10
10
10
10
10
10
10
10
10
10
10
10
10
10
10
10
10
10
10
10
10
10
10
10
10
10
10
10
10
10
10
10
10
10
10
10
10
10
10
10
10
10
10
10
10
10
10
10
10
10
10
10
10
10
10
10
10
10
10
10
10
10
10
10
10
10
10
10
10
10
10
10
10
10
10
10
10
10
10
10
10
10
10
10
10
10
10
10
10
10
10
10
10
10
10
10
10
10
10
10
10
10
10
10
10
10
10
10
10
10
10
10
10
10
10
10
10
10
10
10
10
10
10
10
10
10
10
10
10
10
10
10
10
10
10
10
10
10
10
10
10
10
10
10
10
10
10
10
10
10
10
10
10
10
10
10
10
10
10
10
10
10
10
10
10
10
10
10
10
10
10
10
10
10
10
10
10
10
10
10
10
10
10
10
10
10
10
10
10
10
10
10
10
10
10
10
10
10
10
10
10
10
10
10
10
10
10
10
10
10
10
10
10
10
10
10
10
10
10
10
10
10
10
10
10
10
10
10
10
10
10
10
10
10
10
10
10
10
10
10
10
10
10
10
10
10
10
10
10
10
10
10
10
10
10
10
10
10
10
10
10
10
10
10
10
10
10
10
10
10
10
10
10
10
10
10
10
10
10
10
10
10
10
10
10
10
10
10
10
10
10
10
10
10
10
10
10
10
10
10
10
10
10
10
10
10
10
10
10
10
10
10
10
10
10
10
10
10
10
10
10
10
10
10
10
10
10
10
10
10
10
10
10
10
10
10
10
10
10
10
10
10
10
10
10
10
10
10
10
10
10
10
10
10
10
10
10
10
10
10
10
10
10
10
10
10
10
10
10
10
10
10
10
10
10
10
10
10
10
10
10
10
10
10
10
10
10
10
10
10
10
10
10
10
10
10
10
10
10
10
10
10
10
10
10
10
10
10
10
10
10
10
10
10
10
10
10
10
10
10
10
10
10
10
10
10
10
10
10
10
10
10
10
10
10
10
10
10
10
10
10
10
10
10
10
10
10
10
10
10
10
10
10
10
10
10
10
10
10
10
10
10
10
10
10
10
10
10
10
10
10
10
10
10
10
10
10
10
10
10
10
10
10
10
10
10
10
10
10
10
10
10
10
10
10
10
10
10
10
10
10
10
10
10
10
10
10
10
10
10
10
10
10
10
10
10
10
10
10
10
10
10
10
10
10
10
10
10
10
10
10
10
10
10
10
10
10
10
10
10
10
10
10
10
10
10
10
10
10
10
10
10
10
10
10
10
10
10
10
10
10
10
10
10
10
10
10
10
10
10
10
10
10
10
10
10
10
10
10
10
10
10
10
10
10
10
10
10
10
10
10
10
10
10
10
10
10
10
10
10
10
10
10
10
10
10
10
10
10
10
10
10
10
10
10
10
10
10
10
10
10
10
10
10
10
10
10
10
10
10
10
10
10
10
10
10
10
10
10
10
10
10
              </DataArray>   
          </Cells>  
          <PointData>  
             <DataArray type="Float64" NumberOfComponents="3" Name="Strains" format="ascii">   
-7.559751794597677e-05   0.0   -4.966725020005321e-05
-7.559751794597677e-05   0.0   -4.966725020005321e-05
-7.559751794597677e-05   0.0   -4.966725020005321e-05
-7.559751794597677e-05   0.0   -4.966725020005321e-05
-4.809897554787479e-05   8.367793695235047e-06   1.184330013924358e-06
-4.809897554787479e-05   8.367793695235047e-06   1.184330013924358e-06
-4.809897554787479e-05   8.367793695235047e-06   1.184330013924358e-06
-4.809897554787479e-05   8.367793695235047e-06   1.184330013924358e-06
-4.714428092673378e-05   0.0   -4.68829957118117e-05
-4.714428092673378e-05   0.0   -4.68829957118117e-05
-4.714428092673378e-05   0.0   -4.68829957118117e-05
-4.714428092673378e-05   0.0   -4.68829957118117e-05
-7.91121108639204e-05   1.0045100136217951e-05   3.6966076843544696e-07
-7.91121108639204e-05   1.0045100136217951e-05   3.6966076843544696e-07
-7.91121108639204e-05   1.0045100136217951e-05   3.6966076843544696e-07
-7.91121108639204e-05   1.0045100136217951e-05   3.6966076843544696e-07
-6.137089943635518e-05   2.320212073534594e-06   -2.456409210656322e-05
-6.137089943635518e-05   2.320212073534594e-06   -2.456409210656322e-05
-6.137089943635518e-05   2.320212073534594e-06   -2.456409210656322e-05
-6.137089943635518e-05   2.320212073534594e-06   -2.456409210656322e-05
-7.911211086392054e-05   0.0   -5.291005579354248e-05
-7.911211086392054e-05   0.0   -5.291005579354248e-05
-7.911211086392054e-05   0.0   -5.291005579354248e-05
-7.911211086392054e-05   0.0   -5.291005579354248e-05
-4.714428092673378e-05   1.0045100136217965e-05   6.396720850166231e-06
-4.714428092673378e-05   1.0045100136217965e-05   6.396720850166231e-06
-4.714428092673378e-05   1.0045100136217965e-05   6.396720850166231e-06
-4.714428092673378e-05   1.0045100136217965e-05   6.396720850166231e-06
-4.7273502812163006e-05   0.0   -4.8029521847660635e-05
-4.7273502812163006e-05   0.0   -4.8029521847660635e-05
-4.7273502812163006e-05   0.0   -4.8029521847660635e-05
-4.7273502812163006e-05   0.0   -4.8029521847660635e-05
-8.157866113598333e-05   1.0762715138609765e-05   2.6881129422075733e-06
-8.157866113598333e-05   1.0762715138609765e-05   2.6881129422075733e-06
-8.157866113598333e-05   1.0762715138609765e-05   2.6881129422075733e-06
-8.157866113598333e-05   1.0762715138609765e-05   2.6881129422075733e-06
-6.319280683804166e-05   4.067111621568197e-06   -2.3937615444136888e-05
-6.319280683804166e-05   4.067111621568197e-06   -2.3937615444136888e-05
-6.319280683804166e-05   4.067111621568197e-06   -2.3937615444136888e-05
-6.319280683804166e-05   4.067111621568197e-06   -2.3937615444136888e-05
-8.157866113598347e-05   0.0   -5.448715093082651e-05
-8.157866113598347e-05   0.0   -5.448715093082651e-05
-8.157866113598347e-05   0.0   -5.448715093082651e-05
-8.157866113598347e-05   0.0   -5.448715093082651e-05
-4.7273502812162924e-05   1.0762715138609765e-05   9.145742025373432e-06
-4.7273502812162924e-05   1.0762715138609765e-05   9.145742025373432e-06
-4.7273502812162924e-05   1.0762715138609765e-05   9.145742025373432e-06
-4.7273502812162924e-05   1.0762715138609765e-05   9.145742025373432e-06
-4.724444631024685e-05   0.0   -4.8324722044893006e-05
-4.724444631024685e-05   0.0   -4.8324722044893006e-05
-4.724444631024685e-05   0.0   -4.8324722044893006e-05
-4.724444631024685e-05   0.0   -4.8324722044893006e-05
-8.689599485992318e-05   1.2263762306799676e-05   1.0402934820487932e-05
-8.689599485992318e-05   1.2263762306799676e-05   1.0402934820487932e-05
-8.689599485992318e-05   1.2263762306799676e-05   1.0402934820487932e-05
-8.689599485992318e-05   1.2263762306799676e-05   1.0402934820487932e-05
-6.441155372311505e-05   5.135357404944579e-06   -2.2794090799745847e-05
-6.441155372311505e-05   5.135357404944579e-06   -2.2794090799745847e-05
-6.441155372311505e-05   5.135357404944579e-06   -2.2794090799745847e-05
-6.441155372311505e-05   5.135357404944579e-06   -2.2794090799745847e-05
-4.809897554787487e-05   0.0   -4.4646573982912184e-05
-4.809897554787487e-05   0.0   -4.4646573982912184e-05
-4.809897554787487e-05   0.0   -4.4646573982912184e-05
-4.809897554787487e-05   0.0   -4.4646573982912184e-05
-2.1908850886843783e-05   3.067634500051759e-06   8.442144855039908e-07
-2.1908850886843783e-05   3.067634500051759e-06   8.442144855039908e-07
-2.1908850886843783e-05   3.067634500051759e-06   8.442144855039908e-07
-2.1908850886843783e-05   3.067634500051759e-06   8.442144855039908e-07
-2.1067984187190675e-05   0.0   -4.426120294235474e-05
-2.1067984187190675e-05   0.0   -4.426120294235474e-05
-2.1067984187190675e-05   0.0   -4.426120294235474e-05
-2.1067984187190675e-05   0.0   -4.426120294235474e-05
-4.714428092673378e-05   4.369654615761471e-06   -3.422501145906588e-06
-4.714428092673378e-05   4.369654615761471e-06   -3.422501145906588e-06
-4.714428092673378e-05   4.369654615761471e-06   -3.422501145906588e-06
-4.714428092673378e-05   4.369654615761471e-06   -3.422501145906588e-06
-3.458347986753273e-05   3.211425337977994e-07   -2.192806232872998e-05
-3.458347986753273e-05   3.211425337977994e-07   -2.192806232872998e-05
-3.458347986753273e-05   3.211425337977994e-07   -2.192806232872998e-05
-3.458347986753273e-05   3.211425337977994e-07   -2.192806232872998e-05
-4.714428092673374e-05   0.0   -4.688299571181166e-05
-4.714428092673374e-05   0.0   -4.688299571181166e-05
-4.714428092673374e-05   0.0   -4.688299571181166e-05
-4.714428092673374e-05   0.0   -4.688299571181166e-05
-2.1067984187190675e-05   4.369654615761457e-06   -8.007083764497013e-07
-2.1067984187190675e-05   4.369654615761457e-06   -8.007083764497013e-07
-2.1067984187190675e-05   4.369654615761457e-06   -8.007083764497013e-07
-2.1067984187190675e-05   4.369654615761457e-06   -8.007083764497013e-07
-2.059420146759241e-05   0.0   -4.4816028391269234e-05
-2.059420146759241e-05   0.0   -4.4816028391269234e-05
-2.059420146759241e-05   0.0   -4.4816028391269234e-05
-2.059420146759241e-05   0.0   -4.4816028391269234e-05
-4.7273502812163006e-05   5.35582242731888e-06   -3.564019606709697e-06
-4.7273502812163006e-05   5.35582242731888e-06   -3.564019606709697e-06
-4.7273502812163006e-05   5.35582242731888e-06   -3.564019606709697e-06
-4.7273502812163006e-05   5.35582242731888e-06   -3.564019606709697e-06
-3.386924119716304e-05   1.722472767118654e-06   -2.3724445835589318e-05
-3.386924119716304e-05   1.722472767118654e-06   -2.3724445835589318e-05
-3.386924119716304e-05   1.722472767118654e-06   -2.3724445835589318e-05
-3.386924119716304e-05   1.722472767118654e-06   -2.3724445835589318e-05
-4.7273502812163006e-05   0.0   -4.8029521847660635e-05
-4.7273502812163006e-05   0.0   -4.8029521847660635e-05
-4.7273502812163006e-05   0.0   -4.8029521847660635e-05
-4.7273502812163006e-05   0.0   -4.8029521847660635e-05
-2.0594201467592446e-05   5.35582242731888e-06   -3.5052615031837053e-07
-2.0594201467592446e-05   5.35582242731888e-06   -3.5052615031837053e-07
-2.0594201467592446e-05   5.35582242731888e-06   -3.5052615031837053e-07
-2.0594201467592446e-05   5.35582242731888e-06   -3.5052615031837053e-07
-2.0162168465860095e-05   0.0   -4.4584916035513704e-05
-2.0162168465860095e-05   0.0   -4.4584916035513704e-05
-2.0162168465860095e-05   0.0   -4.4584916035513704e-05
-2.0162168465860095e-05   0.0   -4.4584916035513704e-05
-4.724444631024681e-05   6.233010015632102e-06   -3.1875923042484083e-06
-4.724444631024681e-05   6.233010015632102e-06   -3.1875923042484083e-06
-4.724444631024681e-05   6.233010015632102e-06   -3.1875923042484083e-06
-4.724444631024681e-05   6.233010015632102e-06   -3.1875923042484083e-06
-3.3717835639011535e-05   2.8705048434557475e-06   -2.3714440319668077e-05
-3.3717835639011535e-05   2.8705048434557475e-06   -2.3714440319668077e-05
-3.3717835639011535e-05   2.8705048434557475e-06   -2.3714440319668077e-05
-3.3717835639011535e-05   2.8705048434557475e-06   -2.3714440319668077e-05
-2.190885088684382e-05   0.0   -4.2805993282881124e-05
-2.190885088684382e-05   0.0   -4.2805993282881124e-05
-2.190885088684382e-05   0.0   -4.2805993282881124e-05
-2.190885088684382e-05   0.0   -4.2805993282881124e-05
2.8327063272826733e-06   -3.9402000814895636e-07   -1.8064765975596365e-06
2.8327063272826733e-06   -3.9402000814895636e-07   -1.8064765975596365e-06
2.8327063272826733e-06   -3.9402000814895636e-07   -1.8064765975596365e-06
2.8327063272826733e-06   -3.9402000814895636e-07   -1.8064765975596365e-06
3.371160761880567e-06   0.0   -4.379613021914276e-05
3.371160761880567e-06   0.0   -4.379613021914276e-05
3.371160761880567e-06   0.0   -4.379613021914276e-05
3.371160761880567e-06   0.0   -4.379613021914276e-05
-2.1067984187190675e-05   7.751212053531866e-07   -3.529294693902669e-06
-2.1067984187190675e-05   7.751212053531866e-07   -3.529294693902669e-06
-2.1067984187190675e-05   7.751212053531866e-07   -3.529294693902669e-06
-2.1067984187190675e-05   7.751212053531866e-07   -3.529294693902669e-06
-9.268845062481605e-06   -8.251141135514868e-07   -2.2234385377074966e-05
-9.268845062481605e-06   -8.251141135514868e-07   -2.2234385377074966e-05
-9.268845062481605e-06   -8.251141135514868e-07   -2.2234385377074966e-05
-9.268845062481605e-06   -8.251141135514868e-07   -2.2234385377074966e-05
-2.1067984187190712e-05   0.0   -4.426120294235482e-05
-2.1067984187190712e-05   0.0   -4.426120294235482e-05
-2.1067984187190712e-05   0.0   -4.426120294235482e-05
-2.1067984187190712e-05   0.0   -4.426120294235482e-05
3.3711607618805728e-06   7.751212053531866e-07   -3.0642219706907622e-06
3.3711607618805728e-06   7.751212053531866e-07   -3.0642219706907622e-06
3.3711607618805728e-06   7.751212053531866e-07   -3.0642219706907622e-06
3.3711607618805728e-06   7.751212053531866e-07   -3.0642219706907622e-06
3.7966365835913527e-06   0.0   -4.373318655434618e-05
3.7966365835913527e-06   0.0   -4.373318655434618e-05
3.7966365835913527e-06   0.0   -4.373318655434618e-05
3.7966365835913527e-06   0.0   -4.373318655434618e-05
-2.0594201467592375e-05   1.8047363948717557e-06   -4.164631639296296e-06
-2.0594201467592375e-05   1.8047363948717557e-06   -4.164631639296296e-06
-2.0594201467592375e-05   1.8047363948717557e-06   -4.164631639296296e-06
-2.0594201467592375e-05   1.8047363948717557e-06   -4.164631639296296e-06
-8.63567380179966e-06   4.4001365667381006e-07   -2.3276677439365423e-05
-8.63567380179966e-06   4.4001365667381006e-07   -2.3276677439365423e-05
-8.63567380179966e-06   4.4001365667381006e-07   -2.3276677439365423e-05
-8.63567380179966e-06   4.4001365667381006e-07   -2.3276677439365423e-05
-2.0594201467592446e-05   0.0   -4.481602839126931e-05
-2.0594201467592446e-05   0.0   -4.481602839126931e-05
-2.0594201467592446e-05   0.0   -4.481602839126931e-05
-2.0594201467592446e-05   0.0   -4.481602839126931e-05
3.7966365835913595e-06   1.8047363948717557e-06   -3.081789802373255e-06
3.7966365835913595e-06   1.8047363948717557e-06   -3.081789802373255e-06
3.7966365835913595e-06   1.8047363948717557e-06   -3.081789802373255e-06
3.7966365835913595e-06   1.8047363948717557e-06   -3.081789802373255e-06
4.367877033095719e-06   0.0   -4.278667330203674e-05
4.367877033095719e-06   0.0   -4.278667330203674e-05
4.367877033095719e-06   0.0   -4.278667330203674e-05
4.367877033095719e-06   0.0   -4.278667330203674e-05
-2.0162168465860075e-05   2.9970712224615344e-06   -3.7015068705873426e-06
-2.0162168465860075e-05   2.9970712224615344e-06   -3.7015068705873426e-06
-2.0162168465860075e-05   2.9970712224615344e-06   -3.7015068705873426e-06
-2.0162168465860075e-05   2.9970712224615344e-06   -3.7015068705873426e-06
-8.113162217248345e-06   1.6911292410270816e-06   -2.2999618762746198e-05
-8.113162217248345e-06   1.6911292410270816e-06   -2.2999618762746198e-05
-8.113162217248345e-06   1.6911292410270816e-06   -2.2999618762746198e-05
-8.113162217248345e-06   1.6911292410270816e-06   -2.2999618762746198e-05
2.8327063272826784e-06   0.0   -4.30424052877705e-05
2.8327063272826784e-06   0.0   -4.30424052877705e-05
2.8327063272826784e-06   0.0   -4.30424052877705e-05
2.8327063272826784e-06   0.0   -4.30424052877705e-05
2.969246854813829e-05   -3.4826429502911164e-06   -3.657206898524486e-07
2.969246854813829e-05   -3.4826429502911164e-06   -3.657206898524486e-07
2.969246854813829e-05   -3.4826429502911164e-06   -3.657206898524486e-07
2.969246854813829e-05   -3.4826429502911164e-06   -3.657206898524486e-07
2.9749502752518994e-05   0.0   -4.53707699799937e-05
2.9749502752518994e-05   0.0   -4.53707699799937e-05
2.9749502752518994e-05   0.0   -4.53707699799937e-05
2.9749502752518994e-05   0.0   -4.53707699799937e-05
3.3711607618805783e-06   -2.624399601417989e-06   1.6777309858777897e-07
3.3711607618805783e-06   -2.624399601417989e-06   1.6777309858777897e-07
3.3711607618805783e-06   -2.624399601417989e-06   1.6777309858777897e-07
3.3711607618805783e-06   -2.624399601417989e-06   1.6777309858777897e-07
1.6291104539900835e-05   -1.9403039101860032e-06   -2.1775923946185153e-05
1.6291104539900835e-05   -1.9403039101860032e-06   -2.1775923946185153e-05
1.6291104539900835e-05   -1.9403039101860032e-06   -2.1775923946185153e-05
1.6291104539900835e-05   -1.9403039101860032e-06   -2.1775923946185153e-05
3.3711607618805783e-06   0.0   -4.379613021914291e-05
3.3711607618805783e-06   0.0   -4.379613021914291e-05
3.3711607618805783e-06   0.0   -4.379613021914291e-05
3.3711607618805783e-06   0.0   -4.379613021914291e-05
2.9749502752518994e-05   -2.624399601417989e-06   -1.4068666622630118e-06
2.9749502752518994e-05   -2.624399601417989e-06   -1.4068666622630118e-06
2.9749502752518994e-05   -2.624399601417989e-06   -1.4068666622630118e-06
2.9749502752518994e-05   -2.624399601417989e-06   -1.4068666622630118e-06
2.962574045080911e-05   0.0   -4.472292286245493e-05
2.962574045080911e-05   0.0   -4.472292286245493e-05
2.962574045080911e-05   0.0   -4.472292286245493e-05
2.962574045080911e-05   0.0   -4.472292286245493e-05
3.7966365835913595e-06   -1.6495605135144654e-06   -6.846801089833407e-07
3.7966365835913595e-06   -1.6495605135144654e-06   -6.846801089833407e-07
3.7966365835913595e-06   -1.6495605135144654e-06   -6.846801089833407e-07
3.7966365835913595e-06   -1.6495605135144654e-06   -6.846801089833407e-07
1.6498450606344843e-05   -7.72327202760016e-07   -2.238071013335846e-05
1.6498450606344843e-05   -7.72327202760016e-07   -2.238071013335846e-05
1.6498450606344843e-05   -7.72327202760016e-07   -2.238071013335846e-05
1.6498450606344843e-05   -7.72327202760016e-07   -2.238071013335846e-05
3.796636583591356e-06   0.0   -4.373318655434621e-05
3.796636583591356e-06   0.0   -4.373318655434621e-05
3.796636583591356e-06   0.0   -4.373318655434621e-05
3.796636583591356e-06   0.0   -4.373318655434621e-05
2.962574045080911e-05   -1.6495605135144654e-06   -1.674416417092016e-06
2.962574045080911e-05   -1.6495605135144654e-06   -1.674416417092016e-06
2.962574045080911e-05   -1.6495605135144654e-06   -1.674416417092016e-06
2.962574045080911e-05   -1.6495605135144654e-06   -1.674416417092016e-06
3.020300954799486e-05   0.0   -4.299056344119808e-05
3.020300954799486e-05   0.0   -4.299056344119808e-05
3.020300954799486e-05   0.0   -4.299056344119808e-05
3.020300954799486e-05   0.0   -4.299056344119808e-05
4.367877033095727e-06   -3.398168986021191e-07   2.7188088946173917e-07
4.367877033095727e-06   -3.398168986021191e-07   2.7188088946173917e-07
4.367877033095727e-06   -3.398168986021191e-07   2.7188088946173917e-07
4.367877033095727e-06   -3.398168986021191e-07   2.7188088946173917e-07
1.6999823065793097e-05   6.188525942901443e-07   -2.135656419410255e-05
1.6999823065793097e-05   6.188525942901443e-07   -2.135656419410255e-05
1.6999823065793097e-05   6.188525942901443e-07   -2.135656419410255e-05
1.6999823065793097e-05   6.188525942901443e-07   -2.135656419410255e-05
2.969246854813829e-05   0.0   -4.513199105794517e-05
2.969246854813829e-05   0.0   -4.513199105794517e-05
2.969246854813829e-05   0.0   -4.513199105794517e-05
2.969246854813829e-05   0.0   -4.513199105794517e-05
6.705738513659771e-05   -8.831333522782279e-06   1.1844069809151546e-05
6.705738513659771e-05   -8.831333522782279e-06   1.1844069809151546e-05
6.705738513659771e-05   -8.831333522782279e-06   1.1844069809151546e-05
6.705738513659771e-05   -8.831333522782279e-06   1.1844069809151546e-05
6.298320852315636e-05   0.0   -4.9877863288272584e-05
6.298320852315636e-05   0.0   -4.9877863288272584e-05
6.298320852315636e-05   0.0   -4.9877863288272584e-05
6.298320852315636e-05   0.0   -4.9877863288272584e-05
2.9749502752518994e-05   -7.511822180464799e-06   1.0018739637735232e-05
2.9749502752518994e-05   -7.511822180464799e-06   1.0018739637735232e-05
2.9749502752518994e-05   -7.511822180464799e-06   1.0018739637735232e-05
2.9749502752518994e-05   -7.511822180464799e-06   1.0018739637735232e-05
4.6337838535647325e-05   -3.954893525272845e-06   -1.97626438605938e-05
4.6337838535647325e-05   -3.954893525272845e-06   -1.97626438605938e-05
4.6337838535647325e-05   -3.954893525272845e-06   -1.97626438605938e-05
4.6337838535647325e-05   -3.954893525272845e-06   -1.97626438605938e-05
2.9749502752518967e-05   0.0   -4.5370769979993665e-05
2.9749502752518967e-05   0.0   -4.5370769979993665e-05
2.9749502752518967e-05   0.0   -4.5370769979993665e-05
2.9749502752518967e-05   0.0   -4.5370769979993665e-05
6.298320852315614e-05   -7.511822180464772e-06   5.51164632945634e-06
6.298320852315614e-05   -7.511822180464772e-06   5.51164632945634e-06
6.298320852315614e-05   -7.511822180464772e-06   5.51164632945634e-06
6.298320852315614e-05   -7.511822180464772e-06   5.51164632945634e-06
6.110609167844341e-05   0.0   -4.884091523118253e-05
6.110609167844341e-05   0.0   -4.884091523118253e-05
6.110609167844341e-05   0.0   -4.884091523118253e-05
6.110609167844341e-05   0.0   -4.884091523118253e-05
2.962574045080911e-05   -6.863320614545985e-06   7.74432918360221e-06
2.962574045080911e-05   -6.863320614545985e-06   7.74432918360221e-06
2.962574045080911e-05   -6.863320614545985e-06   7.74432918360221e-06
2.962574045080911e-05   -6.863320614545985e-06   7.74432918360221e-06
4.5427797215481174e-05   -2.891787709324021e-06   -2.09753518339844e-05
4.5427797215481174e-05   -2.891787709324021e-06   -2.09753518339844e-05
4.5427797215481174e-05   -2.891787709324021e-06   -2.09753518339844e-05
4.5427797215481174e-05   -2.891787709324021e-06   -2.09753518339844e-05
2.962574045080911e-05   0.0   -4.472292286245493e-05
2.962574045080911e-05   0.0   -4.472292286245493e-05
2.962574045080911e-05   0.0   -4.472292286245493e-05
2.962574045080911e-05   0.0   -4.472292286245493e-05
6.110609167844319e-05   -6.863320614545972e-06   3.6263368148745973e-06
6.110609167844319e-05   -6.863320614545972e-06   3.6263368148745973e-06
6.110609167844319e-05   -6.863320614545972e-06   3.6263368148745973e-06
6.110609167844319e-05   -6.863320614545972e-06   3.6263368148745973e-06
5.83090411964305e-05   0.0   -4.6189588486466014e-05
5.83090411964305e-05   0.0   -4.6189588486466014e-05
5.83090411964305e-05   0.0   -4.6189588486466014e-05
5.83090411964305e-05   0.0   -4.6189588486466014e-05
3.0203009547994806e-05   -5.331708408779886e-06   3.852822639527973e-06
3.0203009547994806e-05   -5.331708408779886e-06   3.852822639527973e-06
3.0203009547994806e-05   -5.331708408779886e-06   3.852822639527973e-06
3.0203009547994806e-05   -5.331708408779886e-06   3.852822639527973e-06
4.3967390823619806e-05   -1.222221353342573e-06   -2.1553505053109298e-05
4.3967390823619806e-05   -1.222221353342573e-06   -2.1553505053109298e-05
4.3967390823619806e-05   -1.222221353342573e-06   -2.1553505053109298e-05
4.3967390823619806e-05   -1.222221353342573e-06   -2.1553505053109298e-05
-6.555275043412802e-05   8.36779369523502e-06   -4.304596421235238e-05
-6.555275043412802e-05   8.36779369523502e-06   -4.304596421235238e-05
-6.555275043412802e-05   8.36779369523502e-06   -4.304596421235238e-05
-6.555275043412802e-05   8.36779369523502e-06   -4.304596421235238e-05
-4.198949419499478e-05   7.52266176648036e-06   -4.280949637716424e-06
-4.198949419499478e-05   7.52266176648036e-06   -4.280949637716424e-06
-4.198949419499478e-05   7.52266176648036e-06   -4.280949637716424e-06
-4.198949419499478e-05   7.52266176648036e-06   -4.280949637716424e-06
-4.304410396756586e-05   1.0045100136217938e-05   -3.615500753587883e-05
-4.304410396756586e-05   1.0045100136217938e-05   -3.615500753587883e-05
-4.304410396756586e-05   1.0045100136217938e-05   -3.615500753587883e-05
-4.304410396756586e-05   1.0045100136217938e-05   -3.615500753587883e-05
-6.625846277543185e-05   9.031043934157258e-06   3.144024198467566e-06
-6.625846277543185e-05   9.031043934157258e-06   3.144024198467566e-06
-6.625846277543185e-05   9.031043934157258e-06   3.144024198467566e-06
-6.625846277543185e-05   9.031043934157258e-06   3.144024198467566e-06
-5.2063783431304604e-05   8.741567008503263e-06   -2.0340088553018933e-05
-5.2063783431304604e-05   8.741567008503263e-06   -2.0340088553018933e-05
-5.2063783431304604e-05   8.741567008503263e-06   -2.0340088553018933e-05
-5.2063783431304604e-05   8.741567008503263e-06   -2.0340088553018933e-05
-6.625846277543185e-05   1.0045100136217938e-05   -3.5546573814642416e-05
-6.625846277543185e-05   1.0045100136217938e-05   -3.5546573814642416e-05
-6.625846277543185e-05   1.0045100136217938e-05   -3.5546573814642416e-05
-6.625846277543185e-05   1.0045100136217938e-05   -3.5546573814642416e-05
-4.304410396756601e-05   9.031043934157313e-06   2.535590477231267e-06
-4.304410396756601e-05   9.031043934157313e-06   2.535590477231267e-06
-4.304410396756601e-05   9.031043934157313e-06   2.535590477231267e-06
-4.304410396756601e-05   9.031043934157313e-06   2.535590477231267e-06
-4.3263075769526716e-05   1.0762715138609751e-05   -3.250783306639373e-05
-4.3263075769526716e-05   1.0762715138609751e-05   -3.250783306639373e-05
-4.3263075769526716e-05   1.0762715138609751e-05   -3.250783306639373e-05
-4.3263075769526716e-05   1.0762715138609751e-05   -3.250783306639373e-05
-6.67213976051246e-05   9.711900971845798e-06   7.219858492994453e-06
-6.67213976051246e-05   9.711900971845798e-06   7.219858492994453e-06
-6.67213976051246e-05   9.711900971845798e-06   7.219858492994453e-06
-6.67213976051246e-05   9.711900971845798e-06   7.219858492994453e-06
-5.359210507916252e-05   9.689902168407696e-06   -1.464909643487952e-05
-5.359210507916252e-05   9.689902168407696e-06   -1.464909643487952e-05
-5.359210507916252e-05   9.689902168407696e-06   -1.464909643487952e-05
-5.359210507916252e-05   9.689902168407696e-06   -1.464909643487952e-05
-6.67213976051246e-05   1.0762715138609751e-05   -3.1877344566335364e-05
-6.67213976051246e-05   1.0762715138609751e-05   -3.1877344566335364e-05
-6.67213976051246e-05   1.0762715138609751e-05   -3.1877344566335364e-05
-6.67213976051246e-05   1.0762715138609751e-05   -3.1877344566335364e-05
-4.32630757695268e-05   9.711900971845798e-06   6.589369992936029e-06
-4.32630757695268e-05   9.711900971845798e-06   6.589369992936029e-06
-4.32630757695268e-05   9.711900971845798e-06   6.589369992936029e-06
-4.32630757695268e-05   9.711900971845798e-06   6.589369992936029e-06
-4.301513301232244e-05   1.2263762306799676e-05   -2.4026846677519534e-05
-4.301513301232244e-05   1.2263762306799676e-05   -2.4026846677519534e-05
-4.301513301232244e-05   1.2263762306799676e-05   -2.4026846677519534e-05
-4.301513301232244e-05   1.2263762306799676e-05   -2.4026846677519534e-05
-6.486629999496069e-05   1.0254447128944046e-05   1.359735406692404e-05
-6.486629999496069e-05   1.0254447128944046e-05   1.359735406692404e-05
-6.486629999496069e-05   1.0254447128944046e-05   1.359735406692404e-05
-6.486629999496069e-05   1.0254447128944046e-05   1.359735406692404e-05
-5.2195070195795605e-05   1.0629778316362324e-05   -7.746560977468705e-06
-5.2195070195795605e-05   1.0629778316362324e-05   -7.746560977468705e-06
-5.2195070195795605e-05   1.0629778316362324e-05   -7.746560977468705e-06
-5.2195070195795605e-05   1.0629778316362324e-05   -7.746560977468705e-06
-4.198949419499478e-05   3.067634500051759e-06   -4.5733739598056603e-05
-4.198949419499478e-05   3.067634500051759e-06   -4.5733739598056603e-05
-4.198949419499478e-05   3.067634500051759e-06   -4.5733739598056603e-05
-4.198949419499478e-05   3.067634500051759e-06   -4.5733739598056603e-05
-1.990323554418618e-05   3.500484184035588e-06   -8.663598702985254e-06
-1.990323554418618e-05   3.500484184035588e-06   -8.663598702985254e-06
-1.990323554418618e-05   3.500484184035588e-06   -8.663598702985254e-06
-1.990323554418618e-05   3.500484184035588e-06   -8.663598702985254e-06
-2.037677661482719e-05   4.369654615761457e-06   -4.56635287744153e-05
-2.037677661482719e-05   4.369654615761457e-06   -4.56635287744153e-05
-2.037677661482719e-05   4.369654615761457e-06   -4.56635287744153e-05
-2.037677661482719e-05   4.369654615761457e-06   -4.56635287744153e-05
-4.304410396756586e-05   4.887489211655475e-06   -8.195350610720427e-06
-4.304410396756586e-05   4.887489211655475e-06   -8.195350610720427e-06
-4.304410396756586e-05   4.887489211655475e-06   -8.195350610720427e-06
-4.304410396756586e-05   4.887489211655475e-06   -8.195350610720427e-06
-3.1240049365655016e-05   3.935247913007718e-06   -2.7297430168050004e-05
-3.1240049365655016e-05   3.935247913007718e-06   -2.7297430168050004e-05
-3.1240049365655016e-05   3.935247913007718e-06   -2.7297430168050004e-05
-3.1240049365655016e-05   3.935247913007718e-06   -2.7297430168050004e-05
-4.304410396756582e-05   4.369654615761444e-06   -4.5974229531951555e-05
-4.304410396756582e-05   4.369654615761444e-06   -4.5974229531951555e-05
-4.304410396756582e-05   4.369654615761444e-06   -4.5974229531951555e-05
-4.304410396756582e-05   4.369654615761444e-06   -4.5974229531951555e-05
-2.037677661482716e-05   4.887489211655475e-06   -7.884649853183914e-06
-2.037677661482716e-05   4.887489211655475e-06   -7.884649853183914e-06
-2.037677661482716e-05   4.887489211655475e-06   -7.884649853183914e-06
-2.037677661482716e-05   4.887489211655475e-06   -7.884649853183914e-06
-2.0524306244771823e-05   5.355822427318866e-06   -4.480960054980803e-05
-2.0524306244771823e-05   5.355822427318866e-06   -4.480960054980803e-05
-2.0524306244771823e-05   5.355822427318866e-06   -4.480960054980803e-05
-2.0524306244771823e-05   5.355822427318866e-06   -4.480960054980803e-05
-4.3263075769526716e-05   6.035812675100357e-06   -7.3196454905519485e-06
-4.3263075769526716e-05   6.035812675100357e-06   -7.3196454905519485e-06
-4.3263075769526716e-05   6.035812675100357e-06   -7.3196454905519485e-06
-4.3263075769526716e-05   6.035812675100357e-06   -7.3196454905519485e-06
-3.148270280365511e-05   4.9957562774550915e-06   -2.6329566595084108e-05
-3.148270280365511e-05   4.9957562774550915e-06   -2.6329566595084108e-05
-3.148270280365511e-05   4.9957562774550915e-06   -2.6329566595084108e-05
-3.148270280365511e-05   4.9957562774550915e-06   -2.6329566595084108e-05
-4.3263075769526716e-05   5.355822427318866e-06   -4.5217594698476856e-05
-4.3263075769526716e-05   5.355822427318866e-06   -4.5217594698476856e-05
-4.3263075769526716e-05   5.355822427318866e-06   -4.5217594698476856e-05
-4.3263075769526716e-05   5.355822427318866e-06   -4.5217594698476856e-05
-2.052430624477186e-05   6.035812675100384e-06   -6.911651341883121e-06
-2.052430624477186e-05   6.035812675100384e-06   -6.911651341883121e-06
-2.052430624477186e-05   6.035812675100384e-06   -6.911651341883121e-06
-2.052430624477186e-05   6.035812675100384e-06   -6.911651341883121e-06
-2.04725505023364e-05   6.233010015632102e-06   -4.435249168583625e-05
-2.04725505023364e-05   6.233010015632102e-06   -4.435249168583625e-05
-2.04725505023364e-05   6.233010015632102e-06   -4.435249168583625e-05
-2.04725505023364e-05   6.233010015632102e-06   -4.435249168583625e-05
-4.301513301232247e-05   7.271575849797878e-06   -7.404660336358943e-06
-4.301513301232247e-05   7.271575849797878e-06   -7.404660336358943e-06
-4.301513301232247e-05   7.271575849797878e-06   -7.404660336358943e-06
-4.301513301232247e-05   7.271575849797878e-06   -7.404660336358943e-06
-3.1666324886023484e-05   5.955645815597973e-06   -2.5529782526337313e-05
-3.1666324886023484e-05   5.955645815597973e-06   -2.5529782526337313e-05
-3.1666324886023484e-05   5.955645815597973e-06   -2.5529782526337313e-05
-3.1666324886023484e-05   5.955645815597973e-06   -2.5529782526337313e-05
-1.990323554418618e-05   -3.9402000814895636e-07   -4.788830886584052e-05
-1.990323554418618e-05   -3.9402000814895636e-07   -4.788830886584052e-05
-1.990323554418618e-05   -3.9402000814895636e-07   -4.788830886584052e-05
-1.990323554418618e-05   -3.9402000814895636e-07   -4.788830886584052e-05
1.904080365188519e-06   -1.0488253995472887e-07   -1.1369299869299482e-05
1.904080365188519e-06   -1.0488253995472887e-07   -1.1369299869299482e-05
1.904080365188519e-06   -1.0488253995472887e-07   -1.1369299869299482e-05
1.904080365188519e-06   -1.0488253995472887e-07   -1.1369299869299482e-05
1.81597310475651e-06   7.751212053531866e-07   -4.815329156524726e-05
1.81597310475651e-06   7.751212053531866e-07   -4.815329156524726e-05
1.81597310475651e-06   7.751212053531866e-07   -4.815329156524726e-05
1.81597310475651e-06   7.751212053531866e-07   -4.815329156524726e-05
-2.037677661482716e-05   1.1731604163880559e-06   -1.1404198892562021e-05
-2.037677661482716e-05   1.1731604163880559e-06   -1.1404198892562021e-05
-2.037677661482716e-05   1.1731604163880559e-06   -1.1404198892562021e-05
-2.037677661482716e-05   1.1731604163880559e-06   -1.1404198892562021e-05
-9.194837352242437e-06   3.8974871722875846e-07   -2.9570717310707658e-05
-9.194837352242437e-06   3.8974871722875846e-07   -2.9570717310707658e-05
-9.194837352242437e-06   3.8974871722875846e-07   -2.9570717310707658e-05
-9.194837352242437e-06   3.8974871722875846e-07   -2.9570717310707658e-05
-2.037677661482716e-05   7.751212053531866e-07   -4.839211509186817e-05
-2.037677661482716e-05   7.751212053531866e-07   -4.839211509186817e-05
-2.037677661482716e-05   7.751212053531866e-07   -4.839211509186817e-05
-2.037677661482716e-05   7.751212053531866e-07   -4.839211509186817e-05
1.8159731047565126e-06   1.1731604163880559e-06   -1.1165375365941047e-05
1.8159731047565126e-06   1.1731604163880559e-06   -1.1165375365941047e-05
1.8159731047565126e-06   1.1731604163880559e-06   -1.1165375365941047e-05
1.8159731047565126e-06   1.1731604163880559e-06   -1.1165375365941047e-05
1.6956100947141342e-06   1.8047363948717557e-06   -4.8253362874588505e-05
1.6956100947141342e-06   1.8047363948717557e-06   -4.8253362874588505e-05
1.6956100947141342e-06   1.8047363948717557e-06   -4.8253362874588505e-05
1.6956100947141342e-06   1.8047363948717557e-06   -4.8253362874588505e-05
-2.052430624477179e-05   2.4219750018673652e-06   -1.159051213964264e-05
-2.052430624477179e-05   2.4219750018673652e-06   -1.159051213964264e-05
-2.052430624477179e-05   2.4219750018673652e-06   -1.159051213964264e-05
-2.052430624477179e-05   2.4219750018673652e-06   -1.159051213964264e-05
-9.364736709000255e-06   1.4726485615781698e-06   -2.9620198835088332e-05
-9.364736709000255e-06   1.4726485615781698e-06   -2.9620198835088332e-05
-9.364736709000255e-06   1.4726485615781698e-06   -2.9620198835088332e-05
-9.364736709000255e-06   1.4726485615781698e-06   -2.9620198835088332e-05
-2.052430624477179e-05   1.8047363948717557e-06   -4.8623706038785865e-05
-2.052430624477179e-05   1.8047363948717557e-06   -4.8623706038785865e-05
-2.052430624477179e-05   1.8047363948717557e-06   -4.8623706038785865e-05
-2.052430624477179e-05   1.8047363948717557e-06   -4.8623706038785865e-05
1.6956100947141372e-06   2.4219750018673923e-06   -1.1220168975445348e-05
1.6956100947141372e-06   2.4219750018673923e-06   -1.1220168975445348e-05
1.6956100947141372e-06   2.4219750018673923e-06   -1.1220168975445348e-05
1.6956100947141372e-06   2.4219750018673923e-06   -1.1220168975445348e-05
1.4512185198279185e-06   2.997071222461548e-06   -4.817063495760003e-05
1.4512185198279185e-06   2.997071222461548e-06   -4.817063495760003e-05
1.4512185198279185e-06   2.997071222461548e-06   -4.817063495760003e-05
1.4512185198279185e-06   2.997071222461548e-06   -4.817063495760003e-05
-2.0472550502336384e-05   3.723033395718826e-06   -1.206659722461395e-05
-2.0472550502336384e-05   3.723033395718826e-06   -1.206659722461395e-05
-2.0472550502336384e-05   3.723033395718826e-06   -1.206659722461395e-05
-2.0472550502336384e-05   3.723033395718826e-06   -1.206659722461395e-05
-9.466940138585919e-06   2.585119365527028e-06   -2.972653274608293e-05
-9.466940138585919e-06   2.585119365527028e-06   -2.972653274608293e-05
-9.466940138585919e-06   2.585119365527028e-06   -2.972653274608293e-05
-9.466940138585919e-06   2.585119365527028e-06   -2.972653274608293e-05
1.904080365188519e-06   -3.482642950291103e-06   -4.418448470704215e-05
1.904080365188519e-06   -3.482642950291103e-06   -4.418448470704215e-05
1.904080365188519e-06   -3.482642950291103e-06   -4.418448470704215e-05
1.904080365188519e-06   -3.482642950291103e-06   -4.418448470704215e-05
2.437675834212669e-05   -3.580325526752814e-06   -6.788630958022188e-06
2.437675834212669e-05   -3.580325526752814e-06   -6.788630958022188e-06
2.437675834212669e-05   -3.580325526752814e-06   -6.788630958022188e-06
2.437675834212669e-05   -3.580325526752814e-06   -6.788630958022188e-06
2.457852853359561e-05   -2.6243996014179756e-06   -4.4797844812130555e-05
2.457852853359561e-05   -2.6243996014179756e-06   -4.4797844812130555e-05
2.457852853359561e-05   -2.6243996014179756e-06   -4.4797844812130555e-05
2.457852853359561e-05   -2.6243996014179756e-06   -4.4797844812130555e-05
1.8159731047565126e-06   -2.4186467950210416e-06   -6.983704114570176e-06
1.8159731047565126e-06   -2.4186467950210416e-06   -6.983704114570176e-06
1.8159731047565126e-06   -2.4186467950210416e-06   -6.983704114570176e-06
1.8159731047565126e-06   -2.4186467950210416e-06   -6.983704114570176e-06
1.3000594334283466e-05   -2.8960154881265494e-06   -2.5338318281251835e-05
1.3000594334283466e-05   -2.8960154881265494e-06   -2.5338318281251835e-05
1.3000594334283466e-05   -2.8960154881265494e-06   -2.5338318281251835e-05
1.3000594334283466e-05   -2.8960154881265494e-06   -2.5338318281251835e-05
1.81597310475651e-06   -2.6243996014179756e-06   -4.492129649596871e-05
1.81597310475651e-06   -2.6243996014179756e-06   -4.492129649596871e-05
1.81597310475651e-06   -2.6243996014179756e-06   -4.492129649596871e-05
1.81597310475651e-06   -2.6243996014179756e-06   -4.492129649596871e-05
2.457852853359561e-05   -2.4186467950210416e-06   -6.860252430731969e-06
2.457852853359561e-05   -2.4186467950210416e-06   -6.860252430731969e-06
2.457852853359561e-05   -2.4186467950210416e-06   -6.860252430731969e-06
2.457852853359561e-05   -2.4186467950210416e-06   -6.860252430731969e-06
2.4459080374045548e-05   -1.6495605135144654e-06   -4.5635120851011225e-05
2.4459080374045548e-05   -1.6495605135144654e-06   -4.5635120851011225e-05
2.4459080374045548e-05   -1.6495605135144654e-06   -4.5635120851011225e-05
2.4459080374045548e-05   -1.6495605135144654e-06   -4.5635120851011225e-05
1.6956100947141342e-06   -1.2810066298686953e-06   -7.917136048979657e-06
1.6956100947141342e-06   -1.2810066298686953e-06   -7.917136048979657e-06
1.6956100947141342e-06   -1.2810066298686953e-06   -7.917136048979657e-06
1.6956100947141342e-06   -1.2810066298686953e-06   -7.917136048979657e-06
1.28629076776907e-05   -1.9690029596950917e-06   -2.611650088937807e-05
1.28629076776907e-05   -1.9690029596950917e-06   -2.611650088937807e-05
1.28629076776907e-05   -1.9690029596950917e-06   -2.611650088937807e-05
1.28629076776907e-05   -1.9690029596950917e-06   -2.611650088937807e-05
1.6956100947141325e-06   -1.6495605135144654e-06   -4.5856253181198516e-05
1.6956100947141325e-06   -1.6495605135144654e-06   -4.5856253181198516e-05
1.6956100947141325e-06   -1.6495605135144654e-06   -4.5856253181198516e-05
1.6956100947141325e-06   -1.6495605135144654e-06   -4.5856253181198516e-05
2.4459080374045504e-05   -1.2810066298686953e-06   -7.696003718792217e-06
2.4459080374045504e-05   -1.2810066298686953e-06   -7.696003718792217e-06
2.4459080374045504e-05   -1.2810066298686953e-06   -7.696003718792217e-06
2.4459080374045504e-05   -1.2810066298686953e-06   -7.696003718792217e-06
2.3745279737534207e-05   -3.398168986021191e-07   -4.571614220879885e-05
2.3745279737534207e-05   -3.398168986021191e-07   -4.571614220879885e-05
2.3745279737534207e-05   -3.398168986021191e-07   -4.571614220879885e-05
2.3745279737534207e-05   -3.398168986021191e-07   -4.571614220879885e-05
1.4512185198279185e-06   1.257626384462262e-07   -8.83872123485078e-06
1.4512185198279185e-06   1.257626384462262e-07   -8.83872123485078e-06
1.4512185198279185e-06   1.257626384462262e-07   -8.83872123485078e-06
1.4512185198279185e-06   1.257626384462262e-07   -8.83872123485078e-06
1.2723459239964861e-05   -8.863026841715279e-07   -2.7018549908174956e-05
1.2723459239964861e-05   -8.863026841715279e-07   -2.7018549908174956e-05
1.2723459239964861e-05   -8.863026841715279e-07   -2.7018549908174956e-05
1.2723459239964861e-05   -8.863026841715279e-07   -2.7018549908174956e-05
2.437675834212669e-05   -8.831333522782279e-06   -2.6734503640245812e-05
2.437675834212669e-05   -8.831333522782279e-06   -2.6734503640245812e-05
2.437675834212669e-05   -8.831333522782279e-06   -2.6734503640245812e-05
2.437675834212669e-05   -8.831333522782279e-06   -2.6734503640245812e-05
4.655221101574441e-05   -6.652621116497946e-06   1.1531811592887603e-05
4.655221101574441e-05   -6.652621116497946e-06   1.1531811592887603e-05
4.655221101574441e-05   -6.652621116497946e-06   1.1531811592887603e-05
4.655221101574441e-05   -6.652621116497946e-06   1.1531811592887603e-05
4.83268358912415e-05   -7.511822180464786e-06   -3.2485110928195806e-05
4.83268358912415e-05   -7.511822180464786e-06   -3.2485110928195806e-05
4.83268358912415e-05   -7.511822180464786e-06   -3.2485110928195806e-05
4.83268358912415e-05   -7.511822180464786e-06   -3.2485110928195806e-05
2.4578528533595647e-05   -6.033276207237191e-06   6.208273750610727e-06
2.4578528533595647e-05   -6.033276207237191e-06   6.208273750610727e-06
2.4578528533595647e-05   -6.033276207237191e-06   6.208273750610727e-06
2.4578528533595647e-05   -6.033276207237191e-06   6.208273750610727e-06
3.428619170777298e-05   -7.2259577890508694e-06   -9.255555923929915e-06
3.428619170777298e-05   -7.2259577890508694e-06   -9.255555923929915e-06
3.428619170777298e-05   -7.2259577890508694e-06   -9.255555923929915e-06
3.428619170777298e-05   -7.2259577890508694e-06   -9.255555923929915e-06
2.4578528533595586e-05   -7.511822180464786e-06   -3.337223851213226e-05
2.4578528533595586e-05   -7.511822180464786e-06   -3.337223851213226e-05
2.4578528533595586e-05   -7.511822180464786e-06   -3.337223851213226e-05
2.4578528533595586e-05   -7.511822180464786e-06   -3.337223851213226e-05
4.83268358912415e-05   -6.033276207237191e-06   7.095401334547395e-06
4.83268358912415e-05   -6.033276207237191e-06   7.095401334547395e-06
4.83268358912415e-05   -6.033276207237191e-06   7.095401334547395e-06
4.83268358912415e-05   -6.033276207237191e-06   7.095401334547395e-06
4.814787701439626e-05   -6.863320614545985e-06   -3.532557135452108e-05
4.814787701439626e-05   -6.863320614545985e-06   -3.532557135452108e-05
4.814787701439626e-05   -6.863320614545985e-06   -3.532557135452108e-05
4.814787701439626e-05   -6.863320614545985e-06   -3.532557135452108e-05
2.4459080374045548e-05   -5.378647454886147e-06   3.2649524836009036e-06
2.4459080374045548e-05   -5.378647454886147e-06   3.2649524836009036e-06
2.4459080374045548e-05   -5.378647454886147e-06   3.2649524836009036e-06
2.4459080374045548e-05   -5.378647454886147e-06   3.2649524836009036e-06
3.548652550249437e-05   -6.380134123102818e-06   -1.4513230729550539e-05
3.548652550249437e-05   -6.380134123102818e-06   -1.4513230729550539e-05
3.548652550249437e-05   -6.380134123102818e-06   -1.4513230729550539e-05
3.548652550249437e-05   -6.380134123102818e-06   -1.4513230729550539e-05
2.4459080374045504e-05   -6.863320614545972e-06   -3.621637525031694e-05
2.4459080374045504e-05   -6.863320614545972e-06   -3.621637525031694e-05
2.4459080374045504e-05   -6.863320614545972e-06   -3.621637525031694e-05
2.4459080374045504e-05   -6.863320614545972e-06   -3.621637525031694e-05
4.814787701439626e-05   -5.37864745488612e-06   4.155756379396714e-06
4.814787701439626e-05   -5.37864745488612e-06   4.155756379396714e-06
4.814787701439626e-05   -5.37864745488612e-06   4.155756379396714e-06
4.814787701439626e-05   -5.37864745488612e-06   4.155756379396714e-06
4.785895363929125e-05   -5.331708408779886e-06   -4.111433982099812e-05
4.785895363929125e-05   -5.331708408779886e-06   -4.111433982099812e-05
4.785895363929125e-05   -5.331708408779886e-06   -4.111433982099812e-05
4.785895363929125e-05   -5.331708408779886e-06   -4.111433982099812e-05
2.374527973753425e-05   -3.970090911157702e-06   -1.7418538166431152e-06
2.374527973753425e-05   -3.970090911157702e-06   -1.7418538166431152e-06
2.374527973753425e-05   -3.970090911157702e-06   -1.7418538166431152e-06
2.374527973753425e-05   -3.970090911157702e-06   -1.7418538166431152e-06
3.447185721706907e-05   -5.492596682787958e-06   -1.8705979486222996e-05
3.447185721706907e-05   -5.492596682787958e-06   -1.8705979486222996e-05
3.447185721706907e-05   -5.492596682787958e-06   -1.8705979486222996e-05
3.447185721706907e-05   -5.492596682787958e-06   -1.8705979486222996e-05
-5.218675469575591e-05   7.5226617664803325e-06   -3.604509916304939e-05
-5.218675469575591e-05   7.5226617664803325e-06   -3.604509916304939e-05
-5.218675469575591e-05   7.5226617664803325e-06   -3.604509916304939e-05
-5.218675469575591e-05   7.5226617664803325e-06   -3.604509916304939e-05
-3.422090207381038e-05   5.745292388467042e-06   -7.1684330866148525e-06
-3.422090207381038e-05   5.745292388467042e-06   -7.1684330866148525e-06
-3.422090207381038e-05   5.745292388467042e-06   -7.1684330866148525e-06
-3.422090207381038e-05   5.745292388467042e-06   -7.1684330866148525e-06
-3.4385367847656486e-05   9.031043934157258e-06   -2.99297714760999e-05
-3.4385367847656486e-05   9.031043934157258e-06   -2.99297714760999e-05
-3.4385367847656486e-05   9.031043934157258e-06   -2.99297714760999e-05
-3.4385367847656486e-05   9.031043934157258e-06   -2.99297714760999e-05
-5.139314525185536e-05   6.951663086679743e-06   -3.358472939486148e-07
-5.139314525185536e-05   6.951663086679743e-06   -3.358472939486148e-07
-5.139314525185536e-05   6.951663086679743e-06   -3.358472939486148e-07
-5.139314525185536e-05   6.951663086679743e-06   -3.358472939486148e-07
-4.122586621779749e-05   7.65019521747456e-06   -1.7700431629188767e-05
-4.122586621779749e-05   7.65019521747456e-06   -1.7700431629188767e-05
-4.122586621779749e-05   7.65019521747456e-06   -1.7700431629188767e-05
-4.122586621779749e-05   7.65019521747456e-06   -1.7700431629188767e-05
-5.139314525185536e-05   9.031043934157258e-06   -2.8682142967613423e-05
-5.139314525185536e-05   9.031043934157258e-06   -2.8682142967613423e-05
-5.139314525185536e-05   9.031043934157258e-06   -2.8682142967613423e-05
-5.139314525185536e-05   9.031043934157258e-06   -2.8682142967613423e-05
-3.4385367847656486e-05   6.951663086679743e-06   -1.5834758024351186e-06
-3.4385367847656486e-05   6.951663086679743e-06   -1.5834758024351186e-06
-3.4385367847656486e-05   6.951663086679743e-06   -1.5834758024351186e-06
-3.4385367847656486e-05   6.951663086679743e-06   -1.5834758024351186e-06
-3.434950064201854e-05   9.711900971845798e-06   -2.560634081569382e-05
-3.434950064201854e-05   9.711900971845798e-06   -2.560634081569382e-05
-3.434950064201854e-05   9.711900971845798e-06   -2.560634081569382e-05
-3.434950064201854e-05   9.711900971845798e-06   -2.560634081569382e-05
-5.0620139709329825e-05   7.4819572449721906e-06   2.8493571992824402e-06
-5.0620139709329825e-05   7.4819572449721906e-06   2.8493571992824402e-06
-5.0620139709329825e-05   7.4819572449721906e-06   2.8493571992824402e-06
-5.0620139709329825e-05   7.4819572449721906e-06   2.8493571992824402e-06
-4.1580677239754157e-05   8.349513948537805e-06   -1.2736947605483049e-05
-4.1580677239754157e-05   8.349513948537805e-06   -1.2736947605483049e-05
-4.1580677239754157e-05   8.349513948537805e-06   -1.2736947605483049e-05
-4.1580677239754157e-05   8.349513948537805e-06   -1.2736947605483049e-05
-5.0620139709329825e-05   9.711900971845798e-06   -2.4268374579569706e-05
-5.0620139709329825e-05   9.711900971845798e-06   -2.4268374579569706e-05
-5.0620139709329825e-05   9.711900971845798e-06   -2.4268374579569706e-05
-5.0620139709329825e-05   9.711900971845798e-06   -2.4268374579569706e-05
-3.434950064201861e-05   7.4819572449721906e-06   1.5113909631584062e-06
-3.434950064201861e-05   7.4819572449721906e-06   1.5113909631584062e-06
-3.434950064201861e-05   7.4819572449721906e-06   1.5113909631584062e-06
-3.434950064201861e-05   7.4819572449721906e-06   1.5113909631584062e-06
-3.438374624797284e-05   1.0254447128944046e-05   -1.9554281593831446e-05
-3.438374624797284e-05   1.0254447128944046e-05   -1.9554281593831446e-05
-3.438374624797284e-05   1.0254447128944046e-05   -1.9554281593831446e-05
-3.438374624797284e-05   1.0254447128944046e-05   -1.9554281593831446e-05
-4.96115337341201e-05   8.004801392753088e-06   7.1751516581284366e-06
-4.96115337341201e-05   8.004801392753088e-06   7.1751516581284366e-06
-4.96115337341201e-05   8.004801392753088e-06   7.1751516581284366e-06
-4.96115337341201e-05   8.004801392753088e-06   7.1751516581284366e-06
-4.0632325292203194e-05   8.718202409487724e-06   -8.218236355106786e-06
-4.0632325292203194e-05   8.718202409487724e-06   -8.218236355106786e-06
-4.0632325292203194e-05   8.718202409487724e-06   -8.218236355106786e-06
-4.0632325292203194e-05   8.718202409487724e-06   -8.218236355106786e-06
-3.422090207381038e-05   3.500484184035615e-06   -4.175387966551654e-05
-3.422090207381038e-05   3.500484184035615e-06   -4.175387966551654e-05
-3.422090207381038e-05   3.500484184035615e-06   -4.175387966551654e-05
-3.422090207381038e-05   3.500484184035615e-06   -4.175387966551654e-05
-1.7425598115550967e-05   2.8658327219175782e-06   -1.4142497279021673e-05
-1.7425598115550967e-05   2.8658327219175782e-06   -1.4142497279021673e-05
-1.7425598115550967e-05   2.8658327219175782e-06   -1.4142497279021673e-05
-1.7425598115550967e-05   2.8658327219175782e-06   -1.4142497279021673e-05
-1.7636486859114322e-05   4.887489211655475e-06   -4.116169819896268e-05
-1.7636486859114322e-05   4.887489211655475e-06   -4.116169819896268e-05
-1.7636486859114322e-05   4.887489211655475e-06   -4.116169819896268e-05
-1.7636486859114322e-05   4.887489211655475e-06   -4.116169819896268e-05
-3.4385367847656486e-05   4.052513153470069e-06   -1.2745910916481257e-05
-3.4385367847656486e-05   4.052513153470069e-06   -1.2745910916481257e-05
-3.4385367847656486e-05   4.052513153470069e-06   -1.2745910916481257e-05
-3.4385367847656486e-05   4.052513153470069e-06   -1.2745910916481257e-05
-2.5695074076241296e-05   4.038525724915252e-06   -2.7221341411706932e-05
-2.5695074076241296e-05   4.038525724915252e-06   -2.7221341411706932e-05
-2.5695074076241296e-05   4.038525724915252e-06   -2.7221341411706932e-05
-2.5695074076241296e-05   4.038525724915252e-06   -2.7221341411706932e-05
-3.4385367847656446e-05   4.887489211655475e-06   -4.066071256405139e-05
-3.4385367847656446e-05   4.887489211655475e-06   -4.066071256405139e-05
-3.4385367847656446e-05   4.887489211655475e-06   -4.066071256405139e-05
-3.4385367847656446e-05   4.887489211655475e-06   -4.066071256405139e-05
-1.763648685911435e-05   4.052513153470123e-06   -1.3246896551392495e-05
-1.763648685911435e-05   4.052513153470123e-06   -1.3246896551392495e-05
-1.763648685911435e-05   4.052513153470123e-06   -1.3246896551392495e-05
-1.763648685911435e-05   4.052513153470123e-06   -1.3246896551392495e-05
-1.77729825592106e-05   6.035812675100357e-06   -4.007257287388271e-05
-1.77729825592106e-05   6.035812675100357e-06   -4.007257287388271e-05
-1.77729825592106e-05   6.035812675100357e-06   -4.007257287388271e-05
-1.77729825592106e-05   6.035812675100357e-06   -4.007257287388271e-05
-3.434950064201854e-05   5.1071183839323945e-06   -1.1887826161168641e-05
-3.434950064201854e-05   5.1071183839323945e-06   -1.1887826161168641e-05
-3.434950064201854e-05   5.1071183839323945e-06   -1.1887826161168641e-05
-3.434950064201854e-05   5.1071183839323945e-06   -1.1887826161168641e-05
-2.5741951814911657e-05   5.015035717068929e-06   -2.6178491272895268e-05
-2.5741951814911657e-05   5.015035717068929e-06   -2.6178491272895268e-05
-2.5741951814911657e-05   5.015035717068929e-06   -2.6178491272895268e-05
-2.5741951814911657e-05   5.015035717068929e-06   -2.6178491272895268e-05
-3.434950064201854e-05   6.035812675100357e-06   -3.9515356299181894e-05
-3.434950064201854e-05   6.035812675100357e-06   -3.9515356299181894e-05
-3.434950064201854e-05   6.035812675100357e-06   -3.9515356299181894e-05
-3.434950064201854e-05   6.035812675100357e-06   -3.9515356299181894e-05
-1.7772982559210628e-05   5.1071183839323945e-06   -1.2445042735869402e-05
-1.7772982559210628e-05   5.1071183839323945e-06   -1.2445042735869402e-05
-1.7772982559210628e-05   5.1071183839323945e-06   -1.2445042735869402e-05
-1.7772982559210628e-05   5.1071183839323945e-06   -1.2445042735869402e-05
-1.794988764858017e-05   7.271575849797878e-06   -3.997606426548833e-05
-1.794988764858017e-05   7.271575849797878e-06   -3.997606426548833e-05
-1.794988764858017e-05   7.271575849797878e-06   -3.997606426548833e-05
-1.794988764858017e-05   7.271575849797878e-06   -3.997606426548833e-05
-3.438374624797281e-05   6.229313557985685e-06   -1.1960942558079994e-05
-3.438374624797281e-05   6.229313557985685e-06   -1.1960942558079994e-05
-3.438374624797281e-05   6.229313557985685e-06   -1.1960942558079994e-05
-3.438374624797281e-05   6.229313557985685e-06   -1.1960942558079994e-05
-2.6046299402775678e-05   5.9825633390726265e-06   -2.5708637168727114e-05
-2.6046299402775678e-05   5.9825633390726265e-06   -2.5708637168727114e-05
-2.6046299402775678e-05   5.9825633390726265e-06   -2.5708637168727114e-05
-2.6046299402775678e-05   5.9825633390726265e-06   -2.5708637168727114e-05
-1.742559811555094e-05   -1.0488253995472887e-07   -4.501385419001806e-05
-1.742559811555094e-05   -1.0488253995472887e-07   -4.501385419001806e-05
-1.742559811555094e-05   -1.0488253995472887e-07   -4.501385419001806e-05
-1.742559811555094e-05   -1.0488253995472887e-07   -4.501385419001806e-05
-8.173670624286115e-07   1.5278380578807697e-07   -1.7178869294035183e-05
-8.173670624286115e-07   1.5278380578807697e-07   -1.7178869294035183e-05
-8.173670624286115e-07   1.5278380578807697e-07   -1.7178869294035183e-05
-8.173670624286115e-07   1.5278380578807697e-07   -1.7178869294035183e-05
-9.864814028480408e-07   1.173160416388083e-06   -4.459241757556444e-05
-9.864814028480408e-07   1.173160416388083e-06   -4.459241757556444e-05
-9.864814028480408e-07   1.173160416388083e-06   -4.459241757556444e-05
-9.864814028480408e-07   1.173160416388083e-06   -4.459241757556444e-05
-1.763648685911428e-05   1.3212098543485622e-06   -1.6931238144563617e-05
-1.763648685911428e-05   1.3212098543485622e-06   -1.6931238144563617e-05
-1.763648685911428e-05   1.3212098543485622e-06   -1.6931238144563617e-05
-1.763648685911428e-05   1.3212098543485622e-06   -1.6931238144563617e-05
-9.16452898662261e-06   7.700284153255746e-07   -3.0720459068636e-05
-9.16452898662261e-06   7.700284153255746e-07   -3.0720459068636e-05
-9.16452898662261e-06   7.700284153255746e-07   -3.0720459068636e-05
-9.16452898662261e-06   7.700284153255746e-07   -3.0720459068636e-05
-1.7636486859114322e-05   1.173160416388083e-06   -4.468124723834075e-05
-1.7636486859114322e-05   1.173160416388083e-06   -4.468124723834075e-05
-1.7636486859114322e-05   1.173160416388083e-06   -4.468124723834075e-05
-1.7636486859114322e-05   1.173160416388083e-06   -4.468124723834075e-05
-9.864814028480408e-07   1.3212098543485622e-06   -1.6842408481787307e-05
-9.864814028480408e-07   1.3212098543485622e-06   -1.6842408481787307e-05
-9.864814028480408e-07   1.3212098543485622e-06   -1.6842408481787307e-05
-9.864814028480408e-07   1.3212098543485622e-06   -1.6842408481787307e-05
-1.1084171304361884e-06   2.4219750018673923e-06   -4.471290724411759e-05
-1.1084171304361884e-06   2.4219750018673923e-06   -4.471290724411759e-05
-1.1084171304361884e-06   2.4219750018673923e-06   -4.471290724411759e-05
-1.1084171304361884e-06   2.4219750018673923e-06   -4.471290724411759e-05
-1.77729825592106e-05   2.4861857144085355e-06   -1.6977157957018285e-05
-1.77729825592106e-05   2.4861857144085355e-06   -1.6977157957018285e-05
-1.77729825592106e-05   2.4861857144085355e-06   -1.6977157957018285e-05
-1.77729825592106e-05   2.4861857144085355e-06   -1.6977157957018285e-05
-9.38302213376787e-06   1.8005458681820798e-06   -3.054904142502026e-05
-9.38302213376787e-06   1.8005458681820798e-06   -3.054904142502026e-05
-9.38302213376787e-06   1.8005458681820798e-06   -3.054904142502026e-05
-9.38302213376787e-06   1.8005458681820798e-06   -3.054904142502026e-05
-1.77729825592106e-05   2.4219750018673923e-06   -4.475143367164232e-05
-1.77729825592106e-05   2.4219750018673923e-06   -4.475143367164232e-05
-1.77729825592106e-05   2.4219750018673923e-06   -4.475143367164232e-05
-1.77729825592106e-05   2.4219750018673923e-06   -4.475143367164232e-05
-1.1084171304361884e-06   2.4861857144085355e-06   -1.6938631529493474e-05
-1.1084171304361884e-06   2.4861857144085355e-06   -1.6938631529493474e-05
-1.1084171304361884e-06   2.4861857144085355e-06   -1.6938631529493474e-05
-1.1084171304361884e-06   2.4861857144085355e-06   -1.6938631529493474e-05
-1.3004347186393576e-06   3.723033395718826e-06   -4.5288035356735e-05
-1.3004347186393576e-06   3.723033395718826e-06   -4.5288035356735e-05
-1.3004347186393576e-06   3.723033395718826e-06   -4.5288035356735e-05
-1.3004347186393576e-06   3.723033395718826e-06   -4.5288035356735e-05
-1.7949887648580182e-05   3.6782088915653013e-06   -1.7512052437674894e-05
-1.7949887648580182e-05   3.6782088915653013e-06   -1.7512052437674894e-05
-1.7949887648580182e-05   3.6782088915653013e-06   -1.7512052437674894e-05
-1.7949887648580182e-05   3.6782088915653013e-06   -1.7512052437674894e-05
-9.615178573699775e-06   2.8433081689238507e-06   -3.0902293795557154e-05
-9.615178573699775e-06   2.8433081689238507e-06   -3.0902293795557154e-05
-9.615178573699775e-06   2.8433081689238507e-06   -3.0902293795557154e-05
-9.615178573699775e-06   2.8433081689238507e-06   -3.0902293795557154e-05
-8.173670624286132e-07   -3.580325526752841e-06   -4.021997592541809e-05
-8.173670624286132e-07   -3.580325526752841e-06   -4.021997592541809e-05
-8.173670624286132e-07   -3.580325526752841e-06   -4.021997592541809e-05
-8.173670624286132e-07   -3.580325526752841e-06   -4.021997592541809e-05
1.5705206773018588e-05   -2.3988715372843714e-06   -1.197348047265838e-05
1.5705206773018588e-05   -2.3988715372843714e-06   -1.197348047265838e-05
1.5705206773018588e-05   -2.3988715372843714e-06   -1.197348047265838e-05
1.5705206773018588e-05   -2.3988715372843714e-06   -1.197348047265838e-05
1.5693909895806412e-05   -2.4186467950210416e-06   -3.9756004082535935e-05
1.5693909895806412e-05   -2.4186467950210416e-06   -3.9756004082535935e-05
1.5693909895806412e-05   -2.4186467950210416e-06   -3.9756004082535935e-05
1.5693909895806412e-05   -2.4186467950210416e-06   -3.9756004082535935e-05
-9.864814028480408e-07   -1.3274097255918022e-06   -1.2610094159769455e-05
-9.864814028480408e-07   -1.3274097255918022e-06   -1.2610094159769455e-05
-9.864814028480408e-07   -1.3274097255918022e-06   -1.2610094159769455e-05
-9.864814028480408e-07   -1.3274097255918022e-06   -1.2610094159769455e-05
7.3425000275307625e-06   -2.3468113219348406e-06   -2.5880088919261646e-05
7.3425000275307625e-06   -2.3468113219348406e-06   -2.5880088919261646e-05
7.3425000275307625e-06   -2.3468113219348406e-06   -2.5880088919261646e-05
7.3425000275307625e-06   -2.3468113219348406e-06   -2.5880088919261646e-05
-9.864814028480408e-07   -2.4186467950210416e-06   -4.04107463241935e-05
-9.864814028480408e-07   -2.4186467950210416e-06   -4.04107463241935e-05
-9.864814028480408e-07   -2.4186467950210416e-06   -4.04107463241935e-05
-9.864814028480408e-07   -2.4186467950210416e-06   -4.04107463241935e-05
1.569390989580644e-05   -1.3274097255918022e-06   -1.1955351918111964e-05
1.569390989580644e-05   -1.3274097255918022e-06   -1.1955351918111964e-05
1.569390989580644e-05   -1.3274097255918022e-06   -1.1955351918111964e-05
1.569390989580644e-05   -1.3274097255918022e-06   -1.1955351918111964e-05
1.5769290745408405e-05   -1.2810066298687224e-06   -4.080623928575549e-05
1.5769290745408405e-05   -1.2810066298687224e-06   -4.080623928575549e-05
1.5769290745408405e-05   -1.2810066298687224e-06   -4.080623928575549e-05
1.5769290745408405e-05   -1.2810066298687224e-06   -4.080623928575549e-05
-1.1084171304361901e-06   -2.7494824337464044e-07   -1.328036119124433e-05
-1.1084171304361901e-06   -2.7494824337464044e-07   -1.328036119124433e-05
-1.1084171304361901e-06   -2.7494824337464044e-07   -1.328036119124433e-05
-1.1084171304361901e-06   -2.7494824337464044e-07   -1.328036119124433e-05
7.117243034815989e-06   -1.4178440791237385e-06   -2.630405729854843e-05
7.117243034815989e-06   -1.4178440791237385e-06   -2.630405729854843e-05
7.117243034815989e-06   -1.4178440791237385e-06   -2.630405729854843e-05
7.117243034815989e-06   -1.4178440791237385e-06   -2.630405729854843e-05
-1.1084171304361867e-06   -1.2810066298687224e-06   -4.1409874317651816e-05
-1.1084171304361867e-06   -1.2810066298687224e-06   -4.1409874317651816e-05
-1.1084171304361867e-06   -1.2810066298687224e-06   -4.1409874317651816e-05
-1.1084171304361867e-06   -1.2810066298687224e-06   -4.1409874317651816e-05
1.5769290745408432e-05   -2.7494824337458623e-07   -1.2676726159347807e-05
1.5769290745408432e-05   -2.7494824337458623e-07   -1.2676726159347807e-05
1.5769290745408432e-05   -2.7494824337458623e-07   -1.2676726159347807e-05
1.5769290745408432e-05   -2.7494824337458623e-07   -1.2676726159347807e-05
1.564908918565519e-05   1.257626384462533e-07   -4.199806687179346e-05
1.564908918565519e-05   1.257626384462533e-07   -4.199806687179346e-05
1.564908918565519e-05   1.257626384462533e-07   -4.199806687179346e-05
1.564908918565519e-05   1.257626384462533e-07   -4.199806687179346e-05
-1.3004347186393593e-06   9.552123036675594e-07   -1.4246530163768801e-05
-1.3004347186393593e-06   9.552123036675594e-07   -1.4246530163768801e-05
-1.3004347186393593e-06   9.552123036675594e-07   -1.4246530163768801e-05
-1.3004347186393593e-06   9.552123036675594e-07   -1.4246530163768801e-05
7.038645820637624e-06   -4.2419854924042504e-07   -2.7317351217485423e-05
7.038645820637624e-06   -4.2419854924042504e-07   -2.7317351217485423e-05
7.038645820637624e-06   -4.2419854924042504e-07   -2.7317351217485423e-05
7.038645820637624e-06   -4.2419854924042504e-07   -2.7317351217485423e-05
1.570520677301856e-05   -6.652621116497946e-06   -2.2497888424597817e-05
1.570520677301856e-05   -6.652621116497946e-06   -2.2497888424597817e-05
1.570520677301856e-05   -6.652621116497946e-06   -2.2497888424597817e-05
1.570520677301856e-05   -6.652621116497946e-06   -2.2497888424597817e-05
3.116877759954351e-05   -4.347846621528123e-06   4.657594316592392e-06
3.116877759954351e-05   -4.347846621528123e-06   4.657594316592392e-06
3.116877759954351e-05   -4.347846621528123e-06   4.657594316592392e-06
3.116877759954351e-05   -4.347846621528123e-06   4.657594316592392e-06
3.2223222890366475e-05   -6.033276207237164e-06   -2.5305324938711344e-05
3.2223222890366475e-05   -6.033276207237164e-06   -2.5305324938711344e-05
3.2223222890366475e-05   -6.033276207237164e-06   -2.5305324938711344e-05
3.2223222890366475e-05   -6.033276207237164e-06   -2.5305324938711344e-05
1.5693909895806412e-05   -3.72968793643406e-06   8.613770897403239e-07
1.5693909895806412e-05   -3.72968793643406e-06   8.613770897403239e-07
1.5693909895806412e-05   -3.72968793643406e-06   8.613770897403239e-07
1.5693909895806412e-05   -3.72968793643406e-06   8.613770897403239e-07
2.268503676479545e-05   -5.129206682248069e-06   -9.950789777753014e-06
2.268503676479545e-05   -5.129206682248069e-06   -9.950789777753014e-06
2.268503676479545e-05   -5.129206682248069e-06   -9.950789777753014e-06
2.268503676479545e-05   -5.129206682248069e-06   -9.950789777753014e-06
1.56939098958064e-05   -6.033276207237164e-06   -2.6687477901193076e-05
1.56939098958064e-05   -6.033276207237164e-06   -2.6687477901193076e-05
1.56939098958064e-05   -6.033276207237164e-06   -2.6687477901193076e-05
1.56939098958064e-05   -6.033276207237164e-06   -2.6687477901193076e-05
3.2223222890366475e-05   -3.72968793643406e-06   2.243530052222192e-06
3.2223222890366475e-05   -3.72968793643406e-06   2.243530052222192e-06
3.2223222890366475e-05   -3.72968793643406e-06   2.243530052222192e-06
3.2223222890366475e-05   -3.72968793643406e-06   2.243530052222192e-06
3.303440325529318e-05   -5.37864745488612e-06   -2.853831338299363e-05
3.303440325529318e-05   -5.37864745488612e-06   -2.853831338299363e-05
3.303440325529318e-05   -5.37864745488612e-06   -2.853831338299363e-05
3.303440325529318e-05   -5.37864745488612e-06   -2.853831338299363e-05
1.5769290745408378e-05   -3.200364620938067e-06   -1.0700955668878196e-06
1.5769290745408378e-05   -3.200364620938067e-06   -1.0700955668878196e-06
1.5769290745408378e-05   -3.200364620938067e-06   -1.0700955668878196e-06
1.5769290745408378e-05   -3.200364620938067e-06   -1.0700955668878196e-06
2.3457723945400635e-05   -4.730456315481105e-06   -1.2966095883482358e-05
2.3457723945400635e-05   -4.730456315481105e-06   -1.2966095883482358e-05
2.3457723945400635e-05   -4.730456315481105e-06   -1.2966095883482358e-05
2.3457723945400635e-05   -4.730456315481105e-06   -1.2966095883482358e-05
1.5769290745408405e-05   -5.37864745488612e-06   -2.984528308336244e-05
1.5769290745408405e-05   -5.37864745488612e-06   -2.984528308336244e-05
1.5769290745408405e-05   -5.37864745488612e-06   -2.984528308336244e-05
1.5769290745408405e-05   -5.37864745488612e-06   -2.984528308336244e-05
3.3034403255293126e-05   -3.200364620938067e-06   2.368741334811235e-07
3.3034403255293126e-05   -3.200364620938067e-06   2.368741334811235e-07
3.3034403255293126e-05   -3.200364620938067e-06   2.368741334811235e-07
3.3034403255293126e-05   -3.200364620938067e-06   2.368741334811235e-07
3.389944023041752e-05   -3.970090911157702e-06   -3.4040689518225536e-05
3.389944023041752e-05   -3.970090911157702e-06   -3.4040689518225536e-05
3.389944023041752e-05   -3.970090911157702e-06   -3.4040689518225536e-05
3.389944023041752e-05   -3.970090911157702e-06   -3.4040689518225536e-05
1.5649089185655164e-05   -2.070328148509029e-06   -4.763295434544282e-06
1.5649089185655164e-05   -2.070328148509029e-06   -4.763295434544282e-06
1.5649089185655164e-05   -2.070328148509029e-06   -4.763295434544282e-06
1.5649089185655164e-05   -2.070328148509029e-06   -4.763295434544282e-06
2.3359644329016778e-05   -4.074093548473779e-06   -1.6411961433501337e-05
2.3359644329016778e-05   -4.074093548473779e-06   -1.6411961433501337e-05
2.3359644329016778e-05   -4.074093548473779e-06   -1.6411961433501337e-05
2.3359644329016778e-05   -4.074093548473779e-06   -1.6411961433501337e-05
-3.7473840698078534e-05   5.745292388467042e-06   -2.852835855253992e-05
-3.7473840698078534e-05   5.745292388467042e-06   -2.852835855253992e-05
-3.7473840698078534e-05   5.745292388467042e-06   -2.852835855253992e-05
-3.7473840698078534e-05   5.745292388467042e-06   -2.852835855253992e-05
-2.552706224511606e-05   3.652075703354865e-06   -9.872991142003068e-06
-2.552706224511606e-05   3.652075703354865e-06   -9.872991142003068e-06
-2.552706224511606e-05   3.652075703354865e-06   -9.872991142003068e-06
-2.552706224511606e-05   3.652075703354865e-06   -9.872991142003068e-06
-2.543392121398289e-05   6.951663086679743e-06   -2.4236556516392827e-05
-2.543392121398289e-05   6.951663086679743e-06   -2.4236556516392827e-05
-2.543392121398289e-05   6.951663086679743e-06   -2.4236556516392827e-05
-2.543392121398289e-05   6.951663086679743e-06   -2.4236556516392827e-05
-3.6350323374895454e-05   4.650013582769056e-06   -4.661563212525488e-06
-3.6350323374895454e-05   4.650013582769056e-06   -4.661563212525488e-06
-3.6350323374895454e-05   4.650013582769056e-06   -4.661563212525488e-06
-3.6350323374895454e-05   4.650013582769056e-06   -4.661563212525488e-06
-2.9872723510995244e-05   5.532875420375121e-06   -1.5987280088256266e-05
-2.9872723510995244e-05   5.532875420375121e-06   -1.5987280088256266e-05
-2.9872723510995244e-05   5.532875420375121e-06   -1.5987280088256266e-05
-2.9872723510995244e-05   5.532875420375121e-06   -1.5987280088256266e-05
-3.6350323374895454e-05   6.951663086679743e-06   -2.2855566814046447e-05
-3.6350323374895454e-05   6.951663086679743e-06   -2.2855566814046447e-05
-3.6350323374895454e-05   6.951663086679743e-06   -2.2855566814046447e-05
-3.6350323374895454e-05   6.951663086679743e-06   -2.2855566814046447e-05
-2.5433921213982916e-05   4.650013582769056e-06   -6.042552914871868e-06
-2.5433921213982916e-05   4.650013582769056e-06   -6.042552914871868e-06
-2.5433921213982916e-05   4.650013582769056e-06   -6.042552914871868e-06
-2.5433921213982916e-05   4.650013582769056e-06   -6.042552914871868e-06
-2.5240886855749424e-05   7.4819572449721906e-06   -2.113438333961994e-05
-2.5240886855749424e-05   7.4819572449721906e-06   -2.113438333961994e-05
-2.5240886855749424e-05   7.4819572449721906e-06   -2.113438333961994e-05
-2.5240886855749424e-05   7.4819572449721906e-06   -2.113438333961994e-05
-3.5510943005997336e-05   5.115386373707206e-06   -2.597680566447777e-06
-3.5510943005997336e-05   5.115386373707206e-06   -2.597680566447777e-06
-3.5510943005997336e-05   5.115386373707206e-06   -2.597680566447777e-06
-3.5510943005997336e-05   5.115386373707206e-06   -2.597680566447777e-06
-2.9873528576583494e-05   6.089806009128718e-06   -1.257802306339035e-05
-2.9873528576583494e-05   6.089806009128718e-06   -1.257802306339035e-05
-2.9873528576583494e-05   6.089806009128718e-06   -1.257802306339035e-05
-2.9873528576583494e-05   6.089806009128718e-06   -1.257802306339035e-05
-3.5510943005997336e-05   7.4819572449721906e-06   -1.9714440816860873e-05
-3.5510943005997336e-05   7.4819572449721906e-06   -1.9714440816860873e-05
-3.5510943005997336e-05   7.4819572449721906e-06   -1.9714440816860873e-05
-3.5510943005997336e-05   7.4819572449721906e-06   -1.9714440816860873e-05
-2.5240886855749478e-05   5.115386373707206e-06   -4.017623089206789e-06
-2.5240886855749478e-05   5.115386373707206e-06   -4.017623089206789e-06
-2.5240886855749478e-05   5.115386373707206e-06   -4.017623089206789e-06
-2.5240886855749478e-05   5.115386373707206e-06   -4.017623089206789e-06
-2.5163927431259668e-05   8.004801392753034e-06   -1.684169184718574e-05
-2.5163927431259668e-05   8.004801392753034e-06   -1.684169184718574e-05
-2.5163927431259668e-05   8.004801392753034e-06   -1.684169184718574e-05
-2.5163927431259668e-05   8.004801392753034e-06   -1.684169184718574e-05
-3.4413240306000776e-05   5.701211357011745e-06   -4.401636783892991e-08
-3.4413240306000776e-05   5.701211357011745e-06   -4.401636783892991e-08
-3.4413240306000776e-05   5.701211357011745e-06   -4.401636783892991e-08
-3.4413240306000776e-05   5.701211357011745e-06   -4.401636783892991e-08
-2.8989243322762373e-05   6.392359305074872e-06   -9.498700108740983e-06
-2.8989243322762373e-05   6.392359305074872e-06   -9.498700108740983e-06
-2.8989243322762373e-05   6.392359305074872e-06   -9.498700108740983e-06
-2.8989243322762373e-05   6.392359305074872e-06   -9.498700108740983e-06
-2.5527062245116032e-05   2.8658327219175782e-06   -3.6377561878743166e-05
-2.5527062245116032e-05   2.8658327219175782e-06   -3.6377561878743166e-05
-2.5527062245116032e-05   2.8658327219175782e-06   -3.6377561878743166e-05
-2.5527062245116032e-05   2.8658327219175782e-06   -3.6377561878743166e-05
-1.4694912779074477e-05   1.889996962582078e-06   -1.89094808909419e-05
-1.4694912779074477e-05   1.889996962582078e-06   -1.89094808909419e-05
-1.4694912779074477e-05   1.889996962582078e-06   -1.89094808909419e-05
-1.4694912779074477e-05   1.889996962582078e-06   -1.89094808909419e-05
-1.4702159557884201e-05   4.052513153470123e-06   -3.606420251789941e-05
-1.4702159557884201e-05   4.052513153470123e-06   -3.606420251789941e-05
-1.4702159557884201e-05   4.052513153470123e-06   -3.606420251789941e-05
-1.4702159557884201e-05   4.052513153470123e-06   -3.606420251789941e-05
-2.543392121398289e-05   2.943828341036214e-06   -1.751272220360786e-05
-2.543392121398289e-05   2.943828341036214e-06   -1.751272220360786e-05
-2.543392121398289e-05   2.943828341036214e-06   -1.751272220360786e-05
-2.543392121398289e-05   2.943828341036214e-06   -1.751272220360786e-05
-1.9904201996137713e-05   3.135836556834794e-06   -2.6844125829495683e-05
-1.9904201996137713e-05   3.135836556834794e-06   -2.6844125829495683e-05
-1.9904201996137713e-05   3.135836556834794e-06   -2.6844125829495683e-05
-1.9904201996137713e-05   3.135836556834794e-06   -2.6844125829495683e-05
-2.5433921213982862e-05   4.052513153470069e-06   -3.539899163043886e-05
-2.5433921213982862e-05   4.052513153470069e-06   -3.539899163043886e-05
-2.5433921213982862e-05   4.052513153470069e-06   -3.539899163043886e-05
-2.5433921213982862e-05   4.052513153470069e-06   -3.539899163043886e-05
-1.4702159557884201e-05   2.943828341036214e-06   -1.8177933091068115e-05
-1.4702159557884201e-05   2.943828341036214e-06   -1.8177933091068115e-05
-1.4702159557884201e-05   2.943828341036214e-06   -1.8177933091068115e-05
-1.4702159557884201e-05   2.943828341036214e-06   -1.8177933091068115e-05
-1.4691435363489724e-05   5.1071183839323945e-06   -3.525598046996063e-05
-1.4691435363489724e-05   5.1071183839323945e-06   -3.525598046996063e-05
-1.4691435363489724e-05   5.1071183839323945e-06   -3.525598046996063e-05
-1.4691435363489724e-05   5.1071183839323945e-06   -3.525598046996063e-05
-2.5240886855749424e-05   3.903151707242776e-06   -1.6951181310180757e-05
-2.5240886855749424e-05   3.903151707242776e-06   -1.6951181310180757e-05
-2.5240886855749424e-05   3.903151707242776e-06   -1.6951181310180757e-05
-2.5240886855749424e-05   3.903151707242776e-06   -1.6951181310180757e-05
-1.981163635308152e-05   4.001653025614707e-06   -2.6059032938983236e-05
-1.981163635308152e-05   4.001653025614707e-06   -2.6059032938983236e-05
-1.981163635308152e-05   4.001653025614707e-06   -2.6059032938983236e-05
-1.981163635308152e-05   4.001653025614707e-06   -2.6059032938983236e-05
-2.5240886855749424e-05   5.1071183839323945e-06   -3.4533600463946905e-05
-2.5240886855749424e-05   5.1071183839323945e-06   -3.4533600463946905e-05
-2.5240886855749424e-05   5.1071183839323945e-06   -3.4533600463946905e-05
-2.5240886855749424e-05   5.1071183839323945e-06   -3.4533600463946905e-05
-1.4691435363489758e-05   3.903151707242885e-06   -1.767356131619435e-05
-1.4691435363489758e-05   3.903151707242885e-06   -1.767356131619435e-05
-1.4691435363489758e-05   3.903151707242885e-06   -1.767356131619435e-05
-1.4691435363489758e-05   3.903151707242885e-06   -1.767356131619435e-05
-1.470340496515301e-05   6.229313557985739e-06   -3.539822772737457e-05
-1.470340496515301e-05   6.229313557985739e-06   -3.539822772737457e-05
-1.470340496515301e-05   6.229313557985739e-06   -3.539822772737457e-05
-1.470340496515301e-05   6.229313557985739e-06   -3.539822772737457e-05
-2.516392743125964e-05   4.9455983818273925e-06   -1.7193794511501874e-05
-2.516392743125964e-05   4.9455983818273925e-06   -1.7193794511501874e-05
-2.516392743125964e-05   4.9455983818273925e-06   -1.7193794511501874e-05
-2.516392743125964e-05   4.9455983818273925e-06   -1.7193794511501874e-05
-1.994008090963517e-05   4.858623804724618e-06   -2.584802063461438e-05
-1.994008090963517e-05   4.858623804724618e-06   -2.584802063461438e-05
-1.994008090963517e-05   4.858623804724618e-06   -2.584802063461438e-05
-1.994008090963517e-05   4.858623804724618e-06   -2.584802063461438e-05
-1.4694912779074444e-05   1.5278380578813118e-07   -4.015403515680383e-05
-1.4694912779074444e-05   1.5278380578813118e-07   -4.015403515680383e-05
-1.4694912779074444e-05   1.5278380578813118e-07   -4.015403515680383e-05
-1.4694912779074444e-05   1.5278380578813118e-07   -4.015403515680383e-05
-4.0115627685976625e-06   3.2655182585523013e-07   -2.2244190993968944e-05
-4.0115627685976625e-06   3.2655182585523013e-07   -2.2244190993968944e-05
-4.0115627685976625e-06   3.2655182585523013e-07   -2.2244190993968944e-05
-4.0115627685976625e-06   3.2655182585523013e-07   -2.2244190993968944e-05
-4.01936217225615e-06   1.3212098543485622e-06   -3.9709353587018086e-05
-4.01936217225615e-06   1.3212098543485622e-06   -3.9709353587018086e-05
-4.01936217225615e-06   1.3212098543485622e-06   -3.9709353587018086e-05
-4.01936217225615e-06   1.3212098543485622e-06   -3.9709353587018086e-05
-1.470215955788418e-05   1.3865273944359876e-06   -2.194388180169044e-05
-1.470215955788418e-05   1.3865273944359876e-06   -2.194388180169044e-05
-1.470215955788418e-05   1.3865273944359876e-06   -2.194388180169044e-05
-1.470215955788418e-05   1.3865273944359876e-06   -2.194388180169044e-05
-9.294739501516439e-06   9.342370989206443e-07   -3.068487438499421e-05
-9.294739501516439e-06   9.342370989206443e-07   -3.068487438499421e-05
-9.294739501516439e-06   9.342370989206443e-07   -3.068487438499421e-05
-9.294739501516439e-06   9.342370989206443e-07   -3.068487438499421e-05
-1.470215955788418e-05   1.3212098543485622e-06   -3.9748544111070476e-05
-1.470215955788418e-05   1.3212098543485622e-06   -3.9748544111070476e-05
-1.470215955788418e-05   1.3212098543485622e-06   -3.9748544111070476e-05
-1.470215955788418e-05   1.3212098543485622e-06   -3.9748544111070476e-05
-4.01936217225615e-06   1.3865273944359876e-06   -2.190469127763794e-05
-4.01936217225615e-06   1.3865273944359876e-06   -2.190469127763794e-05
-4.01936217225615e-06   1.3865273944359876e-06   -2.190469127763794e-05
-4.01936217225615e-06   1.3865273944359876e-06   -2.190469127763794e-05
-4.005403813454249e-06   2.4861857144085355e-06   -3.980986816026213e-05
-4.005403813454249e-06   2.4861857144085355e-06   -3.980986816026213e-05
-4.005403813454249e-06   2.4861857144085355e-06   -3.980986816026213e-05
-4.005403813454249e-06   2.4861857144085355e-06   -3.980986816026213e-05
-1.4691435363489724e-05   2.4498982658207377e-06   -2.1978043107716966e-05
-1.4691435363489724e-05   2.4498982658207377e-06   -2.1978043107716966e-05
-1.4691435363489724e-05   2.4498982658207377e-06   -2.1978043107716966e-05
-1.4691435363489724e-05   2.4498982658207377e-06   -2.1978043107716966e-05
-9.357071838407764e-06   1.8617337232151344e-06   -3.0515750257290012e-05
-9.357071838407764e-06   1.8617337232151344e-06   -3.0515750257290012e-05
-9.357071838407764e-06   1.8617337232151344e-06   -3.0515750257290012e-05
-9.357071838407764e-06   1.8617337232151344e-06   -3.0515750257290012e-05
-1.4691435363489724e-05   2.4861857144085355e-06   -3.978809569110941e-05
-1.4691435363489724e-05   2.4861857144085355e-06   -3.978809569110941e-05
-1.4691435363489724e-05   2.4861857144085355e-06   -3.978809569110941e-05
-1.4691435363489724e-05   2.4861857144085355e-06   -3.978809569110941e-05
-4.005403813454249e-06   2.4498982658207377e-06   -2.199981557686958e-05
-4.005403813454249e-06   2.4498982658207377e-06   -2.199981557686958e-05
-4.005403813454249e-06   2.4498982658207377e-06   -2.199981557686958e-05
-4.005403813454249e-06   2.4498982658207377e-06   -2.199981557686958e-05
-4.011749798851946e-06   3.6782088915653013e-06   -4.0411789040498754e-05
-4.011749798851946e-06   3.6782088915653013e-06   -4.0411789040498754e-05
-4.011749798851946e-06   3.6782088915653013e-06   -4.0411789040498754e-05
-4.011749798851946e-06   3.6782088915653013e-06   -4.0411789040498754e-05
-1.4703404965153016e-05   3.531860877204352e-06   -2.250455495471368e-05
-1.4703404965153016e-05   3.531860877204352e-06   -2.250455495471368e-05
-1.4703404965153016e-05   3.531860877204352e-06   -2.250455495471368e-05
-1.4703404965153016e-05   3.531860877204352e-06   -2.250455495471368e-05
-9.437618765362424e-06   2.8014144679168853e-06   -3.084259744212557e-05
-9.437618765362424e-06   2.8014144679168853e-06   -3.084259744212557e-05
-9.437618765362424e-06   2.8014144679168853e-06   -3.084259744212557e-05
-9.437618765362424e-06   2.8014144679168853e-06   -3.084259744212557e-05
-4.011562768597656e-06   -2.3988715372843714e-06   -3.555325791706782e-05
-4.011562768597656e-06   -2.3988715372843714e-06   -3.555325791706782e-05
-4.011562768597656e-06   -2.3988715372843714e-06   -3.555325791706782e-05
-4.011562768597656e-06   -2.3988715372843714e-06   -3.555325791706782e-05
6.513619861617896e-06   -1.102963394423377e-06   -1.7233741980992017e-05
6.513619861617896e-06   -1.102963394423377e-06   -1.7233741980992017e-05
6.513619861617896e-06   -1.102963394423377e-06   -1.7233741980992017e-05
6.513619861617896e-06   -1.102963394423377e-06   -1.7233741980992017e-05
6.5994607763023765e-06   -1.3274097255918022e-06   -3.474307941485322e-05
6.5994607763023765e-06   -1.3274097255918022e-06   -3.474307941485322e-05
6.5994607763023765e-06   -1.3274097255918022e-06   -3.474307941485322e-05
6.5994607763023765e-06   -1.3274097255918022e-06   -3.474307941485322e-05
-4.019362172256142e-06   -1.0414330868025509e-07   -1.777900101740267e-05
-4.019362172256142e-06   -1.0414330868025509e-07   -1.777900101740267e-05
-4.019362172256142e-06   -1.0414330868025509e-07   -1.777900101740267e-05
-4.019362172256142e-06   -1.0414330868025509e-07   -1.777900101740267e-05
1.2770863462978628e-06   -1.1411511641635109e-06   -2.598421050170276e-05
1.2770863462978628e-06   -1.1411511641635109e-06   -2.598421050170276e-05
1.2770863462978628e-06   -1.1411511641635109e-06   -2.598421050170276e-05
1.2770863462978628e-06   -1.1411511641635109e-06   -2.598421050170276e-05
-4.01936217225615e-06   -1.3274097255918022e-06   -3.547703926500023e-05
-4.01936217225615e-06   -1.3274097255918022e-06   -3.547703926500023e-05
-4.01936217225615e-06   -1.3274097255918022e-06   -3.547703926500023e-05
-4.01936217225615e-06   -1.3274097255918022e-06   -3.547703926500023e-05
6.5994607763023765e-06   -1.0414330868014667e-07   -1.704504116725557e-05
6.5994607763023765e-06   -1.0414330868014667e-07   -1.704504116725557e-05
6.5994607763023765e-06   -1.0414330868014667e-07   -1.704504116725557e-05
6.5994607763023765e-06   -1.0414330868014667e-07   -1.704504116725557e-05
6.802456706307206e-06   -2.7494824337464044e-07   -3.547281301230319e-05
6.802456706307206e-06   -2.7494824337464044e-07   -3.547281301230319e-05
6.802456706307206e-06   -2.7494824337464044e-07   -3.547281301230319e-05
6.802456706307206e-06   -2.7494824337464044e-07   -3.547281301230319e-05
-4.0054038134542426e-06   8.563597728080416e-07   -1.813849695574373e-05
-4.0054038134542426e-06   8.563597728080416e-07   -1.813849695574373e-05
-4.0054038134542426e-06   8.563597728080416e-07   -1.813849695574373e-05
-4.0054038134542426e-06   8.563597728080416e-07   -1.813849695574373e-05
1.2160439191564047e-06   -3.101478075990616e-07   -2.61410052951838e-05
1.2160439191564047e-06   -3.101478075990616e-07   -2.61410052951838e-05
1.2160439191564047e-06   -3.101478075990616e-07   -2.61410052951838e-05
1.2160439191564047e-06   -3.101478075990616e-07   -2.61410052951838e-05
-4.005403813454246e-06   -2.7494824337464044e-07   -3.6151597822012705e-05
-4.005403813454246e-06   -2.7494824337464044e-07   -3.6151597822012705e-05
-4.005403813454246e-06   -2.7494824337464044e-07   -3.6151597822012705e-05
-4.005403813454246e-06   -2.7494824337464044e-07   -3.6151597822012705e-05
6.802456706307206e-06   8.563597728080416e-07   -1.7459712146034034e-05
6.802456706307206e-06   8.563597728080416e-07   -1.7459712146034034e-05
6.802456706307206e-06   8.563597728080416e-07   -1.7459712146034034e-05
6.802456706307206e-06   8.563597728080416e-07   -1.7459712146034034e-05
6.901980308449915e-06   9.552123036675594e-07   -3.6518427410553325e-05
6.901980308449915e-06   9.552123036675594e-07   -3.6518427410553325e-05
6.901980308449915e-06   9.552123036675594e-07   -3.6518427410553325e-05
6.901980308449915e-06   9.552123036675594e-07   -3.6518427410553325e-05
-4.011749798851946e-06   1.9567867262462214e-06   -1.892982188526389e-05
-4.011749798851946e-06   1.9567867262462214e-06   -1.892982188526389e-05
-4.011749798851946e-06   1.9567867262462214e-06   -1.892982188526389e-05
-4.011749798851946e-06   1.9567867262462214e-06   -1.892982188526389e-05
1.2525060547509138e-06   5.782801306596563e-07   -2.687647768391672e-05
1.2525060547509138e-06   5.782801306596563e-07   -2.687647768391672e-05
1.2525060547509138e-06   5.782801306596563e-07   -2.687647768391672e-05
1.2525060547509138e-06   5.782801306596563e-07   -2.687647768391672e-05
6.513619861617882e-06   -4.347846621528123e-06   -1.9527502939082285e-05
6.513619861617882e-06   -4.347846621528123e-06   -1.9527502939082285e-05
6.513619861617882e-06   -4.347846621528123e-06   -1.9527502939082285e-05
6.513619861617882e-06   -4.347846621528123e-06   -1.9527502939082285e-05
1.5851278065121812e-05   -2.0243154127050616e-06   -2.570620541281904e-06
1.5851278065121812e-05   -2.0243154127050616e-06   -2.570620541281904e-06
1.5851278065121812e-05   -2.0243154127050616e-06   -2.570620541281904e-06
1.5851278065121812e-05   -2.0243154127050616e-06   -2.570620541281904e-06
1.6963998382072077e-05   -3.72968793643406e-06   -2.049688080496667e-05
1.6963998382072077e-05   -3.72968793643406e-06   -2.049688080496667e-05
1.6963998382072077e-05   -3.72968793643406e-06   -2.049688080496667e-05
1.6963998382072077e-05   -3.72968793643406e-06   -2.049688080496667e-05
6.5994607763023765e-06   -1.347238599710152e-06   -4.6521210640515065e-06
6.5994607763023765e-06   -1.347238599710152e-06   -4.6521210640515065e-06
6.5994607763023765e-06   -1.347238599710152e-06   -4.6521210640515065e-06
6.5994607763023765e-06   -1.347238599710152e-06   -4.6521210640515065e-06
1.0992502138965485e-05   -2.7735072147749232e-06   -1.1118095499451159e-05
1.0992502138965485e-05   -2.7735072147749232e-06   -1.1118095499451159e-05
1.0992502138965485e-05   -2.7735072147749232e-06   -1.1118095499451159e-05
1.0992502138965485e-05   -2.7735072147749232e-06   -1.1118095499451159e-05
6.599460776302363e-06   -3.72968793643406e-06   -2.19263504070008e-05
6.599460776302363e-06   -3.72968793643406e-06   -2.19263504070008e-05
6.599460776302363e-06   -3.72968793643406e-06   -2.19263504070008e-05
6.599460776302363e-06   -3.72968793643406e-06   -2.19263504070008e-05
1.6963998382072077e-05   -1.347238599710152e-06   -3.222651462017026e-06
1.6963998382072077e-05   -1.347238599710152e-06   -3.222651462017026e-06
1.6963998382072077e-05   -1.347238599710152e-06   -3.222651462017026e-06
1.6963998382072077e-05   -1.347238599710152e-06   -3.222651462017026e-06
1.7820935991821283e-05   -3.200364620938067e-06   -2.2474143884528317e-05
1.7820935991821283e-05   -3.200364620938067e-06   -2.2474143884528317e-05
1.7820935991821283e-05   -3.200364620938067e-06   -2.2474143884528317e-05
1.7820935991821283e-05   -3.200364620938067e-06   -2.2474143884528317e-05
6.802456706307206e-06   -8.803003954133831e-07   -5.502050277319691e-06
6.802456706307206e-06   -8.803003954133831e-07   -5.502050277319691e-06
6.802456706307206e-06   -8.803003954133831e-07   -5.502050277319691e-06
6.802456706307206e-06   -8.803003954133831e-07   -5.502050277319691e-06
1.1671665511574984e-05   -2.4255961974953624e-06   -1.2690220804849979e-05
1.1671665511574984e-05   -2.4255961974953624e-06   -1.2690220804849979e-05
1.1671665511574984e-05   -2.4255961974953624e-06   -1.2690220804849979e-05
1.1671665511574984e-05   -2.4255961974953624e-06   -1.2690220804849979e-05
6.802456706307206e-06   -3.200364620938067e-06   -2.386618241984322e-05
6.802456706307206e-06   -3.200364620938067e-06   -2.386618241984322e-05
6.802456706307206e-06   -3.200364620938067e-06   -2.386618241984322e-05
6.802456706307206e-06   -3.200364620938067e-06   -2.386618241984322e-05
1.7820935991821283e-05   -8.803003954133831e-07   -4.110011742004707e-06
1.7820935991821283e-05   -8.803003954133831e-07   -4.110011742004707e-06
1.7820935991821283e-05   -8.803003954133831e-07   -4.110011742004707e-06
1.7820935991821283e-05   -8.803003954133831e-07   -4.110011742004707e-06
1.896041064819055e-05   -2.070328148509029e-06   -2.6268649007130617e-05
1.896041064819055e-05   -2.070328148509029e-06   -2.6268649007130617e-05
1.896041064819055e-05   -2.070328148509029e-06   -2.6268649007130617e-05
1.896041064819055e-05   -2.070328148509029e-06   -2.6268649007130617e-05
6.901980308449929e-06   3.669430704287321e-08   -7.4354785808938265e-06
6.901980308449929e-06   3.669430704287321e-08   -7.4354785808938265e-06
6.901980308449929e-06   3.669430704287321e-08   -7.4354785808938265e-06
6.901980308449929e-06   3.669430704287321e-08   -7.4354785808938265e-06
1.1899331785791484e-05   -1.9093410645258223e-06   -1.4596776486855304e-05
1.1899331785791484e-05   -1.9093410645258223e-06   -1.4596776486855304e-05
1.1899331785791484e-05   -1.9093410645258223e-06   -1.4596776486855304e-05
1.1899331785791484e-05   -1.9093410645258223e-06   -1.4596776486855304e-05
-2.265765606581334e-05   3.652075703354865e-06   -2.1251571457885966e-05
-2.265765606581334e-05   3.652075703354865e-06   -2.1251571457885966e-05
-2.265765606581334e-05   3.652075703354865e-06   -2.1251571457885966e-05
-2.265765606581334e-05   3.652075703354865e-06   -2.1251571457885966e-05
-1.674642571904226e-05   1.4852214736201137e-06   -1.2699633417775121e-05
-1.674642571904226e-05   1.4852214736201137e-06   -1.2699633417775121e-05
-1.674642571904226e-05   1.4852214736201137e-06   -1.2699633417775121e-05
-1.674642571904226e-05   1.4852214736201137e-06   -1.2699633417775121e-05
-1.650103523942906e-05   4.650013582769056e-06   -1.8747833443682506e-05
-1.650103523942906e-05   4.650013582769056e-06   -1.8747833443682506e-05
-1.650103523942906e-05   4.650013582769056e-06   -1.8747833443682506e-05
-1.650103523942906e-05   4.650013582769056e-06   -1.8747833443682506e-05
-2.1424470162127686e-05   2.315019162763953e-06   -9.141111920514793e-06
-2.1424470162127686e-05   2.315019162763953e-06   -9.141111920514793e-06
-2.1424470162127686e-05   2.315019162763953e-06   -9.141111920514793e-06
-2.1424470162127686e-05   2.315019162763953e-06   -9.141111920514793e-06
-1.8513376353610715e-05   3.2764671576463074e-06   -1.4569803731640028e-05
-1.8513376353610715e-05   3.2764671576463074e-06   -1.4569803731640028e-05
-1.8513376353610715e-05   3.2764671576463074e-06   -1.4569803731640028e-05
-1.8513376353610715e-05   3.2764671576463074e-06   -1.4569803731640028e-05
-2.1424470162127686e-05   4.650013582769056e-06   -1.7346836791679358e-05
-2.1424470162127686e-05   4.650013582769056e-06   -1.7346836791679358e-05
-2.1424470162127686e-05   4.650013582769056e-06   -1.7346836791679358e-05
-2.1424470162127686e-05   4.650013582769056e-06   -1.7346836791679358e-05
-1.650103523942906e-05   2.315019162763953e-06   -1.0542108572517942e-05
-1.650103523942906e-05   2.315019162763953e-06   -1.0542108572517942e-05
-1.650103523942906e-05   2.315019162763953e-06   -1.0542108572517942e-05
-1.650103523942906e-05   2.315019162763953e-06   -1.0542108572517942e-05
-1.6150524160995437e-05   5.115386373707098e-06   -1.674041269174179e-05
-1.6150524160995437e-05   5.115386373707098e-06   -1.674041269174179e-05
-1.6150524160995437e-05   5.115386373707098e-06   -1.674041269174179e-05
-1.6150524160995437e-05   5.115386373707098e-06   -1.674041269174179e-05
-2.0441624334316047e-05   2.7347975887077576e-06   -8.160225798541163e-06
-2.0441624334316047e-05   2.7347975887077576e-06   -8.160225798541163e-06
-2.0441624334316047e-05   2.7347975887077576e-06   -8.160225798541163e-06
-2.0441624334316047e-05   2.7347975887077576e-06   -8.160225798541163e-06
-1.8188593628154916e-05   3.7244324687230306e-06   -1.2509057903485675e-05
-1.8188593628154916e-05   3.7244324687230306e-06   -1.2509057903485675e-05
-1.8188593628154916e-05   3.7244324687230306e-06   -1.2509057903485675e-05
-1.8188593628154916e-05   3.7244324687230306e-06   -1.2509057903485675e-05
-2.044162433431602e-05   5.115386373707098e-06   -1.5312059420742217e-05
-2.044162433431602e-05   5.115386373707098e-06   -1.5312059420742217e-05
-2.044162433431602e-05   5.115386373707098e-06   -1.5312059420742217e-05
-2.044162433431602e-05   5.115386373707098e-06   -1.5312059420742217e-05
-1.6150524160995464e-05   2.7347975887077576e-06   -9.58857906954079e-06
-1.6150524160995464e-05   2.7347975887077576e-06   -9.58857906954079e-06
-1.6150524160995464e-05   2.7347975887077576e-06   -9.58857906954079e-06
-1.6150524160995464e-05   2.7347975887077576e-06   -9.58857906954079e-06
-1.5912464668025716e-05   5.701211357011637e-06   -1.416629123742884e-05
-1.5912464668025716e-05   5.701211357011637e-06   -1.416629123742884e-05
-1.5912464668025716e-05   5.701211357011637e-06   -1.416629123742884e-05
-1.5912464668025716e-05   5.701211357011637e-06   -1.416629123742884e-05
-1.9190311919655914e-05   3.4000028938322834e-06   -7.322487406804027e-06
-1.9190311919655914e-05   3.4000028938322834e-06   -7.322487406804027e-06
-1.9190311919655914e-05   3.4000028938322834e-06   -7.322487406804027e-06
-1.9190311919655914e-05   3.4000028938322834e-06   -7.322487406804027e-06
-1.7339224243058155e-05   4.035827190029253e-06   -1.0789128112185663e-05
-1.7339224243058155e-05   4.035827190029253e-06   -1.0789128112185663e-05
-1.7339224243058155e-05   4.035827190029253e-06   -1.0789128112185663e-05
-1.7339224243058155e-05   4.035827190029253e-06   -1.0789128112185663e-05
-1.674642571904226e-05   1.889996962582078e-06   -3.10026722890644e-05
-1.674642571904226e-05   1.889996962582078e-06   -3.10026722890644e-05
-1.674642571904226e-05   1.889996962582078e-06   -3.10026722890644e-05
-1.674642571904226e-05   1.889996962582078e-06   -3.10026722890644e-05
-1.1941431565354606e-05   8.555123955327057e-07   -2.3615039439814692e-05
-1.1941431565354606e-05   8.555123955327057e-07   -2.3615039439814692e-05
-1.1941431565354606e-05   8.555123955327057e-07   -2.3615039439814692e-05
-1.1941431565354606e-05   8.555123955327057e-07   -2.3615039439814692e-05
-1.1781393085529189e-05   2.943828341036214e-06   -3.089992561481161e-05
-1.1781393085529189e-05   2.943828341036214e-06   -3.089992561481161e-05
-1.1781393085529189e-05   2.943828341036214e-06   -3.089992561481161e-05
-1.1781393085529189e-05   2.943828341036214e-06   -3.089992561481161e-05
-1.6501035239429115e-05   1.8072902037141866e-06   -2.2351932475918356e-05
-1.6501035239429115e-05   1.8072902037141866e-06   -2.2351932475918356e-05
-1.6501035239429115e-05   1.8072902037141866e-06   -2.2351932475918356e-05
-1.6501035239429115e-05   1.8072902037141866e-06   -2.2351932475918356e-05
-1.4103694401894747e-05   2.057493212599855e-06   -2.649762234380762e-05
-1.4103694401894747e-05   2.057493212599855e-06   -2.649762234380762e-05
-1.4103694401894747e-05   2.057493212599855e-06   -2.649762234380762e-05
-1.4103694401894747e-05   2.057493212599855e-06   -2.649762234380762e-05
-1.6501035239429034e-05   2.943828341036214e-06   -3.021800273241823e-05
-1.6501035239429034e-05   2.943828341036214e-06   -3.021800273241823e-05
-1.6501035239429034e-05   2.943828341036214e-06   -3.021800273241823e-05
-1.6501035239429034e-05   2.943828341036214e-06   -3.021800273241823e-05
-1.1781393085529216e-05   1.807290203714295e-06   -2.303385535831168e-05
-1.1781393085529216e-05   1.807290203714295e-06   -2.303385535831168e-05
-1.1781393085529216e-05   1.807290203714295e-06   -2.303385535831168e-05
-1.1781393085529216e-05   1.807290203714295e-06   -2.303385535831168e-05
-1.1604558480267043e-05   3.903151707242776e-06   -3.040022203562858e-05
-1.1604558480267043e-05   3.903151707242776e-06   -3.040022203562858e-05
-1.1604558480267043e-05   3.903151707242776e-06   -3.040022203562858e-05
-1.1604558480267043e-05   3.903151707242776e-06   -3.040022203562858e-05
-1.615052416099549e-05   2.692733169054975e-06   -2.2097361444834947e-05
-1.615052416099549e-05   2.692733169054975e-06   -2.2097361444834947e-05
-1.615052416099549e-05   2.692733169054975e-06   -2.2097361444834947e-05
-1.615052416099549e-05   2.692733169054975e-06   -2.2097361444834947e-05
-1.3892910006112784e-05   2.8275104555332622e-06   -2.5940918074859474e-05
-1.3892910006112784e-05   2.8275104555332622e-06   -2.5940918074859474e-05
-1.3892910006112784e-05   2.8275104555332622e-06   -2.5940918074859474e-05
-1.3892910006112784e-05   2.8275104555332622e-06   -2.5940918074859474e-05
-1.6150524160995437e-05   3.903151707242885e-06   -2.967397091271565e-05
-1.6150524160995437e-05   3.903151707242885e-06   -2.967397091271565e-05
-1.6150524160995437e-05   3.903151707242885e-06   -2.967397091271565e-05
-1.6150524160995437e-05   3.903151707242885e-06   -2.967397091271565e-05
-1.160455848026703e-05   2.6927331690548666e-06   -2.2823612567747606e-05
-1.160455848026703e-05   2.6927331690548666e-06   -2.2823612567747606e-05
-1.160455848026703e-05   2.6927331690548666e-06   -2.2823612567747606e-05
-1.160455848026703e-05   2.6927331690548666e-06   -2.2823612567747606e-05
-1.144754358838695e-05   4.945598381827284e-06   -3.0695048999791166e-05
-1.144754358838695e-05   4.945598381827284e-06   -3.0695048999791166e-05
-1.144754358838695e-05   4.945598381827284e-06   -3.0695048999791166e-05
-1.144754358838695e-05   4.945598381827284e-06   -3.0695048999791166e-05
-1.5912464668025743e-05   3.6770423149204466e-06   -2.2492380226915424e-05
-1.5912464668025743e-05   3.6770423149204466e-06   -2.2492380226915424e-05
-1.5912464668025743e-05   3.6770423149204466e-06   -2.2492380226915424e-05
-1.5912464668025743e-05   3.6770423149204466e-06   -2.2492380226915424e-05
-1.3811433386951693e-05   3.6079197282511133e-06   -2.5952625476704323e-05
-1.3811433386951693e-05   3.6079197282511133e-06   -2.5952625476704323e-05
-1.3811433386951693e-05   3.6079197282511133e-06   -2.5952625476704323e-05
-1.3811433386951693e-05   3.6079197282511133e-06   -2.5952625476704323e-05
-1.1941431565354565e-05   3.2655182585523013e-07   -3.50623339443613e-05
-1.1941431565354565e-05   3.2655182585523013e-07   -3.50623339443613e-05
-1.1941431565354565e-05   3.2655182585523013e-07   -3.50623339443613e-05
-1.1941431565354565e-05   3.2655182585523013e-07   -3.50623339443613e-05
-7.257454461034316e-06   4.921825622725313e-07   -2.7156326995310463e-05
-7.257454461034316e-06   4.921825622725313e-07   -2.7156326995310463e-05
-7.257454461034316e-06   4.921825622725313e-07   -2.7156326995310463e-05
-7.257454461034316e-06   4.921825622725313e-07   -2.7156326995310463e-05
-7.101637603068768e-06   1.3865273944359876e-06   -3.462054367062671e-05
-7.101637603068768e-06   1.3865273944359876e-06   -3.462054367062671e-05
-7.101637603068768e-06   1.3865273944359876e-06   -3.462054367062671e-05
-7.101637603068768e-06   1.3865273944359876e-06   -3.462054367062671e-05
-1.1781393085529189e-05   1.4620784857812767e-06   -2.6866281854666244e-05
-1.1781393085529189e-05   1.4620784857812767e-06   -2.6866281854666244e-05
-1.1781393085529189e-05   1.4620784857812767e-06   -2.6866281854666244e-05
-1.1781393085529189e-05   1.4620784857812767e-06   -2.6866281854666244e-05
-9.459412922487214e-06   1.0521380001336485e-06   -3.0490284501681627e-05
-9.459412922487214e-06   1.0521380001336485e-06   -3.0490284501681627e-05
-9.459412922487214e-06   1.0521380001336485e-06   -3.0490284501681627e-05
-9.459412922487214e-06   1.0521380001336485e-06   -3.0490284501681627e-05
-1.1781393085529175e-05   1.3865273944359876e-06   -3.46658743254338e-05
-1.1781393085529175e-05   1.3865273944359876e-06   -3.46658743254338e-05
-1.1781393085529175e-05   1.3865273944359876e-06   -3.46658743254338e-05
-1.1781393085529175e-05   1.3865273944359876e-06   -3.46658743254338e-05
-7.101637603068768e-06   1.4620784857812767e-06   -2.6820951199859157e-05
-7.101637603068768e-06   1.4620784857812767e-06   -2.6820951199859157e-05
-7.101637603068768e-06   1.4620784857812767e-06   -2.6820951199859157e-05
-7.101637603068768e-06   1.4620784857812767e-06   -2.6820951199859157e-05
-6.926051195118985e-06   2.4498982658207377e-06   -3.471037363198437e-05
-6.926051195118985e-06   2.4498982658207377e-06   -3.471037363198437e-05
-6.926051195118985e-06   2.4498982658207377e-06   -3.471037363198437e-05
-6.926051195118985e-06   2.4498982658207377e-06   -3.471037363198437e-05
-1.1604558480267043e-05   2.4404485910986583e-06   -2.6907191685237512e-05
-1.1604558480267043e-05   2.4404485910986583e-06   -2.6907191685237512e-05
-1.1604558480267043e-05   2.4404485910986583e-06   -2.6907191685237512e-05
-1.1604558480267043e-05   2.4404485910986583e-06   -2.6907191685237512e-05
-9.355395210858908e-06   1.8857774928218328e-06   -3.032299447528508e-05
-9.355395210858908e-06   1.8857774928218328e-06   -3.032299447528508e-05
-9.355395210858908e-06   1.8857774928218328e-06   -3.032299447528508e-05
-9.355395210858908e-06   1.8857774928218328e-06   -3.032299447528508e-05
-1.1604558480267003e-05   2.4498982658207377e-06   -3.4704703827151114e-05
-1.1604558480267003e-05   2.4498982658207377e-06   -3.4704703827151114e-05
-1.1604558480267003e-05   2.4498982658207377e-06   -3.4704703827151114e-05
-1.1604558480267003e-05   2.4498982658207377e-06   -3.4704703827151114e-05
-6.926051195118985e-06   2.4404485910986583e-06   -2.6912861490070825e-05
-6.926051195118985e-06   2.4404485910986583e-06   -2.6912861490070825e-05
-6.926051195118985e-06   2.4404485910986583e-06   -2.6912861490070825e-05
-6.926051195118985e-06   2.4404485910986583e-06   -2.6912861490070825e-05
-6.7683811178212445e-06   3.531860877204352e-06   -3.529453085227225e-05
-6.7683811178212445e-06   3.531860877204352e-06   -3.529453085227225e-05
-6.7683811178212445e-06   3.531860877204352e-06   -3.529453085227225e-05
-6.7683811178212445e-06   3.531860877204352e-06   -3.529453085227225e-05
-1.1447543588386964e-05   3.433610018930503e-06   -2.743697621969838e-05
-1.1447543588386964e-05   3.433610018930503e-06   -2.743697621969838e-05
-1.1447543588386964e-05   3.433610018930503e-06   -2.743697621969838e-05
-1.1447543588386964e-05   3.433610018930503e-06   -2.743697621969838e-05
-9.269684175102928e-06   2.7305080951856584e-06   -3.064488075425836e-05
-9.269684175102928e-06   2.7305080951856584e-06   -3.064488075425836e-05
-9.269684175102928e-06   2.7305080951856584e-06   -3.064488075425836e-05
-9.269684175102928e-06   2.7305080951856584e-06   -3.064488075425836e-05
-7.257454461034291e-06   -1.102963394423377e-06   -3.07300513752506e-05
-7.257454461034291e-06   -1.102963394423377e-06   -3.07300513752506e-05
-7.257454461034291e-06   -1.102963394423377e-06   -3.07300513752506e-05
-7.257454461034291e-06   -1.102963394423377e-06   -3.07300513752506e-05
-2.7183351021060404e-06   2.1375041834323458e-07   -2.2374824156043676e-05
-2.7183351021060404e-06   2.1375041834323458e-07   -2.2374824156043676e-05
-2.7183351021060404e-06   2.1375041834323458e-07   -2.2374824156043676e-05
-2.7183351021060404e-06   2.1375041834323458e-07   -2.2374824156043676e-05
-2.4848486337143114e-06   -1.0414330868014667e-07   -2.9740186906779113e-05
-2.4848486337143114e-06   -1.0414330868014667e-07   -2.9740186906779113e-05
-2.4848486337143114e-06   -1.0414330868014667e-07   -2.9740186906779113e-05
-2.4848486337143114e-06   -1.0414330868014667e-07   -2.9740186906779113e-05
-7.1016376030687546e-06   1.1536341973403079e-06   -2.280020512813356e-05
-7.1016376030687546e-06   1.1536341973403079e-06   -2.280020512813356e-05
-7.1016376030687546e-06   1.1536341973403079e-06   -2.280020512813356e-05
-7.1016376030687546e-06   1.1536341973403079e-06   -2.280020512813356e-05
-4.841194045757311e-06   1.3811842323801712e-07   -2.5958301592525135e-05
-4.841194045757311e-06   1.3811842323801712e-07   -2.5958301592525135e-05
-4.841194045757311e-06   1.3811842323801712e-07   -2.5958301592525135e-05
-4.841194045757311e-06   1.3811842323801712e-07   -2.5958301592525135e-05
-7.101637603068743e-06   -1.0414330868014667e-07   -3.049485341039118e-05
-7.101637603068743e-06   -1.0414330868014667e-07   -3.049485341039118e-05
-7.101637603068743e-06   -1.0414330868014667e-07   -3.049485341039118e-05
-7.101637603068743e-06   -1.0414330868014667e-07   -3.049485341039118e-05
-2.4848486337143114e-06   1.1536341973401995e-06   -2.2045538624521554e-05
-2.4848486337143114e-06   1.1536341973401995e-06   -2.2045538624521554e-05
-2.4848486337143114e-06   1.1536341973401995e-06   -2.2045538624521554e-05
-2.4848486337143114e-06   1.1536341973401995e-06   -2.2045538624521554e-05
-2.1370920628680542e-06   8.563597728080416e-07   -3.013949654290574e-05
-2.1370920628680542e-06   8.563597728080416e-07   -3.013949654290574e-05
-2.1370920628680542e-06   8.563597728080416e-07   -3.013949654290574e-05
-2.1370920628680542e-06   8.563597728080416e-07   -3.013949654290574e-05
-6.926051195118973e-06   2.0389572193957577e-06   -2.286745645710674e-05
-6.926051195118973e-06   2.0389572193957577e-06   -2.286745645710674e-05
-6.926051195118973e-06   2.0389572193957577e-06   -2.286745645710674e-05
-6.926051195118973e-06   2.0389572193957577e-06   -2.286745645710674e-05
-4.700349395236063e-06   8.971960723786311e-07   -2.5891902768701387e-05
-4.700349395236063e-06   8.971960723786311e-07   -2.5891902768701387e-05
-4.700349395236063e-06   8.971960723786311e-07   -2.5891902768701387e-05
-4.700349395236063e-06   8.971960723786311e-07   -2.5891902768701387e-05
-6.9260511951189545e-06   8.563597728080416e-07   -3.0849055010858284e-05
-6.9260511951189545e-06   8.563597728080416e-07   -3.0849055010858284e-05
-6.9260511951189545e-06   8.563597728080416e-07   -3.0849055010858284e-05
-6.9260511951189545e-06   8.563597728080416e-07   -3.0849055010858284e-05
-2.1370920628680407e-06   2.0389572193957577e-06   -2.2157897989154144e-05
-2.1370920628680407e-06   2.0389572193957577e-06   -2.2157897989154144e-05
-2.1370920628680407e-06   2.0389572193957577e-06   -2.2157897989154144e-05
-2.1370920628680407e-06   2.0389572193957577e-06   -2.2157897989154144e-05
-1.8944749591613756e-06   1.956786726246113e-06   -3.098233541444804e-05
-1.8944749591613756e-06   1.956786726246113e-06   -3.098233541444804e-05
-1.8944749591613756e-06   1.956786726246113e-06   -3.098233541444804e-05
-1.8944749591613756e-06   1.956786726246113e-06   -3.098233541444804e-05
-6.7683811178212555e-06   3.039542659176095e-06   -2.3508812043106042e-05
-6.7683811178212555e-06   3.039542659176095e-06   -2.3508812043106042e-05
-6.7683811178212555e-06   3.039542659176095e-06   -2.3508812043106042e-05
-6.7683811178212555e-06   3.039542659176095e-06   -2.3508812043106042e-05
-4.5531104761168905e-06   1.6923045770262215e-06   -2.6392586929990165e-05
-4.5531104761168905e-06   1.6923045770262215e-06   -2.6392586929990165e-05
-4.5531104761168905e-06   1.6923045770262215e-06   -2.6392586929990165e-05
-4.5531104761168905e-06   1.6923045770262215e-06   -2.6392586929990165e-05
-2.7183351021060404e-06   -2.024315412704953e-06   -1.6671020373174505e-05
-2.7183351021060404e-06   -2.024315412704953e-06   -1.6671020373174505e-05
-2.7183351021060404e-06   -2.024315412704953e-06   -1.6671020373174505e-05
-2.7183351021060404e-06   -2.024315412704953e-06   -1.6671020373174505e-05
6.2509949970649e-07   3.0016988091050717e-07   -9.703938193984319e-06
6.2509949970649e-07   3.0016988091050717e-07   -9.703938193984319e-06
6.2509949970649e-07   3.0016988091050717e-07   -9.703938193984319e-06
6.2509949970649e-07   3.0016988091050717e-07   -9.703938193984319e-06
1.8641990861791502e-06   -1.347238599710152e-06   -1.5912813988989852e-05
1.8641990861791502e-06   -1.347238599710152e-06   -1.5912813988989852e-05
1.8641990861791502e-06   -1.347238599710152e-06   -1.5912813988989852e-05
1.8641990861791502e-06   -1.347238599710152e-06   -1.5912813988989852e-05
-2.4848486337143114e-06   1.0435160912647184e-06   -1.0098853937085483e-05
-2.4848486337143114e-06   1.0435160912647184e-06   -1.0098853937085483e-05
-2.4848486337143114e-06   1.0435160912647184e-06   -1.0098853937085483e-05
-2.4848486337143114e-06   1.0435160912647184e-06   -1.0098853937085483e-05
-6.599352897100481e-07   -4.0708479231380684e-07   -1.2270015646945886e-05
-6.599352897100481e-07   -4.0708479231380684e-07   -1.2270015646945886e-05
-6.599352897100481e-07   -4.0708479231380684e-07   -1.2270015646945886e-05
-6.599352897100481e-07   -4.0708479231380684e-07   -1.2270015646945886e-05
-2.484848633714298e-06   -1.3472385997102604e-06   -1.734726680357459e-05
-2.484848633714298e-06   -1.3472385997102604e-06   -1.734726680357459e-05
-2.484848633714298e-06   -1.3472385997102604e-06   -1.734726680357459e-05
-2.484848633714298e-06   -1.3472385997102604e-06   -1.734726680357459e-05
1.864199086179123e-06   1.0435160912647184e-06   -8.664401122500582e-06
1.864199086179123e-06   1.0435160912647184e-06   -8.664401122500582e-06
1.864199086179123e-06   1.0435160912647184e-06   -8.664401122500582e-06
1.864199086179123e-06   1.0435160912647184e-06   -8.664401122500582e-06
2.8427523403716395e-06   -8.803003954133831e-07   -1.6776855214351515e-05
2.8427523403716395e-06   -8.803003954133831e-07   -1.6776855214351515e-05
2.8427523403716395e-06   -8.803003954133831e-07   -1.6776855214351515e-05
2.8427523403716395e-06   -8.803003954133831e-07   -1.6776855214351515e-05
-2.1370920628680542e-06   1.461332037653142e-06   -9.882094002125052e-06
-2.1370920628680542e-06   1.461332037653142e-06   -9.882094002125052e-06
-2.1370920628680542e-06   1.461332037653142e-06   -9.882094002125052e-06
-2.1370920628680542e-06   1.461332037653142e-06   -9.882094002125052e-06
-3.2610179285993144e-08   -5.075419372399439e-08   -1.2482312069268884e-05
-3.2610179285993144e-08   -5.075419372399439e-08   -1.2482312069268884e-05
-3.2610179285993144e-08   -5.075419372399439e-08   -1.2482312069268884e-05
-3.2610179285993144e-08   -5.075419372399439e-08   -1.2482312069268884e-05
-2.1370920628680407e-06   -8.803003954133831e-07   -1.8181834674191343e-05
-2.1370920628680407e-06   -8.803003954133831e-07   -1.8181834674191343e-05
-2.1370920628680407e-06   -8.803003954133831e-07   -1.8181834674191343e-05
-2.1370920628680407e-06   -8.803003954133831e-07   -1.8181834674191343e-05
2.8427523403716395e-06   1.461332037653142e-06   -8.477114542285169e-06
2.8427523403716395e-06   1.461332037653142e-06   -8.477114542285169e-06
2.8427523403716395e-06   1.461332037653142e-06   -8.477114542285169e-06
2.8427523403716395e-06   1.461332037653142e-06   -8.477114542285169e-06
4.0784903258943045e-06   3.669430704276479e-08   -1.8790261617960234e-05
4.0784903258943045e-06   3.669430704276479e-08   -1.8790261617960234e-05
4.0784903258943045e-06   3.669430704276479e-08   -1.8790261617960234e-05
4.0784903258943045e-06   3.669430704276479e-08   -1.8790261617960234e-05
-1.8944749591613756e-06   2.2011528831510866e-06   -1.0133994621865398e-05
-1.8944749591613756e-06   2.2011528831510866e-06   -1.0133994621865398e-05
-1.8944749591613756e-06   2.2011528831510866e-06   -1.0133994621865398e-05
-1.8944749591613756e-06   2.2011528831510866e-06   -1.0133994621865398e-05
5.085727671689963e-07   3.548588480739752e-07   -1.3031297744703504e-05
5.085727671689963e-07   3.548588480739752e-07   -1.3031297744703504e-05
5.085727671689963e-07   3.548588480739752e-07   -1.3031297744703504e-05
5.085727671689963e-07   3.548588480739752e-07   -1.3031297744703504e-05
-7.864158554292801e-06   1.4852214736201137e-06   -1.4142928335638153e-05
-7.864158554292801e-06   1.4852214736201137e-06   -1.4142928335638153e-05
-7.864158554292801e-06   1.4852214736201137e-06   -1.4142928335638153e-05
-7.864158554292801e-06   1.4852214736201137e-06   -1.4142928335638153e-05
-7.998103743536521e-06   -6.950650458391501e-07   -1.5674342229386512e-05
-7.998103743536521e-06   -6.950650458391501e-07   -1.5674342229386512e-05
-7.998103743536521e-06   -6.950650458391501e-07   -1.5674342229386512e-05
-7.998103743536521e-06   -6.950650458391501e-07   -1.5674342229386512e-05
-7.599135840066686e-06   2.3150191627638447e-06   -1.3289005529330128e-05
-7.599135840066686e-06   2.3150191627638447e-06   -1.3289005529330128e-05
-7.599135840066686e-06   2.3150191627638447e-06   -1.3289005529330128e-05
-7.599135840066686e-06   2.3150191627638447e-06   -1.3289005529330128e-05
-6.485345444787118e-06   -2.434652099001476e-08   -1.374170344454372e-05
-6.485345444787118e-06   -2.434652099001476e-08   -1.374170344454372e-05
-6.485345444787118e-06   -2.434652099001476e-08   -1.374170344454372e-05
-6.485345444787118e-06   -2.434652099001476e-08   -1.374170344454372e-05
-7.159575610205513e-06   1.0226349151864437e-06   -1.3246175363886134e-05
-7.159575610205513e-06   1.0226349151864437e-06   -1.3246175363886134e-05
-7.159575610205513e-06   1.0226349151864437e-06   -1.3246175363886134e-05
-7.159575610205513e-06   1.0226349151864437e-06   -1.3246175363886134e-05
-6.4853454447870635e-06   2.3150191627638447e-06   -1.1885386119077899e-05
-6.4853454447870635e-06   2.3150191627638447e-06   -1.1885386119077899e-05
-6.4853454447870635e-06   2.3150191627638447e-06   -1.1885386119077899e-05
-6.4853454447870635e-06   2.3150191627638447e-06   -1.1885386119077899e-05
-7.599135840066713e-06   -2.434652099001476e-08   -1.5145322854796328e-05
-7.599135840066713e-06   -2.434652099001476e-08   -1.5145322854796328e-05
-7.599135840066713e-06   -2.434652099001476e-08   -1.5145322854796328e-05
-7.599135840066713e-06   -2.434652099001476e-08   -1.5145322854796328e-05
-7.095519414543425e-06   2.7347975887077576e-06   -1.2332036173304901e-05
-7.095519414543425e-06   2.7347975887077576e-06   -1.2332036173304901e-05
-7.095519414543425e-06   2.7347975887077576e-06   -1.2332036173304901e-05
-7.095519414543425e-06   2.7347975887077576e-06   -1.2332036173304901e-05
-5.34609573552339e-06   3.5567258236833196e-07   -1.3820267301201301e-05
-5.34609573552339e-06   3.5567258236833196e-07   -1.3820267301201301e-05
-5.34609573552339e-06   3.5567258236833196e-07   -1.3820267301201301e-05
-5.34609573552339e-06   3.5567258236833196e-07   -1.3820267301201301e-05
-6.507696270947647e-06   1.3673217785525361e-06   -1.2491255926538804e-05
-6.507696270947647e-06   1.3673217785525361e-06   -1.2491255926538804e-05
-6.507696270947647e-06   1.3673217785525361e-06   -1.2491255926538804e-05
-6.507696270947647e-06   1.3673217785525361e-06   -1.2491255926538804e-05
-5.34609573552339e-06   2.7347975887077576e-06   -1.0904561169501332e-05
-5.34609573552339e-06   2.7347975887077576e-06   -1.0904561169501332e-05
-5.34609573552339e-06   2.7347975887077576e-06   -1.0904561169501332e-05
-5.34609573552339e-06   2.7347975887077576e-06   -1.0904561169501332e-05
-7.0955194145434525e-06   3.5567258236833196e-07   -1.5247742305004978e-05
-7.0955194145434525e-06   3.5567258236833196e-07   -1.5247742305004978e-05
-7.0955194145434525e-06   3.5567258236833196e-07   -1.5247742305004978e-05
-7.0955194145434525e-06   3.5567258236833196e-07   -1.5247742305004978e-05
-6.703509935077637e-06   3.400002893832175e-06   -1.144337736773914e-05
-6.703509935077637e-06   3.400002893832175e-06   -1.144337736773914e-05
-6.703509935077637e-06   3.400002893832175e-06   -1.144337736773914e-05
-6.703509935077637e-06   3.400002893832175e-06   -1.144337736773914e-05
-3.939486952088248e-06   1.1133867770728948e-06   -1.4678112669332696e-05
-3.939486952088248e-06   1.1133867770728948e-06   -1.4678112669332696e-05
-3.939486952088248e-06   1.1133867770728948e-06   -1.4678112669332696e-05
-3.939486952088248e-06   1.1133867770728948e-06   -1.4678112669332696e-05
-5.693609038032993e-06   1.6984039725507875e-06   -1.2105586176711493e-05
-5.693609038032993e-06   1.6984039725507875e-06   -1.2105586176711493e-05
-5.693609038032993e-06   1.6984039725507875e-06   -1.2105586176711493e-05
-5.693609038032993e-06   1.6984039725507875e-06   -1.2105586176711493e-05
-7.998103743536467e-06   8.555123955325972e-07   -2.5745815529123594e-05
-7.998103743536467e-06   8.555123955325972e-07   -2.5745815529123594e-05
-7.998103743536467e-06   8.555123955325972e-07   -2.5745815529123594e-05
-7.998103743536467e-06   8.555123955325972e-07   -2.5745815529123594e-05
-9.237319285649413e-06   -1.486007119408557e-07   -2.8413642630462652e-05
-9.237319285649413e-06   -1.486007119408557e-07   -2.8413642630462652e-05
-9.237319285649413e-06   -1.486007119408557e-07   -2.8413642630462652e-05
-9.237319285649413e-06   -1.486007119408557e-07   -2.8413642630462652e-05
-8.915600680468953e-06   1.8072902037141866e-06   -2.5764362666828595e-05
-8.915600680468953e-06   1.8072902037141866e-06   -2.5764362666828595e-05
-8.915600680468953e-06   1.8072902037141866e-06   -2.5764362666828595e-05
-8.915600680468953e-06   1.8072902037141866e-06   -2.5764362666828595e-05
-7.599135840066713e-06   6.98068146884551e-07   -2.72929375000677e-05
-7.599135840066713e-06   6.98068146884551e-07   -2.72929375000677e-05
-7.599135840066713e-06   6.98068146884551e-07   -2.72929375000677e-05
-7.599135840066713e-06   6.98068146884551e-07   -2.72929375000677e-05
-8.339313211505657e-06   9.894481279326163e-07   -2.6234136536298794e-05
-8.339313211505657e-06   9.894481279326163e-07   -2.6234136536298794e-05
-8.339313211505657e-06   9.894481279326163e-07   -2.6234136536298794e-05
-8.339313211505657e-06   9.894481279326163e-07   -2.6234136536298794e-05
-7.599135840066686e-06   1.807290203714295e-06   -2.5098829432730488e-05
-7.599135840066686e-06   1.807290203714295e-06   -2.5098829432730488e-05
-7.599135840066686e-06   1.807290203714295e-06   -2.5098829432730488e-05
-7.599135840066686e-06   1.807290203714295e-06   -2.5098829432730488e-05
-8.91560068046894e-06   6.98068146884551e-07   -2.795847073416548e-05
-8.91560068046894e-06   6.98068146884551e-07   -2.795847073416548e-05
-8.91560068046894e-06   6.98068146884551e-07   -2.795847073416548e-05
-8.91560068046894e-06   6.98068146884551e-07   -2.795847073416548e-05
-8.580942343226281e-06   2.692733169054975e-06   -2.554828731583434e-05
-8.580942343226281e-06   2.692733169054975e-06   -2.554828731583434e-05
-8.580942343226281e-06   2.692733169054975e-06   -2.554828731583434e-05
-8.580942343226281e-06   2.692733169054975e-06   -2.554828731583434e-05
-7.0955194145434525e-06   1.5136185569962837e-06   -2.7316523429737156e-05
-7.0955194145434525e-06   1.5136185569962837e-06   -2.7316523429737156e-05
-7.0955194145434525e-06   1.5136185569962837e-06   -2.7316523429737156e-05
-7.0955194145434525e-06   1.5136185569962837e-06   -2.7316523429737156e-05
-8.016990474496928e-06   1.6725506250491167e-06   -2.5876097570646394e-05
-8.016990474496928e-06   1.6725506250491167e-06   -2.5876097570646394e-05
-8.016990474496928e-06   1.6725506250491167e-06   -2.5876097570646394e-05
-8.016990474496928e-06   1.6725506250491167e-06   -2.5876097570646394e-05
-7.095519414543425e-06   2.692733169054975e-06   -2.4840818548599168e-05
-7.095519414543425e-06   2.692733169054975e-06   -2.4840818548599168e-05
-7.095519414543425e-06   2.692733169054975e-06   -2.4840818548599168e-05
-7.095519414543425e-06   2.692733169054975e-06   -2.4840818548599168e-05
-8.580942343226254e-06   1.5136185569962837e-06   -2.802399219697211e-05
-8.580942343226254e-06   1.5136185569962837e-06   -2.802399219697211e-05
-8.580942343226254e-06   1.5136185569962837e-06   -2.802399219697211e-05
-8.580942343226254e-06   1.5136185569962837e-06   -2.802399219697211e-05
-8.265978181382319e-06   3.6770423149204466e-06   -2.5971592023009242e-05
-8.265978181382319e-06   3.6770423149204466e-06   -2.5971592023009242e-05
-8.265978181382319e-06   3.6770423149204466e-06   -2.5971592023009242e-05
-8.265978181382319e-06   3.6770423149204466e-06   -2.5971592023009242e-05
-6.703509935077664e-06   2.4452974598100467e-06   -2.7836658853783972e-05
-6.703509935077664e-06   2.4452974598100467e-06   -2.7836658853783972e-05
-6.703509935077664e-06   2.4452974598100467e-06   -2.7836658853783972e-05
-6.703509935077664e-06   2.4452974598100467e-06   -2.7836658853783972e-05
-7.733670610768212e-06   2.389581548883045e-06   -2.6086294847743504e-05
-7.733670610768212e-06   2.389581548883045e-06   -2.6086294847743504e-05
-7.733670610768212e-06   2.389581548883045e-06   -2.6086294847743504e-05
-7.733670610768212e-06   2.389581548883045e-06   -2.6086294847743504e-05
-9.237319285649372e-06   4.921825622725313e-07   -2.998894939095398e-05
-9.237319285649372e-06   4.921825622725313e-07   -2.998894939095398e-05
-9.237319285649372e-06   4.921825622725313e-07   -2.998894939095398e-05
-9.237319285649372e-06   4.921825622725313e-07   -2.998894939095398e-05
-1.0539238238452632e-05   7.048604609163032e-07   -3.203120757310656e-05
-1.0539238238452632e-05   7.048604609163032e-07   -3.203120757310656e-05
-1.0539238238452632e-05   7.048604609163032e-07   -3.203120757310656e-05
-1.0539238238452632e-05   7.048604609163032e-07   -3.203120757310656e-05
-1.0223216874911117e-05   1.4620784857812767e-06   -2.952575103138419e-05
-1.0223216874911117e-05   1.4620784857812767e-06   -2.952575103138419e-05
-1.0223216874911117e-05   1.4620784857812767e-06   -2.952575103138419e-05
-1.0223216874911117e-05   1.4620784857812767e-06   -2.952575103138419e-05
-8.915600680468953e-06   1.580475372113142e-06   -3.177614948725335e-05
-8.915600680468953e-06   1.580475372113142e-06   -3.177614948725335e-05
-8.915600680468953e-06   1.580475372113142e-06   -3.177614948725335e-05
-8.915600680468953e-06   1.580475372113142e-06   -3.177614948725335e-05
-9.670257229485698e-06   1.1964323492388417e-06   -3.0287962758501194e-05
-9.670257229485698e-06   1.1964323492388417e-06   -3.0287962758501194e-05
-9.670257229485698e-06   1.1964323492388417e-06   -3.0287962758501194e-05
-9.670257229485698e-06   1.1964323492388417e-06   -3.0287962758501194e-05
-8.915600680468926e-06   1.4620784857812767e-06   -2.9596789163183158e-05
-8.915600680468926e-06   1.4620784857812767e-06   -2.9596789163183158e-05
-8.915600680468926e-06   1.4620784857812767e-06   -2.9596789163183158e-05
-8.915600680468926e-06   1.4620784857812767e-06   -2.9596789163183158e-05
-1.0223216874911134e-05   1.5804753721129251e-06   -3.170511135545441e-05
-1.0223216874911134e-05   1.5804753721129251e-06   -3.170511135545441e-05
-1.0223216874911134e-05   1.5804753721129251e-06   -3.170511135545441e-05
-1.0223216874911134e-05   1.5804753721129251e-06   -3.170511135545441e-05
-9.890603817515966e-06   2.4404485910986583e-06   -2.9610980914824636e-05
-9.890603817515966e-06   2.4404485910986583e-06   -2.9610980914824636e-05
-9.890603817515966e-06   2.4404485910986583e-06   -2.9610980914824636e-05
-9.890603817515966e-06   2.4404485910986583e-06   -2.9610980914824636e-05
-8.580942343226281e-06   2.4752577885980235e-06   -3.1814635557140164e-05
-8.580942343226281e-06   2.4752577885980235e-06   -3.1814635557140164e-05
-8.580942343226281e-06   2.4752577885980235e-06   -3.1814635557140164e-05
-8.580942343226281e-06   2.4752577885980235e-06   -3.1814635557140164e-05
-9.405399418183475e-06   1.9458181042689496e-06   -3.0122876621614593e-05
-9.405399418183475e-06   1.9458181042689496e-06   -3.0122876621614593e-05
-9.405399418183475e-06   1.9458181042689496e-06   -3.0122876621614593e-05
-9.405399418183475e-06   1.9458181042689496e-06   -3.0122876621614593e-05
-8.580942343226254e-06   2.44044859109855e-06   -2.9631866433323974e-05
-8.580942343226254e-06   2.44044859109855e-06   -2.9631866433323974e-05
-8.580942343226254e-06   2.44044859109855e-06   -2.9631866433323974e-05
-8.580942343226254e-06   2.44044859109855e-06   -2.9631866433323974e-05
-9.890603817515966e-06   2.4752577885980235e-06   -3.1793750038640474e-05
-9.890603817515966e-06   2.4752577885980235e-06   -3.1793750038640474e-05
-9.890603817515966e-06   2.4752577885980235e-06   -3.1793750038640474e-05
-9.890603817515966e-06   2.4752577885980235e-06   -3.1793750038640474e-05
-9.576964608068905e-06   3.433610018930503e-06   -3.0185742591698375e-05
-9.576964608068905e-06   3.433610018930503e-06   -3.0185742591698375e-05
-9.576964608068905e-06   3.433610018930503e-06   -3.0185742591698375e-05
-9.576964608068905e-06   3.433610018930503e-06   -3.0185742591698375e-05
-8.265978181382319e-06   3.382462992179659e-06   -3.234003175345867e-05
-8.265978181382319e-06   3.382462992179659e-06   -3.234003175345867e-05
-8.265978181382319e-06   3.382462992179659e-06   -3.234003175345867e-05
-8.265978181382319e-06   3.382462992179659e-06   -3.234003175345867e-05
-9.16184025899756e-06   2.7057069045639467e-06   -3.0440874638197154e-05
-9.16184025899756e-06   2.7057069045639467e-06   -3.0440874638197154e-05
-9.16184025899756e-06   2.7057069045639467e-06   -3.0440874638197154e-05
-9.16184025899756e-06   2.7057069045639467e-06   -3.0440874638197154e-05
-1.0539238238452595e-05   2.13750418343343e-07   -2.5869868100160637e-05
-1.0539238238452595e-05   2.13750418343343e-07   -2.5869868100160637e-05
-1.0539238238452595e-05   2.13750418343343e-07   -2.5869868100160637e-05
-1.0539238238452595e-05   2.13750418343343e-07   -2.5869868100160637e-05
-1.1916106667702434e-05   1.5655425615478027e-06   -2.7353573529654575e-05
-1.1916106667702434e-05   1.5655425615478027e-06   -2.7353573529654575e-05
-1.1916106667702434e-05   1.5655425615478027e-06   -2.7353573529654575e-05
-1.1916106667702434e-05   1.5655425615478027e-06   -2.7353573529654575e-05
-1.1533275545789798e-05   1.1536341973401995e-06   -2.473055471879026e-05
-1.1533275545789798e-05   1.1536341973401995e-06   -2.473055471879026e-05
-1.1533275545789798e-05   1.1536341973401995e-06   -2.473055471879026e-05
-1.1533275545789798e-05   1.1536341973401995e-06   -2.473055471879026e-05
-1.0223216874911117e-05   2.4443845987878136e-06   -2.7688436077789757e-05
-1.0223216874911117e-05   2.4443845987878136e-06   -2.7688436077789757e-05
-1.0223216874911117e-05   2.4443845987878136e-06   -2.7688436077789757e-05
-1.0223216874911117e-05   2.4443845987878136e-06   -2.7688436077789757e-05
-1.0967464585291135e-05   1.4420303844553048e-06   -2.5846610698557435e-05
-1.0967464585291135e-05   1.4420303844553048e-06   -2.5846610698557435e-05
-1.0967464585291135e-05   1.4420303844553048e-06   -2.5846610698557435e-05
-1.0967464585291135e-05   1.4420303844553048e-06   -2.5846610698557435e-05
-1.0223216874911096e-05   1.1536341973403079e-06   -2.5505004959658654e-05
-1.0223216874911096e-05   1.1536341973403079e-06   -2.5505004959658654e-05
-1.0223216874911096e-05   1.1536341973403079e-06   -2.5505004959658654e-05
-1.0223216874911096e-05   1.1536341973403079e-06   -2.5505004959658654e-05
-1.1533275545789798e-05   2.4443845987878136e-06   -2.6913985836921474e-05
-1.1533275545789798e-05   2.4443845987878136e-06   -2.6913985836921474e-05
-1.1533275545789798e-05   2.4443845987878136e-06   -2.6913985836921474e-05
-1.1533275545789798e-05   2.4443845987878136e-06   -2.6913985836921474e-05
-1.1037500275796656e-05   2.0389572193957577e-06   -2.4836068518025865e-05
-1.1037500275796656e-05   2.0389572193957577e-06   -2.4836068518025865e-05
-1.1037500275796656e-05   2.0389572193957577e-06   -2.4836068518025865e-05
-1.1037500275796656e-05   2.0389572193957577e-06   -2.4836068518025865e-05
-9.890603817515966e-06   3.25480282578703e-06   -2.7477069978994812e-05
-9.890603817515966e-06   3.25480282578703e-06   -2.7477069978994812e-05
-9.890603817515966e-06   3.25480282578703e-06   -2.7477069978994812e-05
-9.890603817515966e-06   3.25480282578703e-06   -2.7477069978994812e-05
-1.0625258056173294e-05   2.1395746342266642e-06   -2.5583509332963476e-05
-1.0625258056173294e-05   2.1395746342266642e-06   -2.5583509332963476e-05
-1.0625258056173294e-05   2.1395746342266642e-06   -2.5583509332963476e-05
-1.0625258056173294e-05   2.1395746342266642e-06   -2.5583509332963476e-05
-9.890603817515924e-06   2.038957219395866e-06   -2.5565575881860282e-05
-9.890603817515924e-06   2.038957219395866e-06   -2.5565575881860282e-05
-9.890603817515924e-06   2.038957219395866e-06   -2.5565575881860282e-05
-9.890603817515924e-06   2.038957219395866e-06   -2.5565575881860282e-05
-1.1037500275796656e-05   3.25480282578703e-06   -2.6747562615160223e-05
-1.1037500275796656e-05   3.25480282578703e-06   -2.6747562615160223e-05
-1.1037500275796656e-05   3.25480282578703e-06   -2.6747562615160223e-05
-1.1037500275796656e-05   3.25480282578703e-06   -2.6747562615160223e-05
-1.0648286121602767e-05   3.039542659176095e-06   -2.5524842641976345e-05
-1.0648286121602767e-05   3.039542659176095e-06   -2.5524842641976345e-05
-1.0648286121602767e-05   3.039542659176095e-06   -2.5524842641976345e-05
-1.0648286121602767e-05   3.039542659176095e-06   -2.5524842641976345e-05
-9.576964608068905e-06   4.162518089451594e-06   -2.7984163756031465e-05
-9.576964608068905e-06   4.162518089451594e-06   -2.7984163756031465e-05
-9.576964608068905e-06   4.162518089451594e-06   -2.7984163756031465e-05
-9.576964608068905e-06   4.162518089451594e-06   -2.7984163756031465e-05
-1.0369818855331593e-05   2.852010655223251e-06   -2.587643555005637e-05
-1.0369818855331593e-05   2.852010655223251e-06   -2.587643555005637e-05
-1.0369818855331593e-05   2.852010655223251e-06   -2.587643555005637e-05
-1.0369818855331593e-05   2.852010655223251e-06   -2.587643555005637e-05
-1.1916106667702393e-05   3.0016988091050717e-07   -1.378259802834814e-05
-1.1916106667702393e-05   3.0016988091050717e-07   -1.378259802834814e-05
-1.1916106667702393e-05   3.0016988091050717e-07   -1.378259802834814e-05
-1.1916106667702393e-05   3.0016988091050717e-07   -1.378259802834814e-05
-1.445104404244283e-05   2.6328081202484782e-06   -1.660791070931284e-05
-1.445104404244283e-05   2.6328081202484782e-06   -1.660791070931284e-05
-1.445104404244283e-05   2.6328081202484782e-06   -1.660791070931284e-05
-1.445104404244283e-05   2.6328081202484782e-06   -1.660791070931284e-05
-1.3084642973456607e-05   1.0435160912648268e-06   -1.1351970551950758e-05
-1.3084642973456607e-05   1.0435160912648268e-06   -1.1351970551950758e-05
-1.3084642973456607e-05   1.0435160912648268e-06   -1.1351970551950758e-05
-1.3084642973456607e-05   1.0435160912648268e-06   -1.1351970551950758e-05
-1.1533275545789784e-05   3.4300152236040743e-06   -1.5369482410798775e-05
-1.1533275545789784e-05   3.4300152236040743e-06   -1.5369482410798775e-05
-1.1533275545789784e-05   3.4300152236040743e-06   -1.5369482410798775e-05
-1.1533275545789784e-05   3.4300152236040743e-06   -1.5369482410798775e-05
-1.2230435543285638e-05   1.9475345572688655e-06   -1.33180606818382e-05
-1.2230435543285638e-05   1.9475345572688655e-06   -1.33180606818382e-05
-1.2230435543285638e-05   1.9475345572688655e-06   -1.33180606818382e-05
-1.2230435543285638e-05   1.9475345572688655e-06   -1.33180606818382e-05
-1.1533275545789757e-05   1.0435160912647184e-06   -1.2783870031354296e-05
-1.1533275545789757e-05   1.0435160912647184e-06   -1.2783870031354296e-05
-1.1533275545789757e-05   1.0435160912647184e-06   -1.2783870031354296e-05
-1.1533275545789757e-05   1.0435160912647184e-06   -1.2783870031354296e-05
-1.3084642973456553e-05   3.4300152236040743e-06   -1.3937582931395319e-05
-1.3084642973456553e-05   3.4300152236040743e-06   -1.3937582931395319e-05
-1.3084642973456553e-05   3.4300152236040743e-06   -1.3937582931395319e-05
-1.3084642973456553e-05   3.4300152236040743e-06   -1.3937582931395319e-05
-1.1973267590146251e-05   1.461332037653142e-06   -1.116006860396937e-05
-1.1973267590146251e-05   1.461332037653142e-06   -1.116006860396937e-05
-1.1973267590146251e-05   1.461332037653142e-06   -1.116006860396937e-05
-1.1973267590146251e-05   1.461332037653142e-06   -1.116006860396937e-05
-1.1037500275796629e-05   3.794991916032057e-06   -1.4119876721579386e-05
-1.1037500275796629e-05   3.794991916032057e-06   -1.4119876721579386e-05
-1.1037500275796629e-05   3.794991916032057e-06   -1.4119876721579386e-05
-1.1037500275796629e-05   3.794991916032057e-06   -1.4119876721579386e-05
-1.1649435258909559e-05   2.3171577287833204e-06   -1.2213284570708645e-05
-1.1649435258909559e-05   2.3171577287833204e-06   -1.2213284570708645e-05
-1.1649435258909559e-05   2.3171577287833204e-06   -1.2213284570708645e-05
-1.1649435258909559e-05   2.3171577287833204e-06   -1.2213284570708645e-05
-1.1037500275796615e-05   1.4613320376530336e-06   -1.2560264530996719e-05
-1.1037500275796615e-05   1.4613320376530336e-06   -1.2560264530996719e-05
-1.1037500275796615e-05   1.4613320376530336e-06   -1.2560264530996719e-05
-1.1037500275796615e-05   1.4613320376530336e-06   -1.2560264530996719e-05
-1.1973267590146224e-05   3.7949919160322736e-06   -1.271968079455193e-05
-1.1973267590146224e-05   3.7949919160322736e-06   -1.271968079455193e-05
-1.1973267590146224e-05   3.7949919160322736e-06   -1.271968079455193e-05
-1.1973267590146224e-05   3.7949919160322736e-06   -1.271968079455193e-05
-1.061286552988443e-05   2.2011528831510866e-06   -1.150480650056676e-05
-1.061286552988443e-05   2.2011528831510866e-06   -1.150480650056676e-05
-1.061286552988443e-05   2.2011528831510866e-06   -1.150480650056676e-05
-1.061286552988443e-05   2.2011528831510866e-06   -1.150480650056676e-05
-1.0648286121602767e-05   4.359273349696397e-06   -1.2740644460963141e-05
-1.0648286121602767e-05   4.359273349696397e-06   -1.2740644460963141e-05
-1.0648286121602767e-05   4.359273349696397e-06   -1.2740644460963141e-05
-1.0648286121602767e-05   4.359273349696397e-06   -1.2740644460963141e-05
-1.0790748826276665e-05   2.6151406064163496e-06   -1.1456726973872099e-05
-1.0790748826276665e-05   2.6151406064163496e-06   -1.1456726973872099e-05
-1.0790748826276665e-05   2.6151406064163496e-06   -1.1456726973872099e-05
-1.0790748826276665e-05   2.6151406064163496e-06   -1.1456726973872099e-05
7.031903579119629e-06   -6.950650458393669e-07   -7.134578260283952e-06
7.031903579119629e-06   -6.950650458393669e-07   -7.134578260283952e-06
7.031903579119629e-06   -6.950650458393669e-07   -7.134578260283952e-06
7.031903579119629e-06   -6.950650458393669e-07   -7.134578260283952e-06
7.26708991664036e-07   -2.911600478836332e-06   -1.8973157165841305e-05
7.26708991664036e-07   -2.911600478836332e-06   -1.8973157165841305e-05
7.26708991664036e-07   -2.911600478836332e-06   -1.8973157165841305e-05
7.26708991664036e-07   -2.911600478836332e-06   -1.8973157165841305e-05
1.2732914085490784e-06   -2.434652099001476e-08   -7.888401538940935e-06
1.2732914085490784e-06   -2.434652099001476e-08   -7.888401538940935e-06
1.2732914085490784e-06   -2.434652099001476e-08   -7.888401538940935e-06
1.2732914085490784e-06   -2.434652099001476e-08   -7.888401538940935e-06
8.564211952148616e-06   -2.3934048972590067e-06   -1.8618500752512078e-05
8.564211952148616e-06   -2.3934048972590067e-06   -1.8618500752512078e-05
8.564211952148616e-06   -2.3934048972590067e-06   -1.8618500752512078e-05
8.564211952148616e-06   -2.3934048972590067e-06   -1.8618500752512078e-05
4.234746477790646e-06   -1.2160834710630251e-06   -1.2109117817633039e-05
4.234746477790646e-06   -1.2160834710630251e-06   -1.2109117817633039e-05
4.234746477790646e-06   -1.2160834710630251e-06   -1.2109117817633039e-05
4.234746477790646e-06   -1.2160834710630251e-06   -1.2109117817633039e-05
8.564211952148616e-06   -2.434652099001476e-08   -6.4669665131794965e-06
8.564211952148616e-06   -2.434652099001476e-08   -6.4669665131794965e-06
8.564211952148616e-06   -2.434652099001476e-08   -6.4669665131794965e-06
8.564211952148616e-06   -2.434652099001476e-08   -6.4669665131794965e-06
1.2732914085490784e-06   -2.3934048972590067e-06   -2.0039935778273408e-05
1.2732914085490784e-06   -2.3934048972590067e-06   -2.0039935778273408e-05
1.2732914085490784e-06   -2.3934048972590067e-06   -2.0039935778273408e-05
1.2732914085490784e-06   -2.3934048972590067e-06   -2.0039935778273408e-05
1.917925767527459e-06   3.5567258236833196e-07   -7.950915118488857e-06
1.917925767527459e-06   3.5567258236833196e-07   -7.950915118488857e-06
1.917925767527459e-06   3.5567258236833196e-07   -7.950915118488857e-06
1.917925767527459e-06   3.5567258236833196e-07   -7.950915118488857e-06
9.858393855889972e-06   -2.0472398785439244e-06   -1.9743281122545616e-05
9.858393855889972e-06   -2.0472398785439244e-06   -1.9743281122545616e-05
9.858393855889972e-06   -2.0472398785439244e-06   -1.9743281122545616e-05
9.858393855889972e-06   -2.0472398785439244e-06   -1.9743281122545616e-05
5.205988376685443e-06   -9.735150205340652e-07   -1.2633506905344481e-05
5.205988376685443e-06   -9.735150205340652e-07   -1.2633506905344481e-05
5.205988376685443e-06   -9.735150205340652e-07   -1.2633506905344481e-05
5.205988376685443e-06   -9.735150205340652e-07   -1.2633506905344481e-05
9.858393855889972e-06   3.5567258236833196e-07   -6.50916764194159e-06
9.858393855889972e-06   3.5567258236833196e-07   -6.50916764194159e-06
9.858393855889972e-06   3.5567258236833196e-07   -6.50916764194159e-06
9.858393855889972e-06   3.5567258236833196e-07   -6.50916764194159e-06
1.917925767527459e-06   -2.0472398785439244e-06   -2.1185028599093154e-05
1.917925767527459e-06   -2.0472398785439244e-06   -2.1185028599093154e-05
1.917925767527459e-06   -2.0472398785439244e-06   -2.1185028599093154e-05
1.917925767527459e-06   -2.0472398785439244e-06   -2.1185028599093154e-05
2.4478013431138124e-06   1.1133867770728948e-06   -8.717663456352456e-06
2.4478013431138124e-06   1.1133867770728948e-06   -8.717663456352456e-06
2.4478013431138124e-06   1.1133867770728948e-06   -8.717663456352456e-06
2.4478013431138124e-06   1.1133867770728948e-06   -8.717663456352456e-06
1.141311954286952e-05   -1.1756670501980246e-06   -2.228642815958287e-05
1.141311954286952e-05   -1.1756670501980246e-06   -2.228642815958287e-05
1.141311954286952e-05   -1.1756670501980246e-06   -2.228642815958287e-05
1.141311954286952e-05   -1.1756670501980246e-06   -2.228642815958287e-05
5.976991744784723e-06   -6.167005691861543e-07   -1.3561595051382667e-05
5.976991744784723e-06   -6.167005691861543e-07   -1.3561595051382667e-05
5.976991744784723e-06   -6.167005691861543e-07   -1.3561595051382667e-05
5.976991744784723e-06   -6.167005691861543e-07   -1.3561595051382667e-05
7.267089916640631e-07   -1.486007119408557e-07   -2.0601332056674015e-05
7.267089916640631e-07   -1.486007119408557e-07   -2.0601332056674015e-05
7.267089916640631e-07   -1.486007119408557e-07   -2.0601332056674015e-05
7.267089916640631e-07   -1.486007119408557e-07   -2.0601332056674015e-05
-6.618623261768757e-06   -1.1488324829882213e-06   -3.344369154169031e-05
-6.618623261768757e-06   -1.1488324829882213e-06   -3.344369154169031e-05
-6.618623261768757e-06   -1.1488324829882213e-06   -3.344369154169031e-05
-6.618623261768757e-06   -1.1488324829882213e-06   -3.344369154169031e-05
-6.13976804564392e-06   6.98068146884551e-07   -2.071742735489275e-05
-6.13976804564392e-06   6.98068146884551e-07   -2.071742735489275e-05
-6.13976804564392e-06   6.98068146884551e-07   -2.071742735489275e-05
-6.13976804564392e-06   6.98068146884551e-07   -2.071742735489275e-05
1.2732914085490784e-06   -4.376171375828405e-07   -3.2391115274533946e-05
1.2732914085490784e-06   -4.376171375828405e-07   -3.2391115274533946e-05
1.2732914085490784e-06   -4.376171375828405e-07   -3.2391115274533946e-05
1.2732914085490784e-06   -4.376171375828405e-07   -3.2391115274533946e-05
-2.6276151756375292e-06   -4.1218895911483006e-08   -2.6127443245892385e-05
-2.6276151756375292e-06   -4.1218895911483006e-08   -2.6127443245892385e-05
-2.6276151756375292e-06   -4.1218895911483006e-08   -2.6127443245892385e-05
-2.6276151756375292e-06   -4.1218895911483006e-08   -2.6127443245892385e-05
1.2732914085490513e-06   6.98068146884551e-07   -2.003601618421236e-05
1.2732914085490513e-06   6.98068146884551e-07   -2.003601618421236e-05
1.2732914085490513e-06   6.98068146884551e-07   -2.003601618421236e-05
1.2732914085490513e-06   6.98068146884551e-07   -2.003601618421236e-05
-6.139768045643933e-06   -4.376171375828405e-07   -3.3072526445214554e-05
-6.139768045643933e-06   -4.376171375828405e-07   -3.3072526445214554e-05
-6.139768045643933e-06   -4.376171375828405e-07   -3.3072526445214554e-05
-6.139768045643933e-06   -4.376171375828405e-07   -3.3072526445214554e-05
-5.658156739757464e-06   1.5136185569965006e-06   -2.074904403139878e-05
-5.658156739757464e-06   1.5136185569965006e-06   -2.074904403139878e-05
-5.658156739757464e-06   1.5136185569965006e-06   -2.074904403139878e-05
-5.658156739757464e-06   1.5136185569965006e-06   -2.074904403139878e-05
1.917925767527459e-06   2.9803891003332e-07   -3.264650042202912e-05
1.917925767527459e-06   2.9803891003332e-07   -3.264650042202912e-05
1.917925767527459e-06   2.9803891003332e-07   -3.264650042202912e-05
1.917925767527459e-06   2.9803891003332e-07   -3.264650042202912e-05
-2.2038630925949108e-06   5.434046653699908e-07   -2.5924071775027143e-05
-2.2038630925949108e-06   5.434046653699908e-07   -2.5924071775027143e-05
-2.2038630925949108e-06   5.434046653699908e-07   -2.5924071775027143e-05
-2.2038630925949108e-06   5.434046653699908e-07   -2.5924071775027143e-05
1.917925767527459e-06   1.5136185569962837e-06   -2.001969624322109e-05
1.917925767527459e-06   1.5136185569962837e-06   -2.001969624322109e-05
1.917925767527459e-06   1.5136185569962837e-06   -2.001969624322109e-05
1.917925767527459e-06   1.5136185569962837e-06   -2.001969624322109e-05
-5.658156739757464e-06   2.9803891003332e-07   -3.337584821020692e-05
-5.658156739757464e-06   2.9803891003332e-07   -3.337584821020692e-05
-5.658156739757464e-06   2.9803891003332e-07   -3.337584821020692e-05
-5.658156739757464e-06   2.9803891003332e-07   -3.337584821020692e-05
-5.198197971158401e-06   2.4452974598100467e-06   -2.1269648091833647e-05
-5.198197971158401e-06   2.4452974598100467e-06   -2.1269648091833647e-05
-5.198197971158401e-06   2.4452974598100467e-06   -2.1269648091833647e-05
-5.198197971158401e-06   2.4452974598100467e-06   -2.1269648091833647e-05
2.4478013431138395e-06   1.1696172580010888e-06   -3.324757216120207e-05
2.4478013431138395e-06   1.1696172580010888e-06   -3.324757216120207e-05
2.4478013431138395e-06   1.1696172580010888e-06   -3.324757216120207e-05
2.4478013431138395e-06   1.1696172580010888e-06   -3.324757216120207e-05
-1.7315805734317177e-06   1.1918438890482635e-06   -2.6295271612254895e-05
-1.7315805734317177e-06   1.1918438890482635e-06   -2.6295271612254895e-05
-1.7315805734317177e-06   1.1918438890482635e-06   -2.6295271612254895e-05
-1.7315805734317177e-06   1.1918438890482635e-06   -2.6295271612254895e-05
-6.618623261768757e-06   7.048604609165201e-07   -2.49466428011325e-05
-6.618623261768757e-06   7.048604609165201e-07   -2.49466428011325e-05
-6.618623261768757e-06   7.048604609165201e-07   -2.49466428011325e-05
-6.618623261768757e-06   7.048604609165201e-07   -2.49466428011325e-05
-1.3899078789403818e-05   8.883545884843299e-07   -3.697063887065006e-05
-1.3899078789403818e-05   8.883545884843299e-07   -3.697063887065006e-05
-1.3899078789403818e-05   8.883545884843299e-07   -3.697063887065006e-05
-1.3899078789403818e-05   8.883545884843299e-07   -3.697063887065006e-05
-1.3416955320622524e-05   1.580475372113142e-06   -2.4498597628192127e-05
-1.3416955320622524e-05   1.580475372113142e-06   -2.4498597628192127e-05
-1.3416955320622524e-05   1.580475372113142e-06   -2.4498597628192127e-05
-1.3416955320622524e-05   1.580475372113142e-06   -2.4498597628192127e-05
-6.139768045643933e-06   1.6413228384275745e-06   -3.6663751566278326e-05
-6.139768045643933e-06   1.6413228384275745e-06   -3.6663751566278326e-05
-6.139768045643933e-06   1.6413228384275745e-06   -3.6663751566278326e-05
-6.139768045643933e-06   1.6413228384275745e-06   -3.6663751566278326e-05
-9.96062706122057e-06   1.3572549218121826e-06   -3.0125212457014818e-05
-9.96062706122057e-06   1.3572549218121826e-06   -3.0125212457014818e-05
-9.96062706122057e-06   1.3572549218121826e-06   -3.0125212457014818e-05
-9.96062706122057e-06   1.3572549218121826e-06   -3.0125212457014818e-05
-6.139768045643947e-06   1.580475372113142e-06   -2.45351061079807e-05
-6.139768045643947e-06   1.580475372113142e-06   -2.45351061079807e-05
-6.139768045643947e-06   1.580475372113142e-06   -2.45351061079807e-05
-6.139768045643947e-06   1.580475372113142e-06   -2.45351061079807e-05
-1.34169553206225e-05   1.6413228384275745e-06   -3.662724308648986e-05
-1.34169553206225e-05   1.6413228384275745e-06   -3.662724308648986e-05
-1.34169553206225e-05   1.6413228384275745e-06   -3.662724308648986e-05
-1.34169553206225e-05   1.6413228384275745e-06   -3.662724308648986e-05
-1.2926894025466778e-05   2.4752577885980235e-06   -2.456187033697359e-05
-1.2926894025466778e-05   2.4752577885980235e-06   -2.456187033697359e-05
-1.2926894025466778e-05   2.4752577885980235e-06   -2.456187033697359e-05
-1.2926894025466778e-05   2.4752577885980235e-06   -2.456187033697359e-05
-5.658156739757464e-06   2.438286212919907e-06   -3.665424953441554e-05
-5.658156739757464e-06   2.438286212919907e-06   -3.665424953441554e-05
-5.658156739757464e-06   2.438286212919907e-06   -3.665424953441554e-05
-5.658156739757464e-06   2.438286212919907e-06   -3.665424953441554e-05
-9.53665084467013e-06   2.0147847481796852e-06   -2.9935991814050922e-05
-9.53665084467013e-06   2.0147847481796852e-06   -2.9935991814050922e-05
-9.53665084467013e-06   2.0147847481796852e-06   -2.9935991814050922e-05
-9.53665084467013e-06   2.0147847481796852e-06   -2.9935991814050922e-05
-5.658156739757464e-06   2.4752577885980235e-06   -2.453968739156659e-05
-5.658156739757464e-06   2.4752577885980235e-06   -2.453968739156659e-05
-5.658156739757464e-06   2.4752577885980235e-06   -2.453968739156659e-05
-5.658156739757464e-06   2.4752577885980235e-06   -2.453968739156659e-05
-1.2926894025466754e-05   2.438286212919907e-06   -3.66764324798226e-05
-1.2926894025466754e-05   2.438286212919907e-06   -3.66764324798226e-05
-1.2926894025466754e-05   2.438286212919907e-06   -3.66764324798226e-05
-1.2926894025466754e-05   2.438286212919907e-06   -3.66764324798226e-05
-1.2459627874652986e-05   3.382462992179659e-06   -2.511402207331715e-05
-1.2459627874652986e-05   3.382462992179659e-06   -2.511402207331715e-05
-1.2459627874652986e-05   3.382462992179659e-06   -2.511402207331715e-05
-1.2459627874652986e-05   3.382462992179659e-06   -2.511402207331715e-05
-5.198197971158415e-06   3.2490496673881313e-06   -3.713635725093308e-05
-5.198197971158415e-06   3.2490496673881313e-06   -3.713635725093308e-05
-5.198197971158415e-06   3.2490496673881313e-06   -3.713635725093308e-05
-5.198197971158415e-06   3.2490496673881313e-06   -3.713635725093308e-05
-9.142441566753641e-06   2.682329432119549e-06   -3.02225857837805e-05
-9.142441566753641e-06   2.682329432119549e-06   -3.02225857837805e-05
-9.142441566753641e-06   2.682329432119549e-06   -3.02225857837805e-05
-9.142441566753641e-06   2.682329432119549e-06   -3.02225857837805e-05
-1.3899078789403841e-05   1.5655425615475858e-06   -2.0969987567062546e-05
-1.3899078789403841e-05   1.5655425615475858e-06   -2.0969987567062546e-05
-1.3899078789403841e-05   1.5655425615475858e-06   -2.0969987567062546e-05
-1.3899078789403841e-05   1.5655425615475858e-06   -2.0969987567062546e-05
-2.1097164398702318e-05   2.866866362335194e-06   -3.218600263542087e-05
-2.1097164398702318e-05   2.866866362335194e-06   -3.218600263542087e-05
-2.1097164398702318e-05   2.866866362335194e-06   -3.218600263542087e-05
-2.1097164398702318e-05   2.866866362335194e-06   -3.218600263542087e-05
-2.0545953183329996e-05   2.4443845987878136e-06   -1.974617761698889e-05
-2.0545953183329996e-05   2.4443845987878136e-06   -1.974617761698889e-05
-2.0545953183329996e-05   2.4443845987878136e-06   -1.974617761698889e-05
-2.0545953183329996e-05   2.4443845987878136e-06   -1.974617761698889e-05
-1.34169553206225e-05   3.6706258213520943e-06   -3.236358545504e-05
-1.34169553206225e-05   3.6706258213520943e-06   -3.236358545504e-05
-1.34169553206225e-05   3.6706258213520943e-06   -3.236358545504e-05
-1.34169553206225e-05   3.6706258213520943e-06   -3.236358545504e-05
-1.7120318800351256e-05   2.7409241329632867e-06   -2.5633491975792092e-05
-1.7120318800351256e-05   2.7409241329632867e-06   -2.5633491975792092e-05
-1.7120318800351256e-05   2.7409241329632867e-06   -2.5633491975792092e-05
-1.7120318800351256e-05   2.7409241329632867e-06   -2.5633491975792092e-05
-1.3416955320622524e-05   2.4443845987878136e-06   -2.0481922350527697e-05
-1.3416955320622524e-05   2.4443845987878136e-06   -2.0481922350527697e-05
-1.3416955320622524e-05   2.4443845987878136e-06   -2.0481922350527697e-05
-1.3416955320622524e-05   2.4443845987878136e-06   -2.0481922350527697e-05
-2.054595318333003e-05   3.6706258213520943e-06   -3.162784072150164e-05
-2.054595318333003e-05   3.6706258213520943e-06   -3.162784072150164e-05
-2.054595318333003e-05   3.6706258213520943e-06   -3.162784072150164e-05
-2.054595318333003e-05   3.6706258213520943e-06   -3.162784072150164e-05
-1.988503879076076e-05   3.25480282578703e-06   -1.956145969230134e-05
-1.988503879076076e-05   3.25480282578703e-06   -1.956145969230134e-05
-1.988503879076076e-05   3.25480282578703e-06   -1.956145969230134e-05
-1.988503879076076e-05   3.25480282578703e-06   -1.956145969230134e-05
-1.2926894025466754e-05   4.3943538008310926e-06   -3.1842098219484525e-05
-1.2926894025466754e-05   4.3943538008310926e-06   -3.1842098219484525e-05
-1.2926894025466754e-05   4.3943538008310926e-06   -3.1842098219484525e-05
-1.2926894025466754e-05   4.3943538008310926e-06   -3.1842098219484525e-05
-1.656431543021207e-05   3.375863634476556e-06   -2.516863511176329e-05
-1.656431543021207e-05   3.375863634476556e-06   -2.516863511176329e-05
-1.656431543021207e-05   3.375863634476556e-06   -2.516863511176329e-05
-1.656431543021207e-05   3.375863634476556e-06   -2.516863511176329e-05
-1.2926894025466767e-05   3.25480282578703e-06   -2.0245190277327864e-05
-1.2926894025466767e-05   3.25480282578703e-06   -2.0245190277327864e-05
-1.2926894025466767e-05   3.25480282578703e-06   -2.0245190277327864e-05
-1.2926894025466767e-05   3.25480282578703e-06   -2.0245190277327864e-05
-1.988503879076076e-05   4.3943538008310926e-06   -3.115836763445802e-05
-1.988503879076076e-05   4.3943538008310926e-06   -3.115836763445802e-05
-1.988503879076076e-05   4.3943538008310926e-06   -3.115836763445802e-05
-1.988503879076076e-05   4.3943538008310926e-06   -3.115836763445802e-05
-1.9334656828723113e-05   4.162518089451594e-06   -2.0102863953541444e-05
-1.9334656828723113e-05   4.162518089451594e-06   -2.0102863953541444e-05
-1.9334656828723113e-05   4.162518089451594e-06   -2.0102863953541444e-05
-1.9334656828723113e-05   4.162518089451594e-06   -2.0102863953541444e-05
-1.2459627874652986e-05   5.203521266615007e-06   -3.2185847449956364e-05
-1.2459627874652986e-05   5.203521266615007e-06   -3.2185847449956364e-05
-1.2459627874652986e-05   5.203521266615007e-06   -3.2185847449956364e-05
-1.2459627874652986e-05   5.203521266615007e-06   -3.2185847449956364e-05
-1.6193361840493758e-05   4.001116875770785e-06   -2.5241514872381882e-05
-1.6193361840493758e-05   4.001116875770785e-06   -2.5241514872381882e-05
-1.6193361840493758e-05   4.001116875770785e-06   -2.5241514872381882e-05
-1.6193361840493758e-05   4.001116875770785e-06   -2.5241514872381882e-05
-2.1097164398702318e-05   2.6328081202484782e-06   -1.0843113409851244e-05
-2.1097164398702318e-05   2.6328081202484782e-06   -1.0843113409851244e-05
-2.1097164398702318e-05   2.6328081202484782e-06   -1.0843113409851244e-05
-2.1097164398702318e-05   2.6328081202484782e-06   -1.0843113409851244e-05
-2.9305469223664038e-05   4.929660216465787e-06   -2.3145510193723663e-05
-2.9305469223664038e-05   4.929660216465787e-06   -2.3145510193723663e-05
-2.9305469223664038e-05   4.929660216465787e-06   -2.3145510193723663e-05
-2.9305469223664038e-05   4.929660216465787e-06   -2.3145510193723663e-05
-2.7784750692455833e-05   3.4300152236040743e-06   -6.800922311970669e-06
-2.7784750692455833e-05   3.4300152236040743e-06   -6.800922311970669e-06
-2.7784750692455833e-05   3.4300152236040743e-06   -6.800922311970669e-06
-2.7784750692455833e-05   3.4300152236040743e-06   -6.800922311970669e-06
-2.0545953183329996e-05   5.764601688430966e-06   -2.026633670607624e-05
-2.0545953183329996e-05   5.764601688430966e-06   -2.026633670607624e-05
-2.0545953183329996e-05   5.764601688430966e-06   -2.026633670607624e-05
-2.0545953183329996e-05   5.764601688430966e-06   -2.026633670607624e-05
-2.3679233294748406e-05   4.284003556741288e-06   -1.4155844308032033e-05
-2.3679233294748406e-05   4.284003556741288e-06   -1.4155844308032033e-05
-2.3679233294748406e-05   4.284003556741288e-06   -1.4155844308032033e-05
-2.3679233294748406e-05   4.284003556741288e-06   -1.4155844308032033e-05
-2.0545953183330016e-05   3.4300152236040743e-06   -8.201674190866435e-06
-2.0545953183330016e-05   3.4300152236040743e-06   -8.201674190866435e-06
-2.0545953183330016e-05   3.4300152236040743e-06   -8.201674190866435e-06
-2.0545953183330016e-05   3.4300152236040743e-06   -8.201674190866435e-06
-2.7784750692455752e-05   5.764601688430966e-06   -1.8865584827180352e-05
-2.7784750692455752e-05   5.764601688430966e-06   -1.8865584827180352e-05
-2.7784750692455752e-05   5.764601688430966e-06   -1.8865584827180352e-05
-2.7784750692455752e-05   5.764601688430966e-06   -1.8865584827180352e-05
-2.652790280577313e-05   3.794991916032057e-06   -5.572414133772868e-06
-2.652790280577313e-05   3.794991916032057e-06   -5.572414133772868e-06
-2.652790280577313e-05   3.794991916032057e-06   -5.572414133772868e-06
-2.652790280577313e-05   3.794991916032057e-06   -5.572414133772868e-06
-1.9885038790760734e-05   6.06392469094507e-06   -1.8005213823741158e-05
-1.9885038790760734e-05   6.06392469094507e-06   -1.8005213823741158e-05
-1.9885038790760734e-05   6.06392469094507e-06   -1.8005213823741158e-05
-1.9885038790760734e-05   6.06392469094507e-06   -1.8005213823741158e-05
-2.3125291628834477e-05   4.660119268181566e-06   -1.1762509173293467e-05
-2.3125291628834477e-05   4.660119268181566e-06   -1.1762509173293467e-05
-2.3125291628834477e-05   4.660119268181566e-06   -1.1762509173293467e-05
-2.3125291628834477e-05   4.660119268181566e-06   -1.1762509173293467e-05
-1.988503879076076e-05   3.794991916032057e-06   -6.933773798720611e-06
-1.988503879076076e-05   3.794991916032057e-06   -6.933773798720611e-06
-1.988503879076076e-05   3.794991916032057e-06   -6.933773798720611e-06
-1.988503879076076e-05   3.794991916032057e-06   -6.933773798720611e-06
-2.652790280577305e-05   6.06392469094507e-06   -1.6643854158793496e-05
-2.652790280577305e-05   6.06392469094507e-06   -1.6643854158793496e-05
-2.652790280577305e-05   6.06392469094507e-06   -1.6643854158793496e-05
-2.652790280577305e-05   6.06392469094507e-06   -1.6643854158793496e-05
-2.5040327371198933e-05   4.359273349696397e-06   -4.283395534152522e-06
-2.5040327371198933e-05   4.359273349696397e-06   -4.283395534152522e-06
-2.5040327371198933e-05   4.359273349696397e-06   -4.283395534152522e-06
-2.5040327371198933e-05   4.359273349696397e-06   -4.283395534152522e-06
-1.9334656828723113e-05   6.442163987172966e-06   -1.5042580820764825e-05
-1.9334656828723113e-05   6.442163987172966e-06   -1.5042580820764825e-05
-1.9334656828723113e-05   6.442163987172966e-06   -1.5042580820764825e-05
-1.9334656828723113e-05   6.442163987172966e-06   -1.5042580820764825e-05
-2.194265505138199e-05   4.841258882231844e-06   -9.735374053369063e-06
-2.194265505138199e-05   4.841258882231844e-06   -9.735374053369063e-06
-2.194265505138199e-05   4.841258882231844e-06   -9.735374053369063e-06
-2.194265505138199e-05   4.841258882231844e-06   -9.735374053369063e-06
2.2210383227029665e-05   -2.911600478836332e-06   -1.235932410289858e-07
2.2210383227029665e-05   -2.911600478836332e-06   -1.235932410289858e-07
2.2210383227029665e-05   -2.911600478836332e-06   -1.235932410289858e-07
2.2210383227029665e-05   -2.911600478836332e-06   -1.235932410289858e-07
9.457988046565965e-06   -5.246298500350723e-06   -2.277840402137711e-05
9.457988046565965e-06   -5.246298500350723e-06   -2.277840402137711e-05
9.457988046565965e-06   -5.246298500350723e-06   -2.277840402137711e-05
9.457988046565965e-06   -5.246298500350723e-06   -2.277840402137711e-05
1.012436299976317e-05   -2.3934048972590067e-06   -2.461014574944159e-06
1.012436299976317e-05   -2.3934048972590067e-06   -2.461014574944159e-06
1.012436299976317e-05   -2.3934048972590067e-06   -2.461014574944159e-06
1.012436299976317e-05   -2.3934048972590067e-06   -2.461014574944159e-06
2.388394380291138e-05   -4.879751046054943e-06   -2.390184155758024e-05
2.388394380291138e-05   -4.879751046054943e-06   -2.390184155758024e-05
2.388394380291138e-05   -4.879751046054943e-06   -2.390184155758024e-05
2.388394380291138e-05   -4.879751046054943e-06   -2.390184155758024e-05
1.575665911928071e-05   -3.4594815937665294e-06   -1.120852875623543e-05
1.575665911928071e-05   -3.4594815937665294e-06   -1.120852875623543e-05
1.575665911928071e-05   -3.4594815937665294e-06   -1.120852875623543e-05
1.575665911928071e-05   -3.4594815937665294e-06   -1.120852875623543e-05
2.388394380291141e-05   -2.3934048972590067e-06   -9.692068856664458e-07
2.388394380291141e-05   -2.3934048972590067e-06   -9.692068856664458e-07
2.388394380291141e-05   -2.3934048972590067e-06   -9.692068856664458e-07
2.388394380291141e-05   -2.3934048972590067e-06   -9.692068856664458e-07
1.0124362999763142e-05   -4.879751046054943e-06   -2.5393649246857955e-05
1.0124362999763142e-05   -4.879751046054943e-06   -2.5393649246857955e-05
1.0124362999763142e-05   -4.879751046054943e-06   -2.5393649246857955e-05
1.0124362999763142e-05   -4.879751046054943e-06   -2.5393649246857955e-05
1.0862767623109329e-05   -2.0472398785441413e-06   -3.486949198333025e-06
1.0862767623109329e-05   -2.0472398785441413e-06   -3.486949198333025e-06
1.0862767623109329e-05   -2.0472398785441413e-06   -3.486949198333025e-06
1.0862767623109329e-05   -2.0472398785441413e-06   -3.486949198333025e-06
2.528900324259598e-05   -4.563921379168237e-06   -2.602066633043622e-05
2.528900324259598e-05   -4.563921379168237e-06   -2.602066633043622e-05
2.528900324259598e-05   -4.563921379168237e-06   -2.602066633043622e-05
2.528900324259598e-05   -4.563921379168237e-06   -2.602066633043622e-05
1.701350145747626e-05   -3.318845827528878e-06   -1.2975208686220353e-05
1.701350145747626e-05   -3.318845827528878e-06   -1.2975208686220353e-05
1.701350145747626e-05   -3.318845827528878e-06   -1.2975208686220353e-05
1.701350145747626e-05   -3.318845827528878e-06   -1.2975208686220353e-05
2.5289003242596033e-05   -2.0472398785441413e-06   -1.9769402979584157e-06
2.5289003242596033e-05   -2.0472398785441413e-06   -1.9769402979584157e-06
2.5289003242596033e-05   -2.0472398785441413e-06   -1.9769402979584157e-06
2.5289003242596033e-05   -2.0472398785441413e-06   -1.9769402979584157e-06
1.0862767623109302e-05   -4.563921379168237e-06   -2.753067523081072e-05
1.0862767623109302e-05   -4.563921379168237e-06   -2.753067523081072e-05
1.0862767623109302e-05   -4.563921379168237e-06   -2.753067523081072e-05
1.0862767623109302e-05   -4.563921379168237e-06   -2.753067523081072e-05
1.1472487073284755e-05   -1.1756670501980246e-06   -5.852113677248154e-06
1.1472487073284755e-05   -1.1756670501980246e-06   -5.852113677248154e-06
1.1472487073284755e-05   -1.1756670501980246e-06   -5.852113677248154e-06
1.1472487073284755e-05   -1.1756670501980246e-06   -5.852113677248154e-06
2.6920551716571944e-05   -3.5660541900326553e-06   -3.0164655798825893e-05
2.6920551716571944e-05   -3.5660541900326553e-06   -3.0164655798825893e-05
2.6920551716571944e-05   -3.5660541900326553e-06   -3.0164655798825893e-05
2.6920551716571944e-05   -3.5660541900326553e-06   -3.0164655798825893e-05
1.7692214247526613e-05   -2.928178751519144e-06   -1.5166818613525704e-05
1.7692214247526613e-05   -2.928178751519144e-06   -1.5166818613525704e-05
1.7692214247526613e-05   -2.928178751519144e-06   -1.5166818613525704e-05
1.7692214247526613e-05   -2.928178751519144e-06   -1.5166818613525704e-05
9.457988046565965e-06   -1.1488324829882213e-06   -1.5394807367158218e-05
9.457988046565965e-06   -1.1488324829882213e-06   -1.5394807367158218e-05
9.457988046565965e-06   -1.1488324829882213e-06   -1.5394807367158218e-05
9.457988046565965e-06   -1.1488324829882213e-06   -1.5394807367158218e-05
-4.032865231107618e-06   -2.4526484664829946e-06   -3.866185242004444e-05
-4.032865231107618e-06   -2.4526484664829946e-06   -3.866185242004444e-05
-4.032865231107618e-06   -2.4526484664829946e-06   -3.866185242004444e-05
-4.032865231107618e-06   -2.4526484664829946e-06   -3.866185242004444e-05
-3.4133186081655557e-06   -4.376171375828405e-07   -1.5714947759093434e-05
-3.4133186081655557e-06   -4.376171375828405e-07   -1.5714947759093434e-05
-3.4133186081655557e-06   -4.376171375828405e-07   -1.5714947759093434e-05
-3.4133186081655557e-06   -4.376171375828405e-07   -1.5714947759093434e-05
1.0124362999763142e-05   -1.9422066173972394e-06   -3.737499675108603e-05
1.0124362999763142e-05   -1.9422066173972394e-06   -3.737499675108603e-05
1.0124362999763142e-05   -1.9422066173972394e-06   -3.737499675108603e-05
1.0124362999763142e-05   -1.9422066173972394e-06   -3.737499675108603e-05
3.067385470172508e-06   -1.1851494451545035e-06   -2.6067601838447168e-05
3.067385470172508e-06   -1.1851494451545035e-06   -2.6067601838447168e-05
3.067385470172508e-06   -1.1851494451545035e-06   -2.6067601838447168e-05
3.067385470172508e-06   -1.1851494451545035e-06   -2.6067601838447168e-05
1.012436299976317e-05   -4.376171375828405e-07   -1.481219407120486e-05
1.012436299976317e-05   -4.376171375828405e-07   -1.481219407120486e-05
1.012436299976317e-05   -4.376171375828405e-07   -1.481219407120486e-05
1.012436299976317e-05   -4.376171375828405e-07   -1.481219407120486e-05
-3.4133186081655557e-06   -1.9422066173972394e-06   -3.82777504389745e-05
-3.4133186081655557e-06   -1.9422066173972394e-06   -3.82777504389745e-05
-3.4133186081655557e-06   -1.9422066173972394e-06   -3.82777504389745e-05
-3.4133186081655557e-06   -1.9422066173972394e-06   -3.82777504389745e-05
-2.8217962520353816e-06   2.9803891003332e-07   -1.5918275217254117e-05
-2.8217962520353816e-06   2.9803891003332e-07   -1.5918275217254117e-05
-2.8217962520353816e-06   2.9803891003332e-07   -1.5918275217254117e-05
-2.8217962520353816e-06   2.9803891003332e-07   -1.5918275217254117e-05
1.0862767623109302e-05   -1.3183847499412607e-06   -3.7756027479843605e-05
1.0862767623109302e-05   -1.3183847499412607e-06   -3.7756027479843605e-05
1.0862767623109302e-05   -1.3183847499412607e-06   -3.7756027479843605e-05
1.0862767623109302e-05   -1.3183847499412607e-06   -3.7756027479843605e-05
3.5583414203271997e-06   -7.333513089913864e-07   -2.5933003873109526e-05
3.5583414203271997e-06   -7.333513089913864e-07   -2.5933003873109526e-05
3.5583414203271997e-06   -7.333513089913864e-07   -2.5933003873109526e-05
3.5583414203271997e-06   -7.333513089913864e-07   -2.5933003873109526e-05
1.0862767623109329e-05   2.9803891003353684e-07   -1.4948421021269043e-05
1.0862767623109329e-05   2.9803891003353684e-07   -1.4948421021269043e-05
1.0862767623109329e-05   2.9803891003353684e-07   -1.4948421021269043e-05
1.0862767623109329e-05   2.9803891003353684e-07   -1.4948421021269043e-05
-2.8217962520353816e-06   -1.3183847499412607e-06   -3.872588167582846e-05
-2.8217962520353816e-06   -1.3183847499412607e-06   -3.872588167582846e-05
-2.8217962520353816e-06   -1.3183847499412607e-06   -3.872588167582846e-05
-2.8217962520353816e-06   -1.3183847499412607e-06   -3.872588167582846e-05
-2.2663459123931795e-06   1.1696172580010888e-06   -1.646150920904272e-05
-2.2663459123931795e-06   1.1696172580010888e-06   -1.646150920904272e-05
-2.2663459123931795e-06   1.1696172580010888e-06   -1.646150920904272e-05
-2.2663459123931795e-06   1.1696172580010888e-06   -1.646150920904272e-05
1.1472487073284728e-05   -5.331891195625021e-07   -3.833788035863451e-05
1.1472487073284728e-05   -5.331891195625021e-07   -3.833788035863451e-05
1.1472487073284728e-05   -5.331891195625021e-07   -3.833788035863451e-05
1.1472487073284728e-05   -5.331891195625021e-07   -3.833788035863451e-05
4.171807980248162e-06   -1.7595964160060408e-07   -2.638441955701788e-05
4.171807980248162e-06   -1.7595964160060408e-07   -2.638441955701788e-05
4.171807980248162e-06   -1.7595964160060408e-07   -2.638441955701788e-05
4.171807980248162e-06   -1.7595964160060408e-07   -2.638441955701788e-05
-4.032865231107618e-06   8.883545884843299e-07   -1.9814140762755778e-05
-4.032865231107618e-06   8.883545884843299e-07   -1.9814140762755778e-05
-4.032865231107618e-06   8.883545884843299e-07   -1.9814140762755778e-05
-4.032865231107618e-06   8.883545884843299e-07   -1.9814140762755778e-05
-1.7286060662085656e-05   4.5477368719308055e-07   -4.216294835516067e-05
-1.7286060662085656e-05   4.5477368719308055e-07   -4.216294835516067e-05
-1.7286060662085656e-05   4.5477368719308055e-07   -4.216294835516067e-05
-1.7286060662085656e-05   4.5477368719308055e-07   -4.216294835516067e-05
-1.6619272397822578e-05   1.6413228384275745e-06   -1.9673922003731175e-05
-1.6619272397822578e-05   1.6413228384275745e-06   -1.9673922003731175e-05
-1.6619272397822578e-05   1.6413228384275745e-06   -1.9673922003731175e-05
-1.6619272397822578e-05   1.6413228384275745e-06   -1.9673922003731175e-05
-3.4133186081655557e-06   1.0284076324713204e-06   -4.131609586291893e-05
-3.4133186081655557e-06   1.0284076324713204e-06   -4.131609586291893e-05
-3.4133186081655557e-06   1.0284076324713204e-06   -4.131609586291893e-05
-3.4133186081655557e-06   1.0284076324713204e-06   -4.131609586291893e-05
-1.0267272458161774e-05   1.2183644673563476e-06   -3.0006813547189533e-05
-1.0267272458161774e-05   1.2183644673563476e-06   -3.0006813547189533e-05
-1.0267272458161774e-05   1.2183644673563476e-06   -3.0006813547189533e-05
-1.0267272458161774e-05   1.2183644673563476e-06   -3.0006813547189533e-05
-3.4133186081655557e-06   1.6413228384275745e-06   -1.9306172880157206e-05
-3.4133186081655557e-06   1.6413228384275745e-06   -1.9306172880157206e-05
-3.4133186081655557e-06   1.6413228384275745e-06   -1.9306172880157206e-05
-3.4133186081655557e-06   1.6413228384275745e-06   -1.9306172880157206e-05
-1.6619272397822578e-05   1.0284076324713204e-06   -4.168384498649271e-05
-1.6619272397822578e-05   1.0284076324713204e-06   -4.168384498649271e-05
-1.6619272397822578e-05   1.0284076324713204e-06   -4.168384498649271e-05
-1.6619272397822578e-05   1.0284076324713204e-06   -4.168384498649271e-05
-1.5976030451158926e-05   2.438286212919907e-06   -1.964432572757911e-05
-1.5976030451158926e-05   2.438286212919907e-06   -1.964432572757911e-05
-1.5976030451158926e-05   2.438286212919907e-06   -1.964432572757911e-05
-1.5976030451158926e-05   2.438286212919907e-06   -1.964432572757911e-05
-2.8217962520353816e-06   1.6922042360585903e-06   -4.112040020666838e-05
-2.8217962520353816e-06   1.6922042360585903e-06   -4.112040020666838e-05
-2.8217962520353816e-06   1.6922042360585903e-06   -4.112040020666838e-05
-2.8217962520353816e-06   1.6922042360585903e-06   -4.112040020666838e-05
-9.693769344142372e-06   1.7554960819335472e-06   -2.970508682734836e-05
-9.693769344142372e-06   1.7554960819335472e-06   -2.970508682734836e-05
-9.693769344142372e-06   1.7554960819335472e-06   -2.970508682734836e-05
-9.693769344142372e-06   1.7554960819335472e-06   -2.970508682734836e-05
-2.821796252035395e-06   2.438286212919907e-06   -1.919667654146247e-05
-2.821796252035395e-06   2.438286212919907e-06   -1.919667654146247e-05
-2.821796252035395e-06   2.438286212919907e-06   -1.919667654146247e-05
-2.821796252035395e-06   2.438286212919907e-06   -1.919667654146247e-05
-1.5976030451158926e-05   1.6922042360585903e-06   -4.1568049392785075e-05
-1.5976030451158926e-05   1.6922042360585903e-06   -4.1568049392785075e-05
-1.5976030451158926e-05   1.6922042360585903e-06   -4.1568049392785075e-05
-1.5976030451158926e-05   1.6922042360585903e-06   -4.1568049392785075e-05
-1.5381659576904345e-05   3.2490496673881313e-06   -2.0107441238503528e-05
-1.5381659576904345e-05   3.2490496673881313e-06   -2.0107441238503528e-05
-1.5381659576904345e-05   3.2490496673881313e-06   -2.0107441238503528e-05
-1.5381659576904345e-05   3.2490496673881313e-06   -2.0107441238503528e-05
-2.2663459123931795e-06   2.3781245660299457e-06   -4.144374228520721e-05
-2.2663459123931795e-06   2.3781245660299457e-06   -4.144374228520721e-05
-2.2663459123931795e-06   2.3781245660299457e-06   -4.144374228520721e-05
-2.2663459123931795e-06   2.3781245660299457e-06   -4.144374228520721e-05
-9.181623482910908e-06   2.3066294938443e-06   -2.987538262436666e-05
-9.181623482910908e-06   2.3066294938443e-06   -2.987538262436666e-05
-9.181623482910908e-06   2.3066294938443e-06   -2.987538262436666e-05
-9.181623482910908e-06   2.3066294938443e-06   -2.987538262436666e-05
-1.7286060662085683e-05   2.866866362335194e-06   -1.6070447348773558e-05
-1.7286060662085683e-05   2.866866362335194e-06   -1.6070447348773558e-05
-1.7286060662085683e-05   2.866866362335194e-06   -1.6070447348773558e-05
-1.7286060662085683e-05   2.866866362335194e-06   -1.6070447348773558e-05
-3.0298626947174515e-05   3.4663956974760168e-06   -3.7398340222837e-05
-3.0298626947174515e-05   3.4663956974760168e-06   -3.7398340222837e-05
-3.0298626947174515e-05   3.4663956974760168e-06   -3.7398340222837e-05
-3.0298626947174515e-05   3.4663956974760168e-06   -3.7398340222837e-05
-2.9494629796747315e-05   3.6706258213520943e-06   -1.5096094761945828e-05
-2.9494629796747315e-05   3.6706258213520943e-06   -1.5096094761945828e-05
-2.9494629796747315e-05   3.6706258213520943e-06   -1.5096094761945828e-05
-2.9494629796747315e-05   3.6706258213520943e-06   -1.5096094761945828e-05
-1.6619272397822605e-05   4.194241838578142e-06   -3.686919337048911e-05
-1.6619272397822605e-05   4.194241838578142e-06   -3.686919337048911e-05
-1.6619272397822605e-05   4.194241838578142e-06   -3.686919337048911e-05
-1.6619272397822605e-05   4.194241838578142e-06   -3.686919337048911e-05
-2.3253604170105366e-05   3.7008703050024714e-06   -2.551595082987252e-05
-2.3253604170105366e-05   3.7008703050024714e-06   -2.551595082987252e-05
-2.3253604170105366e-05   3.7008703050024714e-06   -2.551595082987252e-05
-2.3253604170105366e-05   3.7008703050024714e-06   -2.551595082987252e-05
-1.6619272397822605e-05   3.6706258213520943e-06   -1.5410264372281326e-05
-1.6619272397822605e-05   3.6706258213520943e-06   -1.5410264372281326e-05
-1.6619272397822605e-05   3.6706258213520943e-06   -1.5410264372281326e-05
-1.6619272397822605e-05   3.6706258213520943e-06   -1.5410264372281326e-05
-2.9494629796747315e-05   4.194241838578142e-06   -3.655502376015364e-05
-2.9494629796747315e-05   4.194241838578142e-06   -3.655502376015364e-05
-2.9494629796747315e-05   4.194241838578142e-06   -3.655502376015364e-05
-2.9494629796747315e-05   4.194241838578142e-06   -3.655502376015364e-05
-2.8604288507802154e-05   4.3943538008310926e-06   -1.455402157563891e-05
-2.8604288507802154e-05   4.3943538008310926e-06   -1.455402157563891e-05
-2.8604288507802154e-05   4.3943538008310926e-06   -1.455402157563891e-05
-2.8604288507802154e-05   4.3943538008310926e-06   -1.455402157563891e-05
-1.5976030451158956e-05   4.820970286835251e-06   -3.585708822831347e-05
-1.5976030451158956e-05   4.820970286835251e-06   -3.585708822831347e-05
-1.5976030451158956e-05   4.820970286835251e-06   -3.585708822831347e-05
-1.5976030451158956e-05   4.820970286835251e-06   -3.585708822831347e-05
-2.2439672278626045e-05   4.2679472133317145e-06   -2.4752538005099343e-05
-2.2439672278626045e-05   4.2679472133317145e-06   -2.4752538005099343e-05
-2.2439672278626045e-05   4.2679472133317145e-06   -2.4752538005099343e-05
-2.2439672278626045e-05   4.2679472133317145e-06   -2.4752538005099343e-05
-1.597603045115894e-05   4.3943538008310926e-06   -1.4809991467241166e-05
-1.597603045115894e-05   4.3943538008310926e-06   -1.4809991467241166e-05
-1.597603045115894e-05   4.3943538008310926e-06   -1.4809991467241166e-05
-1.597603045115894e-05   4.3943538008310926e-06   -1.4809991467241166e-05
-2.8604288507802154e-05   4.820970286835251e-06   -3.5601118336710995e-05
-2.8604288507802154e-05   4.820970286835251e-06   -3.5601118336710995e-05
-2.8604288507802154e-05   4.820970286835251e-06   -3.5601118336710995e-05
-2.8604288507802154e-05   4.820970286835251e-06   -3.5601118336710995e-05
-2.7852130734931558e-05   5.203521266615007e-06   -1.489069846622728e-05
-2.7852130734931558e-05   5.203521266615007e-06   -1.489069846622728e-05
-2.7852130734931558e-05   5.203521266615007e-06   -1.489069846622728e-05
-2.7852130734931558e-05   5.203521266615007e-06   -1.489069846622728e-05
-1.538165957690437e-05   5.513829560655804e-06   -3.586100203936365e-05
-1.538165957690437e-05   5.513829560655804e-06   -3.586100203936365e-05
-1.538165957690437e-05   5.513829560655804e-06   -3.586100203936365e-05
-1.538165957690437e-05   5.513829560655804e-06   -3.586100203936365e-05
-2.1935109100832155e-05   4.790094222864496e-06   -2.4504344963475958e-05
-2.1935109100832155e-05   4.790094222864496e-06   -2.4504344963475958e-05
-2.1935109100832155e-05   4.790094222864496e-06   -2.4504344963475958e-05
-2.1935109100832155e-05   4.790094222864496e-06   -2.4504344963475958e-05
-3.0298626947174515e-05   4.929660216465787e-06   -8.04834856372224e-06
-3.0298626947174515e-05   4.929660216465787e-06   -8.04834856372224e-06
-3.0298626947174515e-05   4.929660216465787e-06   -8.04834856372224e-06
-3.0298626947174515e-05   4.929660216465787e-06   -8.04834856372224e-06
-4.401166270053477e-05   6.8060081991224135e-06   -2.9777599363062148e-05
-4.401166270053477e-05   6.8060081991224135e-06   -2.9777599363062148e-05
-4.401166270053477e-05   6.8060081991224135e-06   -2.9777599363062148e-05
-4.401166270053477e-05   6.8060081991224135e-06   -2.9777599363062148e-05
-4.216021024733525e-05   5.764601688430966e-06   -2.5294487058220936e-06
-4.216021024733525e-05   5.764601688430966e-06   -2.5294487058220936e-06
-4.216021024733525e-05   5.764601688430966e-06   -2.5294487058220936e-06
-4.216021024733525e-05   5.764601688430966e-06   -2.5294487058220936e-06
-2.9494629796747264e-05   7.773171756261538e-06   -2.484389149750072e-05
-2.9494629796747264e-05   7.773171756261538e-06   -2.484389149750072e-05
-2.9494629796747264e-05   7.773171756261538e-06   -2.484389149750072e-05
-2.9494629796747264e-05   7.773171756261538e-06   -2.484389149750072e-05
-3.498294068850618e-05   6.4837755319520785e-06   -1.4923068943316746e-05
-3.498294068850618e-05   6.4837755319520785e-06   -1.4923068943316746e-05
-3.498294068850618e-05   6.4837755319520785e-06   -1.4923068943316746e-05
-3.498294068850618e-05   6.4837755319520785e-06   -1.4923068943316746e-05
-2.9494629796747284e-05   5.764601688430749e-06   -3.734590746520632e-06
-2.9494629796747284e-05   5.764601688430749e-06   -3.734590746520632e-06
-2.9494629796747284e-05   5.764601688430749e-06   -3.734590746520632e-06
-2.9494629796747284e-05   5.764601688430749e-06   -3.734590746520632e-06
-4.216021024733517e-05   7.773171756261538e-06   -2.3638749456802045e-05
-4.216021024733517e-05   7.773171756261538e-06   -2.3638749456802045e-05
-4.216021024733517e-05   7.773171756261538e-06   -2.3638749456802045e-05
-4.216021024733517e-05   7.773171756261538e-06   -2.3638749456802045e-05
-4.063676192784014e-05   6.06392469094507e-06   -2.2251713590194355e-07
-4.063676192784014e-05   6.06392469094507e-06   -2.2251713590194355e-07
-4.063676192784014e-05   6.06392469094507e-06   -2.2251713590194355e-07
-4.063676192784014e-05   6.06392469094507e-06   -2.2251713590194355e-07
-2.8604288507802154e-05   8.027842405978168e-06   -2.1454990131651993e-05
-2.8604288507802154e-05   8.027842405978168e-06   -2.1454990131651993e-05
-2.8604288507802154e-05   8.027842405978168e-06   -2.1454990131651993e-05
-2.8604288507802154e-05   8.027842405978168e-06   -2.1454990131651993e-05
-3.4356092749519925e-05   6.869871440831447e-06   -1.1173867149700688e-05
-3.4356092749519925e-05   6.869871440831447e-06   -1.1173867149700688e-05
-3.4356092749519925e-05   6.869871440831447e-06   -1.1173867149700688e-05
-3.4356092749519925e-05   6.869871440831447e-06   -1.1173867149700688e-05
-2.8604288507802154e-05   6.06392469094507e-06   -1.400867764922019e-06
-2.8604288507802154e-05   6.06392469094507e-06   -1.400867764922019e-06
-2.8604288507802154e-05   6.06392469094507e-06   -1.400867764922019e-06
-2.8604288507802154e-05   6.06392469094507e-06   -1.400867764922019e-06
-4.063676192784e-05   8.027842405978385e-06   -2.0276639502632117e-05
-4.063676192784e-05   8.027842405978385e-06   -2.0276639502632117e-05
-4.063676192784e-05   8.027842405978385e-06   -2.0276639502632117e-05
-4.063676192784e-05   8.027842405978385e-06   -2.0276639502632117e-05
-3.899200371177914e-05   6.442163987172966e-06   2.710110313425447e-06
-3.899200371177914e-05   6.442163987172966e-06   2.710110313425447e-06
-3.899200371177914e-05   6.442163987172966e-06   2.710110313425447e-06
-3.899200371177914e-05   6.442163987172966e-06   2.710110313425447e-06
-2.7852130734931558e-05   8.24573741510493e-06   -1.693848870474642e-05
-2.7852130734931558e-05   8.24573741510493e-06   -1.693848870474642e-05
-2.7852130734931558e-05   8.24573741510493e-06   -1.693848870474642e-05
-2.7852130734931558e-05   8.24573741510493e-06   -1.693848870474642e-05
-3.280952134392448e-05   6.932679499164476e-06   -7.888336273527283e-06
-3.280952134392448e-05   6.932679499164476e-06   -7.888336273527283e-06
-3.280952134392448e-05   6.932679499164476e-06   -7.888336273527283e-06
-3.280952134392448e-05   6.932679499164476e-06   -7.888336273527283e-06
3.7641342489181046e-05   -5.246298500350723e-06   7.505112222025174e-06
3.7641342489181046e-05   -5.246298500350723e-06   7.505112222025174e-06
3.7641342489181046e-05   -5.246298500350723e-06   7.505112222025174e-06
3.7641342489181046e-05   -5.246298500350723e-06   7.505112222025174e-06
1.8130422154632883e-05   -7.761813294624581e-06   -2.6522397212119385e-05
1.8130422154632883e-05   -7.761813294624581e-06   -2.6522397212119385e-05
1.8130422154632883e-05   -7.761813294624581e-06   -2.6522397212119385e-05
1.8130422154632883e-05   -7.761813294624581e-06   -2.6522397212119385e-05
1.8868673430056466e-05   -4.8797510460551596e-06   3.6416270711725224e-06
1.8868673430056466e-05   -4.8797510460551596e-06   3.6416270711725224e-06
1.8868673430056466e-05   -4.8797510460551596e-06   3.6416270711725224e-06
1.8868673430056466e-05   -4.8797510460551596e-06   3.6416270711725224e-06
3.935898540920554e-05   -7.581302641800937e-06   -2.888796193662856e-05
3.935898540920554e-05   -7.581302641800937e-06   -2.888796193662856e-05
3.935898540920554e-05   -7.581302641800937e-06   -2.888796193662856e-05
3.935898540920554e-05   -7.581302641800937e-06   -2.888796193662856e-05
2.734070115416074e-05   -5.742854605974949e-06   -9.960556999716254e-06
2.734070115416074e-05   -5.742854605974949e-06   -9.960556999716254e-06
2.734070115416074e-05   -5.742854605974949e-06   -9.960556999716254e-06
2.734070115416074e-05   -5.742854605974949e-06   -9.960556999716254e-06
3.9358985409205594e-05   -4.8797510460551596e-06   5.2625580286200756e-06
3.9358985409205594e-05   -4.8797510460551596e-06   5.2625580286200756e-06
3.9358985409205594e-05   -4.8797510460551596e-06   5.2625580286200756e-06
3.9358985409205594e-05   -4.8797510460551596e-06   5.2625580286200756e-06
1.8868673430056412e-05   -7.581302641800937e-06   -3.0508892894076114e-05
1.8868673430056412e-05   -7.581302641800937e-06   -3.0508892894076114e-05
1.8868673430056412e-05   -7.581302641800937e-06   -3.0508892894076114e-05
1.8868673430056412e-05   -7.581302641800937e-06   -3.0508892894076114e-05
1.9603175252397103e-05   -4.56392137916802e-06   1.7496877110349286e-06
1.9603175252397103e-05   -4.56392137916802e-06   1.7496877110349286e-06
1.9603175252397103e-05   -4.56392137916802e-06   1.7496877110349286e-06
1.9603175252397103e-05   -4.56392137916802e-06   1.7496877110349286e-06
4.067683509532464e-05   -7.317847076652485e-06   -3.172072327535367e-05
4.067683509532464e-05   -7.317847076652485e-06   -3.172072327535367e-05
4.067683509532464e-05   -7.317847076652485e-06   -3.172072327535367e-05
4.067683509532464e-05   -7.317847076652485e-06   -3.172072327535367e-05
2.8787898667097993e-05   -5.7237235225342156e-06   -1.2862303360780222e-05
2.8787898667097993e-05   -5.7237235225342156e-06   -1.2862303360780222e-05
2.8787898667097993e-05   -5.7237235225342156e-06   -1.2862303360780222e-05
2.8787898667097993e-05   -5.7237235225342156e-06   -1.2862303360780222e-05
4.067683509532464e-05   -4.56392137916802e-06   3.4020431295255643e-06
4.067683509532464e-05   -4.56392137916802e-06   3.4020431295255643e-06
4.067683509532464e-05   -4.56392137916802e-06   3.4020431295255643e-06
4.067683509532464e-05   -4.56392137916802e-06   3.4020431295255643e-06
1.9603175252397103e-05   -7.317847076652485e-06   -3.337307869384436e-05
1.9603175252397103e-05   -7.317847076652485e-06   -3.337307869384436e-05
1.9603175252397103e-05   -7.317847076652485e-06   -3.337307869384436e-05
1.9603175252397103e-05   -7.317847076652485e-06   -3.337307869384436e-05
2.0101408383023026e-05   -3.5660541900326553e-06   -2.0581043866998994e-06
2.0101408383023026e-05   -3.5660541900326553e-06   -2.0581043866998994e-06
2.0101408383023026e-05   -3.5660541900326553e-06   -2.0581043866998994e-06
2.0101408383023026e-05   -3.5660541900326553e-06   -2.0581043866998994e-06
4.2070586806948257e-05   -6.291168725713805e-06   -3.7038333038500024e-05
4.2070586806948257e-05   -6.291168725713805e-06   -3.7038333038500024e-05
4.2070586806948257e-05   -6.291168725713805e-06   -3.7038333038500024e-05
4.2070586806948257e-05   -6.291168725713805e-06   -3.7038333038500024e-05
2.9189676316859864e-05   -5.283317875027756e-06   -1.6174859398764756e-05
2.9189676316859864e-05   -5.283317875027756e-06   -1.6174859398764756e-05
2.9189676316859864e-05   -5.283317875027756e-06   -1.6174859398764756e-05
2.9189676316859864e-05   -5.283317875027756e-06   -1.6174859398764756e-05
1.8130422154632883e-05   -2.4526484664827777e-06   -9.105355463109388e-06
1.8130422154632883e-05   -2.4526484664827777e-06   -9.105355463109388e-06
1.8130422154632883e-05   -2.4526484664827777e-06   -9.105355463109388e-06
1.8130422154632883e-05   -2.4526484664827777e-06   -9.105355463109388e-06
-1.1139770755455407e-06   -5.0200918815638835e-06   -4.2719820229122235e-05
-1.1139770755455407e-06   -5.0200918815638835e-06   -4.2719820229122235e-05
-1.1139770755455407e-06   -5.0200918815638835e-06   -4.2719820229122235e-05
-1.1139770755455407e-06   -5.0200918815638835e-06   -4.2719820229122235e-05
-3.56529895884219e-07   -1.9422066173970225e-06   -1.0041426936744985e-05
-3.56529895884219e-07   -1.9422066173970225e-06   -1.0041426936744985e-05
-3.56529895884219e-07   -1.9422066173970225e-06   -1.0041426936744985e-05
-3.56529895884219e-07   -1.9422066173970225e-06   -1.0041426936744985e-05
1.8868673430056466e-05   -4.7783841235456755e-06   -4.038172597629029e-05
1.8868673430056466e-05   -4.7783841235456755e-06   -4.038172597629029e-05
1.8868673430056466e-05   -4.7783841235456755e-06   -4.038172597629029e-05
1.8868673430056466e-05   -4.7783841235456755e-06   -4.038172597629029e-05
8.908582715219078e-06   -3.0375887306493057e-06   -2.482605202063244e-05
8.908582715219078e-06   -3.0375887306493057e-06   -2.482605202063244e-05
8.908582715219078e-06   -3.0375887306493057e-06   -2.482605202063244e-05
8.908582715219078e-06   -3.0375887306493057e-06   -2.482605202063244e-05
1.886867343005644e-05   -1.9422066173970225e-06   -8.339720433055663e-06
1.886867343005644e-05   -1.9422066173970225e-06   -8.339720433055663e-06
1.886867343005644e-05   -1.9422066173970225e-06   -8.339720433055663e-06
1.886867343005644e-05   -1.9422066173970225e-06   -8.339720433055663e-06
-3.56529895884219e-07   -4.7783841235456755e-06   -4.2083432479979614e-05
-3.56529895884219e-07   -4.7783841235456755e-06   -4.2083432479979614e-05
-3.56529895884219e-07   -4.7783841235456755e-06   -4.2083432479979614e-05
-3.56529895884219e-07   -4.7783841235456755e-06   -4.2083432479979614e-05
3.107437735516206e-07   -1.3183847499412607e-06   -1.028226556130528e-05
3.107437735516206e-07   -1.3183847499412607e-06   -1.028226556130528e-05
3.107437735516206e-07   -1.3183847499412607e-06   -1.028226556130528e-05
3.107437735516206e-07   -1.3183847499412607e-06   -1.028226556130528e-05
1.9603175252397103e-05   -4.329386455453974e-06   -4.062971700274042e-05
1.9603175252397103e-05   -4.329386455453974e-06   -4.062971700274042e-05
1.9603175252397103e-05   -4.329386455453974e-06   -4.062971700274042e-05
1.9603175252397103e-05   -4.329386455453974e-06   -4.062971700274042e-05
9.42332551465935e-06   -2.7869080484750185e-06   -2.4588787817363946e-05
9.42332551465935e-06   -2.7869080484750185e-06   -2.4588787817363946e-05
9.42332551465935e-06   -2.7869080484750185e-06   -2.4588787817363946e-05
9.42332551465935e-06   -2.7869080484750185e-06   -2.4588787817363946e-05
1.9603175252397103e-05   -1.3183847499412607e-06   -8.475664537997956e-06
1.9603175252397103e-05   -1.3183847499412607e-06   -8.475664537997956e-06
1.9603175252397103e-05   -1.3183847499412607e-06   -8.475664537997956e-06
1.9603175252397103e-05   -1.3183847499412607e-06   -8.475664537997956e-06
3.107437735516206e-07   -4.329386455453974e-06   -4.243631802604807e-05
3.107437735516206e-07   -4.329386455453974e-06   -4.243631802604807e-05
3.107437735516206e-07   -4.329386455453974e-06   -4.243631802604807e-05
3.107437735516206e-07   -4.329386455453974e-06   -4.243631802604807e-05
7.855280158950589e-07   -5.331891195622853e-07   -1.0691474772234503e-05
7.855280158950589e-07   -5.331891195622853e-07   -1.0691474772234503e-05
7.855280158950589e-07   -5.331891195622853e-07   -1.0691474772234503e-05
7.855280158950589e-07   -5.331891195622853e-07   -1.0691474772234503e-05
2.0101408383023053e-05   -3.69048596894064e-06   -4.099023060782095e-05
2.0101408383023053e-05   -3.69048596894064e-06   -4.099023060782095e-05
2.0101408383023053e-05   -3.69048596894064e-06   -4.099023060782095e-05
2.0101408383023053e-05   -3.69048596894064e-06   -4.099023060782095e-05
1.0040814203769576e-05   -2.345802601126136e-06   -2.5029383663087716e-05
1.0040814203769576e-05   -2.345802601126136e-06   -2.5029383663087716e-05
1.0040814203769576e-05   -2.345802601126136e-06   -2.5029383663087716e-05
1.0040814203769576e-05   -2.345802601126136e-06   -2.5029383663087716e-05
-1.1139770755455407e-06   4.547736871928637e-07   -1.3886768906499732e-05
-1.1139770755455407e-06   4.547736871928637e-07   -1.3886768906499732e-05
-1.1139770755455407e-06   4.547736871928637e-07   -1.3886768906499732e-05
-1.1139770755455407e-06   4.547736871928637e-07   -1.3886768906499732e-05
-2.0074140151715738e-05   -2.6207710012789327e-06   -4.733236751319986e-05
-2.0074140151715738e-05   -2.6207710012789327e-06   -4.733236751319986e-05
-2.0074140151715738e-05   -2.6207710012789327e-06   -4.733236751319986e-05
-2.0074140151715738e-05   -2.6207710012789327e-06   -4.733236751319986e-05
-1.9165211709149903e-05   1.0284076324711035e-06   -1.5098146060083363e-05
-1.9165211709149903e-05   1.0284076324711035e-06   -1.5098146060083363e-05
-1.9165211709149903e-05   1.0284076324711035e-06   -1.5098146060083363e-05
-1.9165211709149903e-05   1.0284076324711035e-06   -1.5098146060083363e-05
-3.56529895884219e-07   -2.3355485331850306e-06   -4.4427575382798956e-05
-3.56529895884219e-07   -2.3355485331850306e-06   -4.4427575382798956e-05
-3.56529895884219e-07   -2.3355485331850306e-06   -4.4427575382798956e-05
-3.56529895884219e-07   -2.3355485331850306e-06   -4.4427575382798956e-05
-1.005717721538389e-05   -4.968269041649362e-07   -2.936306282771159e-05
-1.005717721538389e-05   -4.968269041649362e-07   -2.936306282771159e-05
-1.005717721538389e-05   -4.968269041649362e-07   -2.936306282771159e-05
-1.005717721538389e-05   -4.968269041649362e-07   -2.936306282771159e-05
-3.56529895884219e-07   1.0284076324711035e-06   -1.3079772360689336e-05
-3.56529895884219e-07   1.0284076324711035e-06   -1.3079772360689336e-05
-3.56529895884219e-07   1.0284076324711035e-06   -1.3079772360689336e-05
-3.56529895884219e-07   1.0284076324711035e-06   -1.3079772360689336e-05
-1.9165211709149903e-05   -2.3355485331850306e-06   -4.644594908219271e-05
-1.9165211709149903e-05   -2.3355485331850306e-06   -4.644594908219271e-05
-1.9165211709149903e-05   -2.3355485331850306e-06   -4.644594908219271e-05
-1.9165211709149903e-05   -2.3355485331850306e-06   -4.644594908219271e-05
-1.8331332554917317e-05   1.6922042360583735e-06   -1.48278931313675e-05
-1.8331332554917317e-05   1.6922042360583735e-06   -1.48278931313675e-05
-1.8331332554917317e-05   1.6922042360583735e-06   -1.48278931313675e-05
-1.8331332554917317e-05   1.6922042360583735e-06   -1.48278931313675e-05
3.107437735516206e-07   -1.8929774959783405e-06   -4.374691130626035e-05
3.107437735516206e-07   -1.8929774959783405e-06   -4.374691130626035e-05
3.107437735516206e-07   -1.8929774959783405e-06   -4.374691130626035e-05
3.107437735516206e-07   -1.8929774959783405e-06   -4.374691130626035e-05
-9.31716624461416e-06   -1.708085434850605e-07   -2.8733695980813126e-05
-9.31716624461416e-06   -1.708085434850605e-07   -2.8733695980813126e-05
-9.31716624461416e-06   -1.708085434850605e-07   -2.8733695980813126e-05
-9.31716624461416e-06   -1.708085434850605e-07   -2.8733695980813126e-05
3.107437735516206e-07   1.6922042360583735e-06   -1.2676784092145472e-05
3.107437735516206e-07   1.6922042360583735e-06   -1.2676784092145472e-05
3.107437735516206e-07   1.6922042360583735e-06   -1.2676784092145472e-05
3.107437735516206e-07   1.6922042360583735e-06   -1.2676784092145472e-05
-1.8331332554917317e-05   -1.8929774959781237e-06   -4.5898020345482406e-05
-1.8331332554917317e-05   -1.8929774959781237e-06   -4.5898020345482406e-05
-1.8331332554917317e-05   -1.8929774959781237e-06   -4.5898020345482406e-05
-1.8331332554917317e-05   -1.8929774959781237e-06   -4.5898020345482406e-05
-1.7769208468908503e-05   2.378124566029729e-06   -1.5086379407301675e-05
-1.7769208468908503e-05   2.378124566029729e-06   -1.5086379407301675e-05
-1.7769208468908503e-05   2.378124566029729e-06   -1.5086379407301675e-05
-1.7769208468908503e-05   2.378124566029729e-06   -1.5086379407301675e-05
7.855280158950589e-07   -1.4730863256912693e-06   -4.370021368027525e-05
7.855280158950589e-07   -1.4730863256912693e-06   -4.370021368027525e-05
7.855280158950589e-07   -1.4730863256912693e-06   -4.370021368027525e-05
7.855280158950589e-07   -1.4730863256912693e-06   -4.370021368027525e-05
-8.789667648813297e-06   1.9504414156532902e-07   -2.8742432519449106e-05
-8.789667648813297e-06   1.9504414156532902e-07   -2.8742432519449106e-05
-8.789667648813297e-06   1.9504414156532902e-07   -2.8742432519449106e-05
-8.789667648813297e-06   1.9504414156532902e-07   -2.8742432519449106e-05
-2.0074140151715738e-05   3.4663956974762336e-06   -1.1327205188343742e-05
-2.0074140151715738e-05   3.4663956974762336e-06   -1.1327205188343742e-05
-2.0074140151715738e-05   3.4663956974762336e-06   -1.1327205188343742e-05
-2.0074140151715738e-05   3.4663956974762336e-06   -1.1327205188343742e-05
-3.930068546358446e-05   6.979402256267631e-07   -4.503252065790099e-05
-3.930068546358446e-05   6.979402256267631e-07   -4.503252065790099e-05
-3.930068546358446e-05   6.979402256267631e-07   -4.503252065790099e-05
-3.930068546358446e-05   6.979402256267631e-07   -4.503252065790099e-05
-3.800656119817756e-05   4.194241838578359e-06   -1.206604389187389e-05
-3.800656119817756e-05   4.194241838578359e-06   -1.206604389187389e-05
-3.800656119817756e-05   4.194241838578359e-06   -1.206604389187389e-05
-3.800656119817756e-05   4.194241838578359e-06   -1.206604389187389e-05
-1.9165211709149903e-05   1.2233260922541768e-06   -4.168574359245908e-05
-1.9165211709149903e-05   1.2233260922541768e-06   -4.168574359245908e-05
-1.9165211709149903e-05   1.2233260922541768e-06   -4.168574359245908e-05
-1.9165211709149903e-05   1.2233260922541768e-06   -4.168574359245908e-05
-2.8835005172553454e-05   2.644215675104075e-06   -2.6421954903163008e-05
-2.8835005172553454e-05   2.644215675104075e-06   -2.6421954903163008e-05
-2.8835005172553454e-05   2.644215675104075e-06   -2.6421954903163008e-05
-2.8835005172553454e-05   2.644215675104075e-06   -2.6421954903163008e-05
-1.9165211709149903e-05   4.194241838578359e-06   -1.0283494444079683e-05
-1.9165211709149903e-05   4.194241838578359e-06   -1.0283494444079683e-05
-1.9165211709149903e-05   4.194241838578359e-06   -1.0283494444079683e-05
-1.9165211709149903e-05   4.194241838578359e-06   -1.0283494444079683e-05
-3.8006561198177625e-05   1.2233260922543936e-06   -4.346829304025348e-05
-3.8006561198177625e-05   1.2233260922543936e-06   -4.346829304025348e-05
-3.8006561198177625e-05   1.2233260922543936e-06   -4.346829304025348e-05
-3.8006561198177625e-05   1.2233260922543936e-06   -4.346829304025348e-05
-3.675485516104457e-05   4.820970286835251e-06   -1.0985454029975106e-05
-3.675485516104457e-05   4.820970286835251e-06   -1.0985454029975106e-05
-3.675485516104457e-05   4.820970286835251e-06   -1.0985454029975106e-05
-3.675485516104457e-05   4.820970286835251e-06   -1.0985454029975106e-05
-1.8331332554917345e-05   1.706766848369283e-06   -3.9822802977107616e-05
-1.8331332554917345e-05   1.706766848369283e-06   -3.9822802977107616e-05
-1.8331332554917345e-05   1.706766848369283e-06   -3.9822802977107616e-05
-1.8331332554917345e-05   1.706766848369283e-06   -3.9822802977107616e-05
-2.766437558977015e-05   3.101367948551764e-06   -2.5104491912462473e-05
-2.766437558977015e-05   3.101367948551764e-06   -2.5104491912462473e-05
-2.766437558977015e-05   3.101367948551764e-06   -2.5104491912462473e-05
-2.766437558977015e-05   3.101367948551764e-06   -2.5104491912462473e-05
-1.8331332554917304e-05   4.820970286835251e-06   -9.116931966895569e-06
-1.8331332554917304e-05   4.820970286835251e-06   -9.116931966895569e-06
-1.8331332554917304e-05   4.820970286835251e-06   -9.116931966895569e-06
-1.8331332554917304e-05   4.820970286835251e-06   -9.116931966895569e-06
-3.675485516104463e-05   1.706766848369283e-06   -4.1691325040187424e-05
-3.675485516104463e-05   1.706766848369283e-06   -4.1691325040187424e-05
-3.675485516104463e-05   1.706766848369283e-06   -4.1691325040187424e-05
-3.675485516104463e-05   1.706766848369283e-06   -4.1691325040187424e-05
-3.580634237885575e-05   5.513829560656021e-06   -1.102022785960167e-05
-3.580634237885575e-05   5.513829560656021e-06   -1.102022785960167e-05
-3.580634237885575e-05   5.513829560656021e-06   -1.102022785960167e-05
-3.580634237885575e-05   5.513829560656021e-06   -1.102022785960167e-05
-1.7769208468908537e-05   2.1152566290589484e-06   -3.904297395055559e-05
-1.7769208468908537e-05   2.1152566290589484e-06   -3.904297395055559e-05
-1.7769208468908537e-05   2.1152566290589484e-06   -3.904297395055559e-05
-1.7769208468908537e-05   2.1152566290589484e-06   -3.904297395055559e-05
-2.7010972525365412e-05   3.4205840644869513e-06   -2.4423230317717297e-05
-2.7010972525365412e-05   3.4205840644869513e-06   -2.4423230317717297e-05
-2.7010972525365412e-05   3.4205840644869513e-06   -2.4423230317717297e-05
-2.7010972525365412e-05   3.4205840644869513e-06   -2.4423230317717297e-05
-3.930068546358446e-05   6.80600819912263e-06   -6.49334640127246e-06
-3.930068546358446e-05   6.80600819912263e-06   -6.49334640127246e-06
-3.930068546358446e-05   6.80600819912263e-06   -6.49334640127246e-06
-3.930068546358446e-05   6.80600819912263e-06   -6.49334640127246e-06
-5.939423806385184e-05   6.4317668541896255e-06   -4.020714554201139e-05
-5.939423806385184e-05   6.4317668541896255e-06   -4.020714554201139e-05
-5.939423806385184e-05   6.4317668541896255e-06   -4.020714554201139e-05
-5.939423806385184e-05   6.4317668541896255e-06   -4.020714554201139e-05
-5.683577845513288e-05   7.773171756261538e-06   -1.3877976276369455e-07
-5.683577845513288e-05   7.773171756261538e-06   -1.3877976276369455e-07
-5.683577845513288e-05   7.773171756261538e-06   -1.3877976276369455e-07
-5.683577845513288e-05   7.773171756261538e-06   -1.3877976276369455e-07
-3.800656119817749e-05   8.133391533690247e-06   -3.173694039081331e-05
-3.800656119817749e-05   8.133391533690247e-06   -3.173694039081331e-05
-3.800656119817749e-05   8.133391533690247e-06   -3.173694039081331e-05
-3.800656119817749e-05   8.133391533690247e-06   -3.173694039081331e-05
-4.6298026399223766e-05   7.667824509408061e-06   -1.763849150783359e-05
-4.6298026399223766e-05   7.667824509408061e-06   -1.763849150783359e-05
-4.6298026399223766e-05   7.667824509408061e-06   -1.763849150783359e-05
-4.6298026399223766e-05   7.667824509408061e-06   -1.763849150783359e-05
-3.800656119817759e-05   7.773171756261538e-06   -3.54911629220616e-07
-3.800656119817759e-05   7.773171756261538e-06   -3.54911629220616e-07
-3.800656119817759e-05   7.773171756261538e-06   -3.54911629220616e-07
-3.800656119817759e-05   7.773171756261538e-06   -3.54911629220616e-07
-5.683577845513279e-05   8.133391533690247e-06   -3.1520808524355915e-05
-5.683577845513279e-05   8.133391533690247e-06   -3.1520808524355915e-05
-5.683577845513279e-05   8.133391533690247e-06   -3.1520808524355915e-05
-5.683577845513279e-05   8.133391533690247e-06   -3.1520808524355915e-05
-5.471463691261621e-05   8.027842405978385e-06   3.4536957023850734e-06
-5.471463691261621e-05   8.027842405978385e-06   3.4536957023850734e-06
-5.471463691261621e-05   8.027842405978385e-06   3.4536957023850734e-06
-5.471463691261621e-05   8.027842405978385e-06   3.4536957023850734e-06
-3.675485516104457e-05   8.51621161814713e-06   -2.677229541086897e-05
-3.675485516104457e-05   8.51621161814713e-06   -2.677229541086897e-05
-3.675485516104457e-05   8.51621161814713e-06   -2.677229541086897e-05
-3.675485516104457e-05   8.51621161814713e-06   -2.677229541086897e-05
-4.5334442427348036e-05   8.223911446211601e-06   -1.2297603197201383e-05
-4.5334442427348036e-05   8.223911446211601e-06   -1.2297603197201383e-05
-4.5334442427348036e-05   8.223911446211601e-06   -1.2297603197201383e-05
-4.5334442427348036e-05   8.223911446211601e-06   -1.2297603197201383e-05
-3.675485516104463e-05   8.027842405978385e-06   3.1606741750836963e-06
-3.675485516104463e-05   8.027842405978385e-06   3.1606741750836963e-06
-3.675485516104463e-05   8.027842405978385e-06   3.1606741750836963e-06
-3.675485516104463e-05   8.027842405978385e-06   3.1606741750836963e-06
-5.471463691261631e-05   8.51621161814713e-06   -2.6479273883567777e-05
-5.471463691261631e-05   8.51621161814713e-06   -2.6479273883567777e-05
-5.471463691261631e-05   8.51621161814713e-06   -2.6479273883567777e-05
-5.471463691261631e-05   8.51621161814713e-06   -2.6479273883567777e-05
-5.2495347854832e-05   8.24573741510493e-06   8.271289897307998e-06
-5.2495347854832e-05   8.24573741510493e-06   8.271289897307998e-06
-5.2495347854832e-05   8.24573741510493e-06   8.271289897307998e-06
-5.2495347854832e-05   8.24573741510493e-06   8.271289897307998e-06
-3.580634237885581e-05   9.171053079632795e-06   -2.0098908628035994e-05
-3.580634237885581e-05   9.171053079632795e-06   -2.0098908628035994e-05
-3.580634237885581e-05   9.171053079632795e-06   -2.0098908628035994e-05
-3.580634237885581e-05   9.171053079632795e-06   -2.0098908628035994e-05
-4.3190176520477026e-05   8.40973360277989e-06   -7.3357267058890785e-06
-4.3190176520477026e-05   8.40973360277989e-06   -7.3357267058890785e-06
-4.3190176520477026e-05   8.40973360277989e-06   -7.3357267058890785e-06
-4.3190176520477026e-05   8.40973360277989e-06   -7.3357267058890785e-06
5.1708644299300815e-05   -7.761813294624581e-06   1.7673854284181324e-05
5.1708644299300815e-05   -7.761813294624581e-06   1.7673854284181324e-05
5.1708644299300815e-05   -7.761813294624581e-06   1.7673854284181324e-05
5.1708644299300815e-05   -7.761813294624581e-06   1.7673854284181324e-05
2.5981781169873153e-05   -9.811066535091e-06   -2.643380287581105e-05
2.5981781169873153e-05   -9.811066535091e-06   -2.643380287581105e-05
2.5981781169873153e-05   -9.811066535091e-06   -2.643380287581105e-05
2.5981781169873153e-05   -9.811066535091e-06   -2.643380287581105e-05
2.6613244612001387e-05   -7.581302641801154e-06   1.2685722454782757e-05
2.6613244612001387e-05   -7.581302641801154e-06   1.2685722454782757e-05
2.6613244612001387e-05   -7.581302641801154e-06   1.2685722454782757e-05
2.6613244612001387e-05   -7.581302641801154e-06   1.2685722454782757e-05
5.29928210501766e-05   -1.0056535139075671e-05   -2.9795098777144255e-05
5.29928210501766e-05   -1.0056535139075671e-05   -2.9795098777144255e-05
5.29928210501766e-05   -1.0056535139075671e-05   -2.9795098777144255e-05
5.29928210501766e-05   -1.0056535139075671e-05   -2.9795098777144255e-05
3.7756941827892655e-05   -7.928327193382559e-06   -5.678891507420413e-06
3.7756941827892655e-05   -7.928327193382559e-06   -5.678891507420413e-06
3.7756941827892655e-05   -7.928327193382559e-06   -5.678891507420413e-06
3.7756941827892655e-05   -7.928327193382559e-06   -5.678891507420413e-06
5.29928210501766e-05   -7.581302641801154e-06   1.4170861953147727e-05
5.29928210501766e-05   -7.581302641801154e-06   1.4170861953147727e-05
5.29928210501766e-05   -7.581302641801154e-06   1.4170861953147727e-05
5.29928210501766e-05   -7.581302641801154e-06   1.4170861953147727e-05
2.6613244612001387e-05   -1.0056535139075671e-05   -3.12802382755092e-05
2.6613244612001387e-05   -1.0056535139075671e-05   -3.12802382755092e-05
2.6613244612001387e-05   -1.0056535139075671e-05   -3.12802382755092e-05
2.6613244612001387e-05   -1.0056535139075671e-05   -3.12802382755092e-05
2.7146908352658377e-05   -7.317847076652485e-06   1.0013964234648846e-05
2.7146908352658377e-05   -7.317847076652485e-06   1.0013964234648846e-05
2.7146908352658377e-05   -7.317847076652485e-06   1.0013964234648846e-05
2.7146908352658377e-05   -7.317847076652485e-06   1.0013964234648846e-05
5.3792792141248743e-05   -9.96477544052592e-06   -3.280768506134455e-05
5.3792792141248743e-05   -9.96477544052592e-06   -3.280768506134455e-05
5.3792792141248743e-05   -9.96477544052592e-06   -3.280768506134455e-05
5.3792792141248743e-05   -9.96477544052592e-06   -3.280768506134455e-05
3.9085009105824983e-05   -8.1779463035525e-06   -9.366810817822407e-06
3.9085009105824983e-05   -8.1779463035525e-06   -9.366810817822407e-06
3.9085009105824983e-05   -8.1779463035525e-06   -9.366810817822407e-06
3.9085009105824983e-05   -8.1779463035525e-06   -9.366810817822407e-06
5.3792792141248743e-05   -7.317847076652485e-06   1.160212125297282e-05
5.3792792141248743e-05   -7.317847076652485e-06   1.160212125297282e-05
5.3792792141248743e-05   -7.317847076652485e-06   1.160212125297282e-05
5.3792792141248743e-05   -7.317847076652485e-06   1.160212125297282e-05
2.7146908352658377e-05   -9.96477544052592e-06   -3.439584207966858e-05
2.7146908352658377e-05   -9.96477544052592e-06   -3.439584207966858e-05
2.7146908352658377e-05   -9.96477544052592e-06   -3.439584207966858e-05
2.7146908352658377e-05   -9.96477544052592e-06   -3.439584207966858e-05
2.770397204280557e-05   -6.291168725714022e-06   4.833641888779853e-06
2.770397204280557e-05   -6.291168725714022e-06   4.833641888779853e-06
2.770397204280557e-05   -6.291168725714022e-06   4.833641888779853e-06
2.770397204280557e-05   -6.291168725714022e-06   4.833641888779853e-06
5.458052847919187e-05   -9.408527396761925e-06   -3.8090203635901825e-05
5.458052847919187e-05   -9.408527396761925e-06   -3.8090203635901825e-05
5.458052847919187e-05   -9.408527396761925e-06   -3.8090203635901825e-05
5.458052847919187e-05   -9.408527396761925e-06   -3.8090203635901825e-05
3.910117737921429e-05   -7.86933872464141e-06   -1.321479833921147e-05
3.910117737921429e-05   -7.86933872464141e-06   -1.321479833921147e-05
3.910117737921429e-05   -7.86933872464141e-06   -1.321479833921147e-05
3.910117737921429e-05   -7.86933872464141e-06   -1.321479833921147e-05
2.5981781169873153e-05   -5.0200918815638835e-06   1.7873453719474599e-06
2.5981781169873153e-05   -5.0200918815638835e-06   1.7873453719474599e-06
2.5981781169873153e-05   -5.0200918815638835e-06   1.7873453719474599e-06
2.5981781169873153e-05   -5.0200918815638835e-06   1.7873453719474599e-06
3.0559401640466887e-06   -9.819472605962932e-06   -3.9302018072402906e-05
3.0559401640466887e-06   -9.819472605962932e-06   -3.9302018072402906e-05
3.0559401640466887e-06   -9.819472605962932e-06   -3.9302018072402906e-05
3.0559401640466887e-06   -9.819472605962932e-06   -3.9302018072402906e-05
3.791590101759806e-06   -4.7783841235456755e-06   -1.8070517041534825e-07
3.791590101759806e-06   -4.7783841235456755e-06   -1.8070517041534825e-07
3.791590101759806e-06   -4.7783841235456755e-06   -1.8070517041534825e-07
3.791590101759806e-06   -4.7783841235456755e-06   -1.8070517041534825e-07
2.6613244612001428e-05   -9.767708361852184e-06   -3.5223201477833845e-05
2.6613244612001428e-05   -9.767708361852184e-06   -3.5223201477833845e-05
2.6613244612001428e-05   -9.767708361852184e-06   -3.5223201477833845e-05
2.6613244612001428e-05   -9.767708361852184e-06   -3.5223201477833845e-05
1.4917920173780095e-05   -6.626042726644733e-06   -1.7615993461922983e-05
1.4917920173780095e-05   -6.626042726644733e-06   -1.7615993461922983e-05
1.4917920173780095e-05   -6.626042726644733e-06   -1.7615993461922983e-05
1.4917920173780095e-05   -6.626042726644733e-06   -1.7615993461922983e-05
2.6613244612001347e-05   -4.7783841235456755e-06   2.8128893725689035e-06
2.6613244612001347e-05   -4.7783841235456755e-06   2.8128893725689035e-06
2.6613244612001347e-05   -4.7783841235456755e-06   2.8128893725689035e-06
2.6613244612001347e-05   -4.7783841235456755e-06   2.8128893725689035e-06
3.791590101759806e-06   -9.767708361852617e-06   -3.821679602081804e-05
3.791590101759806e-06   -9.767708361852617e-06   -3.821679602081804e-05
3.791590101759806e-06   -9.767708361852617e-06   -3.821679602081804e-05
3.791590101759806e-06   -9.767708361852617e-06   -3.821679602081804e-05
4.455595437284057e-06   -4.329386455453757e-06   -4.258755989471584e-07
4.455595437284057e-06   -4.329386455453757e-06   -4.258755989471584e-07
4.455595437284057e-06   -4.329386455453757e-06   -4.258755989471584e-07
4.455595437284057e-06   -4.329386455453757e-06   -4.258755989471584e-07
2.7146908352658377e-05   -9.634722329953348e-06   -3.506152893320444e-05
2.7146908352658377e-05   -9.634722329953348e-06   -3.506152893320444e-05
2.7146908352658377e-05   -9.634722329953348e-06   -3.506152893320444e-05
2.7146908352658377e-05   -9.634722329953348e-06   -3.506152893320444e-05
1.5334422861045678e-05   -6.697308422437716e-06   -1.7136501458358893e-05
1.5334422861045678e-05   -6.697308422437716e-06   -1.7136501458358893e-05
1.5334422861045678e-05   -6.697308422437716e-06   -1.7136501458358893e-05
1.5334422861045678e-05   -6.697308422437716e-06   -1.7136501458358893e-05
2.7146908352658377e-05   -4.329386455453974e-06   2.7573259257526826e-06
2.7146908352658377e-05   -4.329386455453974e-06   2.7573259257526826e-06
2.7146908352658377e-05   -4.329386455453974e-06   2.7573259257526826e-06
2.7146908352658377e-05   -4.329386455453974e-06   2.7573259257526826e-06
4.455595437284057e-06   -9.634722329953348e-06   -3.824473045790423e-05
4.455595437284057e-06   -9.634722329953348e-06   -3.824473045790423e-05
4.455595437284057e-06   -9.634722329953348e-06   -3.824473045790423e-05
4.455595437284057e-06   -9.634722329953348e-06   -3.824473045790423e-05
5.446875419389799e-06   -3.69048596894064e-06   -8.910460835675604e-07
5.446875419389799e-06   -3.69048596894064e-06   -8.910460835675604e-07
5.446875419389799e-06   -3.69048596894064e-06   -8.910460835675604e-07
5.446875419389799e-06   -3.69048596894064e-06   -8.910460835675604e-07
2.7703972042805557e-05   -9.370251176332202e-06   -3.457834799815894e-05
2.7703972042805557e-05   -9.370251176332202e-06   -3.457834799815894e-05
2.7703972042805557e-05   -9.370251176332202e-06   -3.457834799815894e-05
2.7703972042805557e-05   -9.370251176332202e-06   -3.457834799815894e-05
1.6131630011506314e-05   -6.591185457414635e-06   -1.6958550710677333e-05
1.6131630011506314e-05   -6.591185457414635e-06   -1.6958550710677333e-05
1.6131630011506314e-05   -6.591185457414635e-06   -1.6958550710677333e-05
1.6131630011506314e-05   -6.591185457414635e-06   -1.6958550710677333e-05
3.0559401640466887e-06   -2.6207710012789327e-06   -3.859503533686255e-06
3.0559401640466887e-06   -2.6207710012789327e-06   -3.859503533686255e-06
3.0559401640466887e-06   -2.6207710012789327e-06   -3.859503533686255e-06
3.0559401640466887e-06   -2.6207710012789327e-06   -3.859503533686255e-06
-1.9631732817705568e-05   -1.1821193220544566e-05   -4.719254516816619e-05
-1.9631732817705568e-05   -1.1821193220544566e-05   -4.719254516816619e-05
-1.9631732817705568e-05   -1.1821193220544566e-05   -4.719254516816619e-05
-1.9631732817705568e-05   -1.1821193220544566e-05   -4.719254516816619e-05
-1.8485524820323834e-05   -2.3355485331850306e-06   -8.371847109813358e-06
-1.8485524820323834e-05   -2.3355485331850306e-06   -8.371847109813358e-06
-1.8485524820323834e-05   -2.3355485331850306e-06   -8.371847109813358e-06
-1.8485524820323834e-05   -2.3355485331850306e-06   -8.371847109813358e-06
3.791590101759806e-06   -1.208054692748272e-05   -3.965337294337411e-05
3.791590101759806e-06   -1.208054692748272e-05   -3.965337294337411e-05
3.791590101759806e-06   -1.208054692748272e-05   -3.965337294337411e-05
3.791590101759806e-06   -1.208054692748272e-05   -3.965337294337411e-05
-7.556634519722484e-06   -6.677773326271581e-06   -2.3981329401630443e-05
-7.556634519722484e-06   -6.677773326271581e-06   -2.3981329401630443e-05
-7.556634519722484e-06   -6.677773326271581e-06   -2.3981329401630443e-05
-7.556634519722484e-06   -6.677773326271581e-06   -2.3981329401630443e-05
3.791590101759806e-06   -2.3355485331850306e-06   -2.5248480732347443e-06
3.791590101759806e-06   -2.3355485331850306e-06   -2.5248480732347443e-06
3.791590101759806e-06   -2.3355485331850306e-06   -2.5248480732347443e-06
3.791590101759806e-06   -2.3355485331850306e-06   -2.5248480732347443e-06
-1.848552482032386e-05   -1.2080546927483154e-05   -4.550037197995267e-05
-1.848552482032386e-05   -1.2080546927483154e-05   -4.550037197995267e-05
-1.848552482032386e-05   -1.2080546927483154e-05   -4.550037197995267e-05
-1.848552482032386e-05   -1.2080546927483154e-05   -4.550037197995267e-05
-1.74974762143366e-05   -1.8929774959781237e-06   -7.813599130957697e-06
-1.74974762143366e-05   -1.8929774959781237e-06   -7.813599130957697e-06
-1.74974762143366e-05   -1.8929774959781237e-06   -7.813599130957697e-06
-1.74974762143366e-05   -1.8929774959781237e-06   -7.813599130957697e-06
4.455595437284057e-06   -1.2021527915641837e-05   -3.8324921631860626e-05
4.455595437284057e-06   -1.2021527915641837e-05   -3.8324921631860626e-05
4.455595437284057e-06   -1.2021527915641837e-05   -3.8324921631860626e-05
4.455595437284057e-06   -1.2021527915641837e-05   -3.8324921631860626e-05
-6.742875333103429e-06   -6.827299238197854e-06   -2.2777340887681014e-05
-6.742875333103429e-06   -6.827299238197854e-06   -2.2777340887681014e-05
-6.742875333103429e-06   -6.827299238197854e-06   -2.2777340887681014e-05
-6.742875333103429e-06   -6.827299238197854e-06   -2.2777340887681014e-05
4.455595437284057e-06   -1.8929774959781237e-06   -1.7364688791594689e-06
4.455595437284057e-06   -1.8929774959781237e-06   -1.7364688791594689e-06
4.455595437284057e-06   -1.8929774959781237e-06   -1.7364688791594689e-06
4.455595437284057e-06   -1.8929774959781237e-06   -1.7364688791594689e-06
-1.7497476214336653e-05   -1.2021527915641404e-05   -4.4402051883658854e-05
-1.7497476214336653e-05   -1.2021527915641404e-05   -4.4402051883658854e-05
-1.7497476214336653e-05   -1.2021527915641404e-05   -4.4402051883658854e-05
-1.7497476214336653e-05   -1.2021527915641404e-05   -4.4402051883658854e-05
-1.5792519696170593e-05   -1.4730863256912693e-06   -7.781033203669088e-06
-1.5792519696170593e-05   -1.4730863256912693e-06   -7.781033203669088e-06
-1.5792519696170593e-05   -1.4730863256912693e-06   -7.781033203669088e-06
-1.5792519696170593e-05   -1.4730863256912693e-06   -7.781033203669088e-06
5.446875419389799e-06   -1.1597056587815506e-05   -3.710564290566195e-05
5.446875419389799e-06   -1.1597056587815506e-05   -3.710564290566195e-05
5.446875419389799e-06   -1.1597056587815506e-05   -3.710564290566195e-05
5.446875419389799e-06   -1.1597056587815506e-05   -3.710564290566195e-05
-5.685227508745435e-06   -6.673598349864239e-06   -2.150621296820711e-05
-5.685227508745435e-06   -6.673598349864239e-06   -2.150621296820711e-05
-5.685227508745435e-06   -6.673598349864239e-06   -2.150621296820711e-05
-5.685227508745435e-06   -6.673598349864239e-06   -2.150621296820711e-05
-1.9631732817705527e-05   6.9794022562698e-07   -5.418836726837645e-06
-1.9631732817705527e-05   6.9794022562698e-07   -5.418836726837645e-06
-1.9631732817705527e-05   6.9794022562698e-07   -5.418836726837645e-06
-1.9631732817705527e-05   6.9794022562698e-07   -5.418836726837645e-06
-4.49339314209487e-05   -1.4715286426205017e-05   -5.6837103723341885e-05
-4.49339314209487e-05   -1.4715286426205017e-05   -5.6837103723341885e-05
-4.49339314209487e-05   -1.4715286426205017e-05   -5.6837103723341885e-05
-4.49339314209487e-05   -1.4715286426205017e-05   -5.6837103723341885e-05
-4.356316675823529e-05   1.2233260922543936e-06   -1.4210159786360536e-05
-4.356316675823529e-05   1.2233260922543936e-06   -1.4210159786360536e-05
-4.356316675823529e-05   1.2233260922543936e-06   -1.4210159786360536e-05
-4.356316675823529e-05   1.2233260922543936e-06   -1.4210159786360536e-05
-1.8485524820323834e-05   -1.6440870851547502e-05   -4.540771151659878e-05
-1.8485524820323834e-05   -1.6440870851547502e-05   -4.540771151659878e-05
-1.8485524820323834e-05   -1.6440870851547502e-05   -4.540771151659878e-05
-1.8485524820323834e-05   -1.6440870851547502e-05   -4.540771151659878e-05
-3.1199506374156714e-05   -7.47086776236661e-06   -2.9599744113718938e-05
-3.1199506374156714e-05   -7.47086776236661e-06   -2.9599744113718938e-05
-3.1199506374156714e-05   -7.47086776236661e-06   -2.9599744113718938e-05
-3.1199506374156714e-05   -7.47086776236661e-06   -2.9599744113718938e-05
-1.8485524820323834e-05   1.2233260922543936e-06   -3.6116416200797016e-06
-1.8485524820323834e-05   1.2233260922543936e-06   -3.6116416200797016e-06
-1.8485524820323834e-05   1.2233260922543936e-06   -3.6116416200797016e-06
-1.8485524820323834e-05   1.2233260922543936e-06   -3.6116416200797016e-06
-4.356316675823537e-05   -1.644087085154707e-05   -5.600622968287986e-05
-4.356316675823537e-05   -1.644087085154707e-05   -5.600622968287986e-05
-4.356316675823537e-05   -1.644087085154707e-05   -5.600622968287986e-05
-4.356316675823537e-05   -1.644087085154707e-05   -5.600622968287986e-05
-4.2249375806789356e-05   1.7067668483690662e-06   -1.2680483459748303e-05
-4.2249375806789356e-05   1.7067668483690662e-06   -1.2680483459748303e-05
-4.2249375806789356e-05   1.7067668483690662e-06   -1.2680483459748303e-05
-4.2249375806789356e-05   1.7067668483690662e-06   -1.2680483459748303e-05
-1.7497476214336626e-05   -1.6530069313572954e-05   -4.2991547750004e-05
-1.7497476214336626e-05   -1.6530069313572954e-05   -4.2991547750004e-05
-1.7497476214336626e-05   -1.6530069313572954e-05   -4.2991547750004e-05
-1.7497476214336626e-05   -1.6530069313572954e-05   -4.2991547750004e-05
-2.9862879026779303e-05   -7.4939086371268206e-06   -2.7804239468467388e-05
-2.9862879026779303e-05   -7.4939086371268206e-06   -2.7804239468467388e-05
-2.9862879026779303e-05   -7.4939086371268206e-06   -2.7804239468467388e-05
-2.9862879026779303e-05   -7.4939086371268206e-06   -2.7804239468467388e-05
-1.7497476214336613e-05   1.7067668483690662e-06   -1.738381762582961e-06
-1.7497476214336613e-05   1.7067668483690662e-06   -1.738381762582961e-06
-1.7497476214336613e-05   1.7067668483690662e-06   -1.738381762582961e-06
-1.7497476214336613e-05   1.7067668483690662e-06   -1.738381762582961e-06
-4.224937580678942e-05   -1.6530069313572954e-05   -5.3933649447169586e-05
-4.224937580678942e-05   -1.6530069313572954e-05   -5.3933649447169586e-05
-4.224937580678942e-05   -1.6530069313572954e-05   -5.3933649447169586e-05
-4.224937580678942e-05   -1.6530069313572954e-05   -5.3933649447169586e-05
-4.0094469531306657e-05   2.1152566290589484e-06   -1.1124478397582776e-05
-4.0094469531306657e-05   2.1152566290589484e-06   -1.1124478397582776e-05
-4.0094469531306657e-05   2.1152566290589484e-06   -1.1124478397582776e-05
-4.0094469531306657e-05   2.1152566290589484e-06   -1.1124478397582776e-05
-1.579251969617062e-05   -1.507042913538462e-05   -4.131631666414359e-05
-1.579251969617062e-05   -1.507042913538462e-05   -4.131631666414359e-05
-1.579251969617062e-05   -1.507042913538462e-05   -4.131631666414359e-05
-1.579251969617062e-05   -1.507042913538462e-05   -4.131631666414359e-05
-2.8544913583210496e-05   -6.608122372705897e-06   -2.513971091001722e-05
-2.8544913583210496e-05   -6.608122372705897e-06   -2.513971091001722e-05
-2.8544913583210496e-05   -6.608122372705897e-06   -2.513971091001722e-05
-2.8544913583210496e-05   -6.608122372705897e-06   -2.513971091001722e-05
-4.49339314209487e-05   6.4317668541896255e-06   -9.616852795087637e-06
-4.49339314209487e-05   6.4317668541896255e-06   -9.616852795087637e-06
-4.49339314209487e-05   6.4317668541896255e-06   -9.616852795087637e-06
-4.49339314209487e-05   6.4317668541896255e-06   -9.616852795087637e-06
-7.730869073421818e-05   0.0   -6.743384509638435e-05
-7.730869073421818e-05   0.0   -6.743384509638435e-05
-7.730869073421818e-05   0.0   -6.743384509638435e-05
-7.730869073421818e-05   0.0   -6.743384509638435e-05
-7.530481074161807e-05   8.133391533690247e-06   -7.358842057134584e-06
-7.530481074161807e-05   8.133391533690247e-06   -7.358842057134584e-06
-7.530481074161807e-05   8.133391533690247e-06   -7.358842057134584e-06
-7.530481074161807e-05   8.133391533690247e-06   -7.358842057134584e-06
-4.356316675823529e-05   0.0   -5.538154710922506e-05
-4.356316675823529e-05   0.0   -5.538154710922506e-05
-4.356316675823529e-05   0.0   -5.538154710922506e-05
-4.356316675823529e-05   0.0   -5.538154710922506e-05
-5.7716997849492346e-05   2.4909958317035144e-06   -3.32864261228188e-05
-5.7716997849492346e-05   2.4909958317035144e-06   -3.32864261228188e-05
-5.7716997849492346e-05   2.4909958317035144e-06   -3.32864261228188e-05
-5.7716997849492346e-05   2.4909958317035144e-06   -3.32864261228188e-05
-4.356316675823532e-05   8.133391533690464e-06   -2.4788071369204363e-06
-4.356316675823532e-05   8.133391533690464e-06   -2.4788071369204363e-06
-4.356316675823532e-05   8.133391533690464e-06   -2.4788071369204363e-06
-4.356316675823532e-05   8.133391533690464e-06   -2.4788071369204363e-06
-7.530481074161793e-05   0.0   -6.026158202943922e-05
-7.530481074161793e-05   0.0   -6.026158202943922e-05
-7.530481074161793e-05   0.0   -6.026158202943922e-05
-7.530481074161793e-05   0.0   -6.026158202943922e-05
-7.360845969290367e-05   8.51621161814713e-06   -2.8711808013183546e-06
-7.360845969290367e-05   8.51621161814713e-06   -2.8711808013183546e-06
-7.360845969290367e-05   8.51621161814713e-06   -2.8711808013183546e-06
-7.360845969290367e-05   8.51621161814713e-06   -2.8711808013183546e-06
-4.224937580678942e-05   0.0   -5.002659364062068e-05
-4.224937580678942e-05   0.0   -5.002659364062068e-05
-4.224937580678942e-05   0.0   -5.002659364062068e-05
-4.224937580678942e-05   0.0   -5.002659364062068e-05
-5.712493884482877e-05   3.939839131307521e-06   -2.7597892056005507e-05
-5.712493884482877e-05   3.939839131307521e-06   -2.7597892056005507e-05
-5.712493884482877e-05   3.939839131307521e-06   -2.7597892056005507e-05
-5.712493884482877e-05   3.939839131307521e-06   -2.7597892056005507e-05
-4.224937580678942e-05   8.51621161814713e-06   2.2385461695699667e-06
-4.224937580678942e-05   8.51621161814713e-06   2.2385461695699667e-06
-4.224937580678942e-05   8.51621161814713e-06   2.2385461695699667e-06
-4.224937580678942e-05   8.51621161814713e-06   2.2385461695699667e-06
-7.360845969290355e-05   0.0   -5.513632061150881e-05
-7.360845969290355e-05   0.0   -5.513632061150881e-05
-7.360845969290355e-05   0.0   -5.513632061150881e-05
-7.360845969290355e-05   0.0   -5.513632061150881e-05
-7.022270124003053e-05   9.171053079632795e-06   4.356098836114921e-06
-7.022270124003053e-05   9.171053079632795e-06   4.356098836114921e-06
-7.022270124003053e-05   9.171053079632795e-06   4.356098836114921e-06
-7.022270124003053e-05   9.171053079632795e-06   4.356098836114921e-06
-4.0094469531306724e-05   0.0   -4.035498883064519e-05
-4.0094469531306724e-05   0.0   -4.035498883064519e-05
-4.0094469531306724e-05   0.0   -4.035498883064519e-05
-4.0094469531306724e-05   0.0   -4.035498883064519e-05
-5.416572539815098e-05   4.857389778624779e-06   -1.98173295864128e-05
-5.416572539815098e-05   4.857389778624779e-06   -1.98173295864128e-05
-5.416572539815098e-05   4.857389778624779e-06   -1.98173295864128e-05
-5.416572539815098e-05   4.857389778624779e-06   -1.98173295864128e-05
5.7206443291086355e-05   -9.811066535091e-06   3.4125561432915216e-05
5.7206443291086355e-05   -9.811066535091e-06   3.4125561432915216e-05
5.7206443291086355e-05   -9.811066535091e-06   3.4125561432915216e-05
5.7206443291086355e-05   -9.811066535091e-06   3.4125561432915216e-05
2.9666633006922213e-05   -7.571087052826806e-06   -1.0430134684666706e-05
2.9666633006922213e-05   -7.571087052826806e-06   -1.0430134684666706e-05
2.9666633006922213e-05   -7.571087052826806e-06   -1.0430134684666706e-05
2.9666633006922213e-05   -7.571087052826806e-06   -1.0430134684666706e-05
2.8923153441952524e-05   -1.0056535139075671e-05   3.0126502953868118e-05
2.8923153441952524e-05   -1.0056535139075671e-05   3.0126502953868118e-05
2.8923153441952524e-05   -1.0056535139075671e-05   3.0126502953868118e-05
2.8923153441952524e-05   -1.0056535139075671e-05   3.0126502953868118e-05
5.659856532230507e-05   -8.322096774499282e-06   -1.7039846532132367e-05
5.659856532230507e-05   -8.322096774499282e-06   -1.7039846532132367e-05
5.659856532230507e-05   -8.322096774499282e-06   -1.7039846532132367e-05
5.659856532230507e-05   -8.322096774499282e-06   -1.7039846532132367e-05
4.133443908438722e-05   -8.45979600814454e-06   8.482983404584549e-06
4.133443908438722e-05   -8.45979600814454e-06   8.482983404584549e-06
4.133443908438722e-05   -8.45979600814454e-06   8.482983404584549e-06
4.133443908438722e-05   -8.45979600814454e-06   8.482983404584549e-06
5.659856532230507e-05   -1.0056535139075671e-05   2.908583993512198e-05
5.659856532230507e-05   -1.0056535139075671e-05   2.908583993512198e-05
5.659856532230507e-05   -1.0056535139075671e-05   2.908583993512198e-05
5.659856532230507e-05   -1.0056535139075671e-05   2.908583993512198e-05
2.8923153441952524e-05   -8.322096774499282e-06   -1.5999183513386176e-05
2.8923153441952524e-05   -8.322096774499282e-06   -1.5999183513386176e-05
2.8923153441952524e-05   -8.322096774499282e-06   -1.5999183513386176e-05
2.8923153441952524e-05   -8.322096774499282e-06   -1.5999183513386176e-05
2.8250314292219185e-05   -9.96477544052592e-06   2.704209652819355e-05
2.8250314292219185e-05   -9.96477544052592e-06   2.704209652819355e-05
2.8250314292219185e-05   -9.96477544052592e-06   2.704209652819355e-05
2.8250314292219185e-05   -9.96477544052592e-06   2.704209652819355e-05
5.589450073744e-05   -8.390362755284625e-06   -1.9976195158319003e-05
5.589450073744e-05   -8.390362755284625e-06   -1.9976195158319003e-05
5.589450073744e-05   -8.390362755284625e-06   -1.9976195158319003e-05
5.589450073744e-05   -8.390362755284625e-06   -1.9976195158319003e-05
4.1306430536462046e-05   -8.608193487796324e-06   4.4679536161512645e-06
4.1306430536462046e-05   -8.608193487796324e-06   4.4679536161512645e-06
4.1306430536462046e-05   -8.608193487796324e-06   4.4679536161512645e-06
4.1306430536462046e-05   -8.608193487796324e-06   4.4679536161512645e-06
5.589450073744011e-05   -9.964775440526137e-06   2.6097448917049033e-05
5.589450073744011e-05   -9.964775440526137e-06   2.6097448917049033e-05
5.589450073744011e-05   -9.964775440526137e-06   2.6097448917049033e-05
5.589450073744011e-05   -9.964775440526137e-06   2.6097448917049033e-05
2.8250314292219185e-05   -8.390362755284625e-06   -1.903154754717435e-05
2.8250314292219185e-05   -8.390362755284625e-06   -1.903154754717435e-05
2.8250314292219185e-05   -8.390362755284625e-06   -1.903154754717435e-05
2.8250314292219185e-05   -8.390362755284625e-06   -1.903154754717435e-05
2.742928678786769e-05   -9.408527396761925e-06   2.2024009130624687e-05
2.742928678786769e-05   -9.408527396761925e-06   2.2024009130624687e-05
2.742928678786769e-05   -9.408527396761925e-06   2.2024009130624687e-05
2.742928678786769e-05   -9.408527396761925e-06   2.2024009130624687e-05
5.479126064891644e-05   -8.212435730807835e-06   -2.4296935637362562e-05
5.479126064891644e-05   -8.212435730807835e-06   -2.4296935637362562e-05
5.479126064891644e-05   -8.212435730807835e-06   -2.4296935637362562e-05
5.479126064891644e-05   -8.212435730807835e-06   -2.4296935637362562e-05
3.989935272594303e-05   -8.185237249801365e-06   5.065918123221553e-07
3.989935272594303e-05   -8.185237249801365e-06   5.065918123221553e-07
3.989935272594303e-05   -8.185237249801365e-06   5.065918123221553e-07
3.989935272594303e-05   -8.185237249801365e-06   5.065918123221553e-07
2.9666633006922213e-05   -9.819472605962932e-06   2.548096236032124e-05
2.9666633006922213e-05   -9.819472605962932e-06   2.548096236032124e-05
2.9666633006922213e-05   -9.819472605962932e-06   2.548096236032124e-05
2.9666633006922213e-05   -9.819472605962932e-06   2.548096236032124e-05
6.279401776492283e-06   -4.6688808832320156e-06   -1.0407401323422882e-05
6.279401776492283e-06   -4.6688808832320156e-06   -1.0407401323422882e-05
6.279401776492283e-06   -4.6688808832320156e-06   -1.0407401323422882e-05
6.279401776492283e-06   -4.6688808832320156e-06   -1.0407401323422882e-05
5.102808146096693e-06   -9.767708361852617e-06   2.907348589303296e-05
5.102808146096693e-06   -9.767708361852617e-06   2.907348589303296e-05
5.102808146096693e-06   -9.767708361852617e-06   2.907348589303296e-05
5.102808146096693e-06   -9.767708361852617e-06   2.907348589303296e-05
2.8923153441952524e-05   -4.951131459369866e-06   -1.351703574154972e-05
2.8923153441952524e-05   -4.951131459369866e-06   -1.351703574154972e-05
2.8923153441952524e-05   -4.951131459369866e-06   -1.351703574154972e-05
2.8923153441952524e-05   -4.951131459369866e-06   -1.351703574154972e-05
1.746804836226551e-05   -7.031286944859591e-06   6.8228993492223966e-06
1.746804836226551e-05   -7.031286944859591e-06   6.8228993492223966e-06
1.746804836226551e-05   -7.031286944859591e-06   6.8228993492223966e-06
1.746804836226551e-05   -7.031286944859591e-06   6.8228993492223966e-06
2.8923153441952497e-05   -9.767708361852617e-06   2.618353975154331e-05
2.8923153441952497e-05   -9.767708361852617e-06   2.618353975154331e-05
2.8923153441952497e-05   -9.767708361852617e-06   2.618353975154331e-05
2.8923153441952497e-05   -9.767708361852617e-06   2.618353975154331e-05
5.102808146096707e-06   -4.951131459369866e-06   -1.0627089600060043e-05
5.102808146096707e-06   -4.951131459369866e-06   -1.0627089600060043e-05
5.102808146096707e-06   -4.951131459369866e-06   -1.0627089600060043e-05
5.102808146096707e-06   -4.951131459369866e-06   -1.0627089600060043e-05
4.2633269012947535e-06   -9.634722329953348e-06   2.911193922048791e-05
4.2633269012947535e-06   -9.634722329953348e-06   2.911193922048791e-05
4.2633269012947535e-06   -9.634722329953348e-06   2.911193922048791e-05
4.2633269012947535e-06   -9.634722329953348e-06   2.911193922048791e-05
2.8250314292219185e-05   -5.075506420236693e-06   -1.3601902643549688e-05
2.8250314292219185e-05   -5.075506420236693e-06   -1.3601902643549688e-05
2.8250314292219185e-05   -5.075506420236693e-06   -1.3601902643549688e-05
2.8250314292219185e-05   -5.075506420236693e-06   -1.3601902643549688e-05
1.6458413805460198e-05   -6.886364771327945e-06   7.137779845037799e-06
1.6458413805460198e-05   -6.886364771327945e-06   7.137779845037799e-06
1.6458413805460198e-05   -6.886364771327945e-06   7.137779845037799e-06
1.6458413805460198e-05   -6.886364771327945e-06   7.137779845037799e-06
2.8250314292219226e-05   -9.634722329953348e-06   2.637640967465796e-05
2.8250314292219226e-05   -9.634722329953348e-06   2.637640967465796e-05
2.8250314292219226e-05   -9.634722329953348e-06   2.637640967465796e-05
2.8250314292219226e-05   -9.634722329953348e-06   2.637640967465796e-05
4.2633269012947535e-06   -5.075506420236693e-06   -1.0866373097719604e-05
4.2633269012947535e-06   -5.075506420236693e-06   -1.0866373097719604e-05
4.2633269012947535e-06   -5.075506420236693e-06   -1.0866373097719604e-05
4.2633269012947535e-06   -5.075506420236693e-06   -1.0866373097719604e-05
3.3296659691400723e-06   -9.370251176332202e-06   3.0053003987620284e-05
3.3296659691400723e-06   -9.370251176332202e-06   3.0053003987620284e-05
3.3296659691400723e-06   -9.370251176332202e-06   3.0053003987620284e-05
3.3296659691400723e-06   -9.370251176332202e-06   3.0053003987620284e-05
2.7429286787867662e-05   -4.959044481958608e-06   -1.2759754726883167e-05
2.7429286787867662e-05   -4.959044481958608e-06   -1.2759754726883167e-05
2.7429286787867662e-05   -4.959044481958608e-06   -1.2759754726883167e-05
2.7429286787867662e-05   -4.959044481958608e-06   -1.2759754726883167e-05
1.5841836402141157e-05   -6.5826755797342845e-06   7.526841241326296e-06
1.5841836402141157e-05   -6.5826755797342845e-06   7.526841241326296e-06
1.5841836402141157e-05   -6.5826755797342845e-06   7.526841241326296e-06
1.5841836402141157e-05   -6.5826755797342845e-06   7.526841241326296e-06
6.2794017764922965e-06   -1.1821193220544566e-05   2.6201043629756277e-05
6.2794017764922965e-06   -1.1821193220544566e-05   2.6201043629756277e-05
6.2794017764922965e-06   -1.1821193220544566e-05   2.6201043629756277e-05
6.2794017764922965e-06   -1.1821193220544566e-05   2.6201043629756277e-05
-1.6189830545880582e-05   -1.94398840931264e-06   -5.321354020792687e-06
-1.6189830545880582e-05   -1.94398840931264e-06   -5.321354020792687e-06
-1.6189830545880582e-05   -1.94398840931264e-06   -5.321354020792687e-06
-1.6189830545880582e-05   -1.94398840931264e-06   -5.321354020792687e-06
-1.801982904817426e-05   -1.2080546927483154e-05   3.365395736497877e-05
-1.801982904817426e-05   -1.2080546927483154e-05   3.365395736497877e-05
-1.801982904817426e-05   -1.2080546927483154e-05   3.365395736497877e-05
-1.801982904817426e-05   -1.2080546927483154e-05   3.365395736497877e-05
5.102808146096707e-06   -2.0521329366467167e-06   -1.0900819686641391e-05
5.102808146096707e-06   -2.0521329366467167e-06   -1.0900819686641391e-05
5.102808146096707e-06   -2.0521329366467167e-06   -1.0900819686641391e-05
5.102808146096707e-06   -2.0521329366467167e-06   -1.0900819686641391e-05
-5.506776797590598e-06   -6.749655400913133e-06   9.600335364730686e-06
-5.506776797590598e-06   -6.749655400913133e-06   9.600335364730686e-06
-5.506776797590598e-06   -6.749655400913133e-06   9.600335364730686e-06
-5.506776797590598e-06   -6.749655400913133e-06   9.600335364730686e-06
5.102808146096693e-06   -1.208054692748272e-05   2.763690897047695e-05
5.102808146096693e-06   -1.208054692748272e-05   2.763690897047695e-05
5.102808146096693e-06   -1.208054692748272e-05   2.763690897047695e-05
5.102808146096693e-06   -1.208054692748272e-05   2.763690897047695e-05
-1.8019829048174232e-05   -2.052132936646283e-06   -4.883771292139329e-06
-1.8019829048174232e-05   -2.052132936646283e-06   -4.883771292139329e-06
-1.8019829048174232e-05   -2.052132936646283e-06   -4.883771292139329e-06
-1.8019829048174232e-05   -2.052132936646283e-06   -4.883771292139329e-06
-1.9139068301913774e-05   -1.2021527915641404e-05   3.493372741067359e-05
-1.9139068301913774e-05   -1.2021527915641404e-05   3.493372741067359e-05
-1.9139068301913774e-05   -1.2021527915641404e-05   3.493372741067359e-05
-1.9139068301913774e-05   -1.2021527915641404e-05   3.493372741067359e-05
4.2633269012947535e-06   -2.184895642071919e-06   -9.972243958816058e-06
4.2633269012947535e-06   -2.184895642071919e-06   -9.972243958816058e-06
4.2633269012947535e-06   -2.184895642071919e-06   -9.972243958816058e-06
4.2633269012947535e-06   -2.184895642071919e-06   -9.972243958816058e-06
-6.746040719492061e-06   -6.7261591614438745e-06   1.1101460187452124e-05
-6.746040719492061e-06   -6.7261591614438745e-06   1.1101460187452124e-05
-6.746040719492061e-06   -6.7261591614438745e-06   1.1101460187452124e-05
-6.746040719492061e-06   -6.7261591614438745e-06   1.1101460187452124e-05
4.2633269012947535e-06   -1.2021527915641404e-05   2.9031748046531728e-05
4.2633269012947535e-06   -1.2021527915641404e-05   2.9031748046531728e-05
4.2633269012947535e-06   -1.2021527915641404e-05   2.9031748046531728e-05
4.2633269012947535e-06   -1.2021527915641404e-05   2.9031748046531728e-05
-1.9139068301913734e-05   -2.184895642071919e-06   -4.070264594674194e-06
-1.9139068301913734e-05   -2.184895642071919e-06   -4.070264594674194e-06
-1.9139068301913734e-05   -2.184895642071919e-06   -4.070264594674194e-06
-1.9139068301913734e-05   -2.184895642071919e-06   -4.070264594674194e-06
-2.045457954234908e-05   -1.1597056587815506e-05   3.6589568606362364e-05
-2.045457954234908e-05   -1.1597056587815506e-05   3.6589568606362364e-05
-2.045457954234908e-05   -1.1597056587815506e-05   3.6589568606362364e-05
-2.045457954234908e-05   -1.1597056587815506e-05   3.6589568606362364e-05
3.3296659691400723e-06   -2.1703892514649513e-06   -8.706840981262989e-06
3.3296659691400723e-06   -2.1703892514649513e-06   -8.706840981262989e-06
3.3296659691400723e-06   -2.1703892514649513e-06   -8.706840981262989e-06
3.3296659691400723e-06   -2.1703892514649513e-06   -8.706840981262989e-06
-7.75555343179917e-06   -6.4557553650030144e-06   1.2339744355091445e-05
-7.75555343179917e-06   -6.4557553650030144e-06   1.2339744355091445e-05
-7.75555343179917e-06   -6.4557553650030144e-06   1.2339744355091445e-05
-7.75555343179917e-06   -6.4557553650030144e-06   1.2339744355091445e-05
-1.618983054588061e-05   -1.4715286426205017e-05   3.1730743952419196e-05
-1.618983054588061e-05   -1.4715286426205017e-05   3.1730743952419196e-05
-1.618983054588061e-05   -1.4715286426205017e-05   3.1730743952419196e-05
-1.618983054588061e-05   -1.4715286426205017e-05   3.1730743952419196e-05
-4.1754562699021676e-05   2.145623334090345e-06   -7.605971133054553e-07
-4.1754562699021676e-05   2.145623334090345e-06   -7.605971133054553e-07
-4.1754562699021676e-05   2.145623334090345e-06   -7.605971133054553e-07
-4.1754562699021676e-05   2.145623334090345e-06   -7.605971133054553e-07
-4.395638075883628e-05   -1.644087085154707e-05   4.482465554597184e-05
-4.395638075883628e-05   -1.644087085154707e-05   4.482465554597184e-05
-4.395638075883628e-05   -1.644087085154707e-05   4.482465554597184e-05
-4.395638075883628e-05   -1.644087085154707e-05   4.482465554597184e-05
-1.8019829048174232e-05   2.0225253445182827e-06   -9.480968356104068e-06
-1.8019829048174232e-05   2.0225253445182827e-06   -9.480968356104068e-06
-1.8019829048174232e-05   2.0225253445182827e-06   -9.480968356104068e-06
-1.8019829048174232e-05   2.0225253445182827e-06   -9.480968356104068e-06
-2.9562883905878936e-05   -6.083768273358603e-06   1.4621232577463129e-05
-2.9562883905878936e-05   -6.083768273358603e-06   1.4621232577463129e-05
-2.9562883905878936e-05   -6.083768273358603e-06   1.4621232577463129e-05
-2.9562883905878936e-05   -6.083768273358603e-06   1.4621232577463129e-05
-1.801982904817426e-05   -1.644087085154707e-05   3.374661782833263e-05
-1.801982904817426e-05   -1.644087085154707e-05   3.374661782833263e-05
-1.801982904817426e-05   -1.644087085154707e-05   3.374661782833263e-05
-1.801982904817426e-05   -1.644087085154707e-05   3.374661782833263e-05
-4.3956380758836214e-05   2.0225253445182827e-06   1.5970693615350619e-06
-4.3956380758836214e-05   2.0225253445182827e-06   1.5970693615350619e-06
-4.3956380758836214e-05   2.0225253445182827e-06   1.5970693615350619e-06
-4.3956380758836214e-05   2.0225253445182827e-06   1.5970693615350619e-06
-4.5297868433203384e-05   -1.6530069313572954e-05   4.733755655433338e-05
-4.5297868433203384e-05   -1.6530069313572954e-05   4.733755655433338e-05
-4.5297868433203384e-05   -1.6530069313572954e-05   4.733755655433338e-05
-4.5297868433203384e-05   -1.6530069313572954e-05   4.733755655433338e-05
-1.9139068301913734e-05   1.7921390364360364e-06   -7.253768674488108e-06
-1.9139068301913734e-05   1.7921390364360364e-06   -7.253768674488108e-06
-1.9139068301913734e-05   1.7921390364360364e-06   -7.253768674488108e-06
-1.9139068301913734e-05   1.7921390364360364e-06   -7.253768674488108e-06
-3.0991406281182113e-05   -7.0136946428555474e-06   1.7783628165200847e-05
-3.0991406281182113e-05   -7.0136946428555474e-06   1.7783628165200847e-05
-3.0991406281182113e-05   -7.0136946428555474e-06   1.7783628165200847e-05
-3.0991406281182113e-05   -7.0136946428555474e-06   1.7783628165200847e-05
-1.9139068301913707e-05   -1.6530069313572954e-05   3.63442315443282e-05
-1.9139068301913707e-05   -1.6530069313572954e-05   3.63442315443282e-05
-1.9139068301913707e-05   -1.6530069313572954e-05   3.63442315443282e-05
-1.9139068301913707e-05   -1.6530069313572954e-05   3.63442315443282e-05
-4.52978684332033e-05   1.7921390364360364e-06   3.7395563355171503e-06
-4.52978684332033e-05   1.7921390364360364e-06   3.7395563355171503e-06
-4.52978684332033e-05   1.7921390364360364e-06   3.7395563355171503e-06
-4.52978684332033e-05   1.7921390364360364e-06   3.7395563355171503e-06
-4.6743889328198116e-05   -1.507042913538462e-05   4.841403821771316e-05
-4.6743889328198116e-05   -1.507042913538462e-05   4.841403821771316e-05
-4.6743889328198116e-05   -1.507042913538462e-05   4.841403821771316e-05
-4.6743889328198116e-05   -1.507042913538462e-05   4.841403821771316e-05
-2.045457954234905e-05   1.5308395522116262e-06   -5.362239304593252e-06
-2.045457954234905e-05   1.5308395522116262e-06   -5.362239304593252e-06
-2.045457954234905e-05   1.5308395522116262e-06   -5.362239304593252e-06
-2.045457954234905e-05   1.5308395522116262e-06   -5.362239304593252e-06
-3.2465444646786386e-05   -7.064394130739966e-06   1.9813009412573756e-05
-3.2465444646786386e-05   -7.064394130739966e-06   1.9813009412573756e-05
-3.2465444646786386e-05   -7.064394130739966e-06   1.9813009412573756e-05
-3.2465444646786386e-05   -7.064394130739966e-06   1.9813009412573756e-05
-4.175456269902153e-05   0.0   3.510960854806759e-05
-4.175456269902153e-05   0.0   3.510960854806759e-05
-4.175456269902153e-05   0.0   3.510960854806759e-05
-4.175456269902153e-05   0.0   3.510960854806759e-05
-7.347431700144417e-05   9.641379246784487e-06   -1.1971821074565703e-05
-7.347431700144417e-05   9.641379246784487e-06   -1.1971821074565703e-05
-7.347431700144417e-05   9.641379246784487e-06   -1.1971821074565703e-05
-7.347431700144417e-05   9.641379246784487e-06   -1.1971821074565703e-05
-7.65056985196219e-05   0.0   5.103634034174173e-05
-7.65056985196219e-05   0.0   5.103634034174173e-05
-7.65056985196219e-05   0.0   5.103634034174173e-05
-7.65056985196219e-05   0.0   5.103634034174173e-05
-4.3956380758836214e-05   9.311670370192211e-06   -8.799524815016459e-06
-4.3956380758836214e-05   9.311670370192211e-06   -8.799524815016459e-06
-4.3956380758836214e-05   9.311670370192211e-06   -8.799524815016459e-06
-4.3956380758836214e-05   9.311670370192211e-06   -8.799524815016459e-06
-5.641119971258737e-05   5.719690670465648e-06   1.411369459440446e-05
-5.641119971258737e-05   5.719690670465648e-06   1.411369459440446e-05
-5.641119971258737e-05   5.719690670465648e-06   1.411369459440446e-05
-5.641119971258737e-05   5.719690670465648e-06   1.411369459440446e-05
-4.3956380758836174e-05   0.0   4.544933811962662e-05
-4.3956380758836174e-05   0.0   4.544933811962662e-05
-4.3956380758836174e-05   0.0   4.544933811962662e-05
-4.3956380758836174e-05   0.0   4.544933811962662e-05
-7.650569851962204e-05   9.311670370192211e-06   -3.212522592901078e-06
-7.650569851962204e-05   9.311670370192211e-06   -3.212522592901078e-06
-7.650569851962204e-05   9.311670370192211e-06   -3.212522592901078e-06
-7.650569851962204e-05   9.311670370192211e-06   -3.212522592901078e-06
-7.803176543079389e-05   0.0   5.6689717110893845e-05
-7.803176543079389e-05   0.0   5.6689717110893845e-05
-7.803176543079389e-05   0.0   5.6689717110893845e-05
-7.803176543079389e-05   0.0   5.6689717110893845e-05
-4.52978684332033e-05   9.075174583353298e-06   -3.3118826351024395e-06
-4.52978684332033e-05   9.075174583353298e-06   -3.3118826351024395e-06
-4.52978684332033e-05   9.075174583353298e-06   -3.3118826351024395e-06
-4.52978684332033e-05   9.075174583353298e-06   -3.3118826351024395e-06
-5.934191866544015e-05   4.7776646333480034e-06   2.2673373721962656e-05
-5.934191866544015e-05   4.7776646333480034e-06   2.2673373721962656e-05
-5.934191866544015e-05   4.7776646333480034e-06   2.2673373721962656e-05
-5.934191866544015e-05   4.7776646333480034e-06   2.2673373721962656e-05
-4.52978684332033e-05   0.0   5.124461236088182e-05
-4.52978684332033e-05   0.0   5.124461236088182e-05
-4.52978684332033e-05   0.0   5.124461236088182e-05
-4.52978684332033e-05   0.0   5.124461236088182e-05
-7.803176543079402e-05   9.075174583353298e-06   2.133222114909664e-06
-7.803176543079402e-05   9.075174583353298e-06   2.133222114909664e-06
-7.803176543079402e-05   9.075174583353298e-06   2.133222114909664e-06
-7.803176543079402e-05   9.075174583353298e-06   2.133222114909664e-06
-7.972870854269874e-05   0.0   6.422712682096826e-05
-7.972870854269874e-05   0.0   6.422712682096826e-05
-7.972870854269874e-05   0.0   6.422712682096826e-05
-7.972870854269874e-05   0.0   6.422712682096826e-05
-4.6743889328198116e-05   7.567248851817615e-06   4.7120788190429315e-06
-4.6743889328198116e-05   7.567248851817615e-06   4.7120788190429315e-06
-4.6743889328198116e-05   7.567248851817615e-06   4.7120788190429315e-06
-4.6743889328198116e-05   7.567248851817615e-06   4.7120788190429315e-06
-5.98275492739969e-05   3.3583753446435674e-06   2.904350283301207e-05
-5.98275492739969e-05   3.3583753446435674e-06   2.904350283301207e-05
-5.98275492739969e-05   3.3583753446435674e-06   2.904350283301207e-05
-5.98275492739969e-05   3.3583753446435674e-06   2.904350283301207e-05
5.03635614217878e-05   -7.571087052826806e-06   3.571438414082359e-05
5.03635614217878e-05   -7.571087052826806e-06   3.571438414082359e-05
5.03635614217878e-05   -7.571087052826806e-06   3.571438414082359e-05
5.03635614217878e-05   -7.571087052826806e-06   3.571438414082359e-05
2.5461928125262415e-05   -5.719070461777638e-06   -4.677128065422656e-06
2.5461928125262415e-05   -5.719070461777638e-06   -4.677128065422656e-06
2.5461928125262415e-05   -5.719070461777638e-06   -4.677128065422656e-06
2.5461928125262415e-05   -5.719070461777638e-06   -4.677128065422656e-06
2.4792761163947222e-05   -8.322096774498848e-06   3.116489090131667e-05
2.4792761163947222e-05   -8.322096774498848e-06   3.116489090131667e-05
2.4792761163947222e-05   -8.322096774498848e-06   3.116489090131667e-05
2.4792761163947222e-05   -8.322096774498848e-06   3.116489090131667e-05
4.917006910126164e-05   -6.479513255083389e-06   -1.0569505772522821e-05
4.917006910126164e-05   -6.479513255083389e-06   -1.0569505772522821e-05
4.917006910126164e-05   -6.479513255083389e-06   -1.0569505772522821e-05
4.917006910126164e-05   -6.479513255083389e-06   -1.0569505772522821e-05
3.578000121264111e-05   -6.742947168178427e-06   1.1905334389701505e-05
3.578000121264111e-05   -6.742947168178427e-06   1.1905334389701505e-05
3.578000121264111e-05   -6.742947168178427e-06   1.1905334389701505e-05
3.578000121264111e-05   -6.742947168178427e-06   1.1905334389701505e-05
4.9170069101261556e-05   -8.322096774498848e-06   3.0059340789667568e-05
4.9170069101261556e-05   -8.322096774498848e-06   3.0059340789667568e-05
4.9170069101261556e-05   -8.322096774498848e-06   3.0059340789667568e-05
4.9170069101261556e-05   -8.322096774498848e-06   3.0059340789667568e-05
2.4792761163947263e-05   -6.479513255083389e-06   -9.463955660873706e-06
2.4792761163947263e-05   -6.479513255083389e-06   -9.463955660873706e-06
2.4792761163947263e-05   -6.479513255083389e-06   -9.463955660873706e-06
2.4792761163947263e-05   -6.479513255083389e-06   -9.463955660873706e-06
2.393055297307084e-05   -8.390362755284625e-06   2.7967971457366425e-05
2.393055297307084e-05   -8.390362755284625e-06   2.7967971457366425e-05
2.393055297307084e-05   -8.390362755284625e-06   2.7967971457366425e-05
2.393055297307084e-05   -8.390362755284625e-06   2.7967971457366425e-05
4.796244379533788e-05   -6.5919759040973525e-06   -1.3164212023791066e-05
4.796244379533788e-05   -6.5919759040973525e-06   -1.3164212023791066e-05
4.796244379533788e-05   -6.5919759040973525e-06   -1.3164212023791066e-05
4.796244379533788e-05   -6.5919759040973525e-06   -1.3164212023791066e-05
3.544791448393196e-05   -7.0368248939365555e-06   7.96024622245555e-06
3.544791448393196e-05   -7.0368248939365555e-06   7.96024622245555e-06
3.544791448393196e-05   -7.0368248939365555e-06   7.96024622245555e-06
3.544791448393196e-05   -7.0368248939365555e-06   7.96024622245555e-06
4.796244379533788e-05   -8.390362755284625e-06   2.688893934665415e-05
4.796244379533788e-05   -8.390362755284625e-06   2.688893934665415e-05
4.796244379533788e-05   -8.390362755284625e-06   2.688893934665415e-05
4.796244379533788e-05   -8.390362755284625e-06   2.688893934665415e-05
2.393055297307084e-05   -6.5919759040973525e-06   -1.2085179913078796e-05
2.393055297307084e-05   -6.5919759040973525e-06   -1.2085179913078796e-05
2.393055297307084e-05   -6.5919759040973525e-06   -1.2085179913078796e-05
2.393055297307084e-05   -6.5919759040973525e-06   -1.2085179913078796e-05
2.3025733781057885e-05   -8.212435730807835e-06   2.3223709326115156e-05
2.3025733781057885e-05   -8.212435730807835e-06   2.3223709326115156e-05
2.3025733781057885e-05   -8.212435730807835e-06   2.3223709326115156e-05
2.3025733781057885e-05   -8.212435730807835e-06   2.3223709326115156e-05
4.6450581014004335e-05   -6.547749009585668e-06   -1.681651476152916e-05
4.6450581014004335e-05   -6.547749009585668e-06   -1.681651476152916e-05
4.6450581014004335e-05   -6.547749009585668e-06   -1.681651476152916e-05
4.6450581014004335e-05   -6.547749009585668e-06   -1.681651476152916e-05
3.3872654043573156e-05   -6.851772191759312e-06   4.329110765160911e-06
3.3872654043573156e-05   -6.851772191759312e-06   4.329110765160911e-06
3.3872654043573156e-05   -6.851772191759312e-06   4.329110765160911e-06
3.3872654043573156e-05   -6.851772191759312e-06   4.329110765160911e-06
2.5461928125262415e-05   -4.6688808832320156e-06   3.37579724230578e-05
2.5461928125262415e-05   -4.6688808832320156e-06   3.37579724230578e-05
2.5461928125262415e-05   -4.6688808832320156e-06   3.37579724230578e-05
2.5461928125262415e-05   -4.6688808832320156e-06   3.37579724230578e-05
2.7675857210146543e-06   -2.014812657915189e-06   -2.4734906488319084e-06
2.7675857210146543e-06   -2.014812657915189e-06   -2.4734906488319084e-06
2.7675857210146543e-06   -2.014812657915189e-06   -2.4734906488319084e-06
2.7675857210146543e-06   -2.014812657915189e-06   -2.4734906488319084e-06
2.1025638032594785e-06   -4.951131459369866e-06   3.5163983600026896e-05
2.1025638032594785e-06   -4.951131459369866e-06   3.5163983600026896e-05
2.1025638032594785e-06   -4.951131459369866e-06   3.5163983600026896e-05
2.1025638032594785e-06   -4.951131459369866e-06   3.5163983600026896e-05
2.4792761163947263e-05   -2.4228899145807992e-06   -4.169956927992975e-06
2.4792761163947263e-05   -2.4228899145807992e-06   -4.169956927992975e-06
2.4792761163947263e-05   -2.4228899145807992e-06   -4.169956927992975e-06
2.4792761163947263e-05   -2.4228899145807992e-06   -4.169956927992975e-06
1.3649016717304025e-05   -3.268248948946591e-06   1.4910165903698526e-05
1.3649016717304025e-05   -3.268248948946591e-06   1.4910165903698526e-05
1.3649016717304025e-05   -3.268248948946591e-06   1.4910165903698526e-05
1.3649016717304025e-05   -3.268248948946591e-06   1.4910165903698526e-05
2.479276116394725e-05   -4.951131459369866e-06   3.364703867315337e-05
2.479276116394725e-05   -4.951131459369866e-06   3.364703867315337e-05
2.479276116394725e-05   -4.951131459369866e-06   3.364703867315337e-05
2.479276116394725e-05   -4.951131459369866e-06   3.364703867315337e-05
2.1025638032594785e-06   -2.4228899145807992e-06   -2.6530120011195295e-06
2.1025638032594785e-06   -2.4228899145807992e-06   -2.6530120011195295e-06
2.1025638032594785e-06   -2.4228899145807992e-06   -2.6530120011195295e-06
2.1025638032594785e-06   -2.4228899145807992e-06   -2.6530120011195295e-06
1.2539449878332337e-06   -5.075506420236693e-06   3.482909729701864e-05
1.2539449878332337e-06   -5.075506420236693e-06   3.482909729701864e-05
1.2539449878332337e-06   -5.075506420236693e-06   3.482909729701864e-05
1.2539449878332337e-06   -5.075506420236693e-06   3.482909729701864e-05
2.393055297307084e-05   -2.6897048601907773e-06   -4.396730281071661e-06
2.393055297307084e-05   -2.6897048601907773e-06   -4.396730281071661e-06
2.393055297307084e-05   -2.6897048601907773e-06   -4.396730281071661e-06
2.393055297307084e-05   -2.6897048601907773e-06   -4.396730281071661e-06
1.28052056621925e-05   -3.4223050485329785e-06   1.4585075350064767e-05
1.28052056621925e-05   -3.4223050485329785e-06   1.4585075350064767e-05
1.28052056621925e-05   -3.4223050485329785e-06   1.4585075350064767e-05
1.28052056621925e-05   -3.4223050485329785e-06   1.4585075350064767e-05
2.39305529730708e-05   -5.0755064202362594e-06   3.339761636099079e-05
2.39305529730708e-05   -5.0755064202362594e-06   3.339761636099079e-05
2.39305529730708e-05   -5.0755064202362594e-06   3.339761636099079e-05
2.39305529730708e-05   -5.0755064202362594e-06   3.339761636099079e-05
1.2539449878332337e-06   -2.6897048601907773e-06   -2.9652493450441336e-06
1.2539449878332337e-06   -2.6897048601907773e-06   -2.9652493450441336e-06
1.2539449878332337e-06   -2.6897048601907773e-06   -2.9652493450441336e-06
1.2539449878332337e-06   -2.6897048601907773e-06   -2.9652493450441336e-06
3.165212773137828e-07   -4.959044481958174e-06   3.5336935110181524e-05
3.165212773137828e-07   -4.959044481958174e-06   3.5336935110181524e-05
3.165212773137828e-07   -4.959044481958174e-06   3.5336935110181524e-05
3.165212773137828e-07   -4.959044481958174e-06   3.5336935110181524e-05
2.302573378105786e-05   -2.8028780266924676e-06   -3.8054522692180023e-06
2.302573378105786e-05   -2.8028780266924676e-06   -3.8054522692180023e-06
2.302573378105786e-05   -2.8028780266924676e-06   -3.8054522692180023e-06
2.302573378105786e-05   -2.8028780266924676e-06   -3.8054522692180023e-06
1.2119066682752233e-05   -3.3887585977709737e-06   1.47238545706057e-05
1.2119066682752233e-05   -3.3887585977709737e-06   1.47238545706057e-05
1.2119066682752233e-05   -3.3887585977709737e-06   1.47238545706057e-05
1.2119066682752233e-05   -3.3887585977709737e-06   1.47238545706057e-05
2.7675857210146543e-06   -1.9439884093122063e-06   3.4510137774139285e-05
2.7675857210146543e-06   -1.9439884093122063e-06   3.4510137774139285e-05
2.7675857210146543e-06   -1.9439884093122063e-06   3.4510137774139285e-05
2.7675857210146543e-06   -1.9439884093122063e-06   3.4510137774139285e-05
-1.9220581700092333e-05   1.7974664796261905e-06   1.0806500565707297e-07
-1.9220581700092333e-05   1.7974664796261905e-06   1.0806500565707297e-07
-1.9220581700092333e-05   1.7974664796261905e-06   1.0806500565707297e-07
-1.9220581700092333e-05   1.7974664796261905e-06   1.0806500565707297e-07
-1.9969988601851638e-05   -2.0521329366467167e-06   3.7013250536241295e-05
-1.9969988601851638e-05   -2.0521329366467167e-06   3.7013250536241295e-05
-1.9969988601851638e-05   -2.0521329366467167e-06   3.7013250536241295e-05
-1.9969988601851638e-05   -2.0521329366467167e-06   3.7013250536241295e-05
2.1025638032594785e-06   1.4861954346797029e-06   -1.897333828406215e-06
2.1025638032594785e-06   1.4861954346797029e-06   -1.897333828406215e-06
2.1025638032594785e-06   1.4861954346797029e-06   -1.897333828406215e-06
2.1025638032594785e-06   1.4861954346797029e-06   -1.897333828406215e-06
-8.564467038117145e-06   -1.4173377620206942e-08   1.678127219460144e-05
-8.564467038117145e-06   -1.4173377620206942e-08   1.678127219460144e-05
-8.564467038117145e-06   -1.4173377620206942e-08   1.678127219460144e-05
-8.564467038117145e-06   -1.4173377620206942e-08   1.678127219460144e-05
2.1025638032594785e-06   -2.052132936646283e-06   3.4890253513445574e-05
2.1025638032594785e-06   -2.052132936646283e-06   3.4890253513445574e-05
2.1025638032594785e-06   -2.052132936646283e-06   3.4890253513445574e-05
2.1025638032594785e-06   -2.052132936646283e-06   3.4890253513445574e-05
-1.9969988601851638e-05   1.4861954346797029e-06   2.2566319438956095e-07
-1.9969988601851638e-05   1.4861954346797029e-06   2.2566319438956095e-07
-1.9969988601851638e-05   1.4861954346797029e-06   2.2566319438956095e-07
-1.9969988601851638e-05   1.4861954346797029e-06   2.2566319438956095e-07
-2.0973987026916597e-05   -2.1848956420714855e-06   3.7752031658108264e-05
-2.0973987026916597e-05   -2.1848956420714855e-06   3.7752031658108264e-05
-2.0973987026916597e-05   -2.1848956420714855e-06   3.7752031658108264e-05
-2.0973987026916597e-05   -2.1848956420714855e-06   3.7752031658108264e-05
1.2539449878332337e-06   1.1964463949049476e-06   -1.323326921994156e-06
1.2539449878332337e-06   1.1964463949049476e-06   -1.323326921994156e-06
1.2539449878332337e-06   1.1964463949049476e-06   -1.323326921994156e-06
1.2539449878332337e-06   1.1964463949049476e-06   -1.323326921994156e-06
-9.303501257880881e-06   -1.009501519949e-07   1.7050854749002596e-05
-9.303501257880881e-06   -1.009501519949e-07   1.7050854749002596e-05
-9.303501257880881e-06   -1.009501519949e-07   1.7050854749002596e-05
-9.303501257880881e-06   -1.009501519949e-07   1.7050854749002596e-05
1.2539449878332337e-06   -2.184895642071919e-06   3.572322643592219e-05
1.2539449878332337e-06   -2.184895642071919e-06   3.572322643592219e-05
1.2539449878332337e-06   -2.184895642071919e-06   3.572322643592219e-05
1.2539449878332337e-06   -2.184895642071919e-06   3.572322643592219e-05
-2.0973987026916597e-05   1.1964463949049476e-06   7.054783001917038e-07
-2.0973987026916597e-05   1.1964463949049476e-06   7.054783001917038e-07
-2.0973987026916597e-05   1.1964463949049476e-06   7.054783001917038e-07
-2.0973987026916597e-05   1.1964463949049476e-06   7.054783001917038e-07
-2.2043657312904077e-05   -2.170389251465385e-06   3.8638162160656775e-05
-2.2043657312904077e-05   -2.170389251465385e-06   3.8638162160656775e-05
-2.2043657312904077e-05   -2.170389251465385e-06   3.8638162160656775e-05
-2.2043657312904077e-05   -2.170389251465385e-06   3.8638162160656775e-05
3.165212773137828e-07   9.880062843334574e-07   -5.238394778522447e-07
3.165212773137828e-07   9.880062843334574e-07   -5.238394778522447e-07
3.165212773137828e-07   9.880062843334574e-07   -5.238394778522447e-07
3.165212773137828e-07   9.880062843334574e-07   -5.238394778522447e-07
-1.0245708427947761e-05   -1.628286055656205e-07   1.777037763152375e-05
-1.0245708427947761e-05   -1.628286055656205e-07   1.777037763152375e-05
-1.0245708427947761e-05   -1.628286055656205e-07   1.777037763152375e-05
-1.0245708427947761e-05   -1.628286055656205e-07   1.777037763152375e-05
-1.9220581700092265e-05   2.145623334090345e-06   3.119922175881182e-05
-1.9220581700092265e-05   2.145623334090345e-06   3.119922175881182e-05
-1.9220581700092265e-05   2.145623334090345e-06   3.119922175881182e-05
-1.9220581700092265e-05   2.145623334090345e-06   3.119922175881182e-05
-4.0769791623567955e-05   5.846669713844167e-06   -2.4955002857951405e-06
-4.0769791623567955e-05   5.846669713844167e-06   -2.4955002857951405e-06
-4.0769791623567955e-05   5.846669713844167e-06   -2.4955002857951405e-06
-4.0769791623567955e-05   5.846669713844167e-06   -2.4955002857951405e-06
-4.1859765474898115e-05   2.0225253445182827e-06   3.4523662900093604e-05
-4.1859765474898115e-05   2.0225253445182827e-06   3.4523662900093604e-05
-4.1859765474898115e-05   2.0225253445182827e-06   3.4523662900093604e-05
-4.1859765474898115e-05   2.0225253445182827e-06   3.4523662900093604e-05
-1.9969988601851597e-05   5.535207724212919e-06   -4.0669079828004355e-06
-1.9969988601851597e-05   5.535207724212919e-06   -4.0669079828004355e-06
-1.9969988601851597e-05   5.535207724212919e-06   -4.0669079828004355e-06
-1.9969988601851597e-05   5.535207724212919e-06   -4.0669079828004355e-06
-3.021586161977614e-05   3.953575380041471e-06   1.3958526453576375e-05
-3.021586161977614e-05   3.953575380041471e-06   1.3958526453576375e-05
-3.021586161977614e-05   3.953575380041471e-06   1.3958526453576375e-05
-3.021586161977614e-05   3.953575380041471e-06   1.3958526453576375e-05
-1.9969988601851638e-05   2.0225253445182827e-06   3.241605347227691e-05
-1.9969988601851638e-05   2.0225253445182827e-06   3.241605347227691e-05
-1.9969988601851638e-05   2.0225253445182827e-06   3.241605347227691e-05
-1.9969988601851638e-05   2.0225253445182827e-06   3.241605347227691e-05
-4.1859765474898034e-05   5.535207724212702e-06   -1.9592985549837403e-06
-4.1859765474898034e-05   5.535207724212702e-06   -1.9592985549837403e-06
-4.1859765474898034e-05   5.535207724212702e-06   -1.9592985549837403e-06
-4.1859765474898034e-05   5.535207724212702e-06   -1.9592985549837403e-06
-4.3196043977874766e-05   1.7921390364360364e-06   3.664120959876761e-05
-4.3196043977874766e-05   1.7921390364360364e-06   3.664120959876761e-05
-4.3196043977874766e-05   1.7921390364360364e-06   3.664120959876761e-05
-4.3196043977874766e-05   1.7921390364360364e-06   3.664120959876761e-05
-2.0973987026916597e-05   5.246609070557861e-06   -2.468234006635972e-06
-2.0973987026916597e-05   5.246609070557861e-06   -2.468234006635972e-06
-2.0973987026916597e-05   5.246609070557861e-06   -2.468234006635972e-06
-2.0973987026916597e-05   5.246609070557861e-06   -2.468234006635972e-06
-3.102669804067036e-05   3.882967159239388e-06   1.5104469496411471e-05
-3.102669804067036e-05   3.882967159239388e-06   1.5104469496411471e-05
-3.102669804067036e-05   3.882967159239388e-06   1.5104469496411471e-05
-3.102669804067036e-05   3.882967159239388e-06   1.5104469496411471e-05
-2.0973987026916583e-05   1.7921390364360364e-06   3.4568527578294215e-05
-2.0973987026916583e-05   1.7921390364360364e-06   3.4568527578294215e-05
-2.0973987026916583e-05   1.7921390364360364e-06   3.4568527578294215e-05
-2.0973987026916583e-05   1.7921390364360364e-06   3.4568527578294215e-05
-4.3196043977874684e-05   5.246609070557861e-06   -3.9555198616254665e-07
-4.3196043977874684e-05   5.246609070557861e-06   -3.9555198616254665e-07
-4.3196043977874684e-05   5.246609070557861e-06   -3.9555198616254665e-07
-4.3196043977874684e-05   5.246609070557861e-06   -3.9555198616254665e-07
-4.4609364211607047e-05   1.5308395522116262e-06   3.8323073746305116e-05
-4.4609364211607047e-05   1.5308395522116262e-06   3.8323073746305116e-05
-4.4609364211607047e-05   1.5308395522116262e-06   3.8323073746305116e-05
-4.4609364211607047e-05   1.5308395522116262e-06   3.8323073746305116e-05
-2.2043657312904036e-05   4.858023403525808e-06   -1.2827480623216333e-06
-2.2043657312904036e-05   4.858023403525808e-06   -1.2827480623216333e-06
-2.2043657312904036e-05   4.858023403525808e-06   -1.2827480623216333e-06
-2.2043657312904036e-05   4.858023403525808e-06   -1.2827480623216333e-06
-3.238089627827198e-05   3.6492240426955203e-06   1.6671263163124298e-05
-3.238089627827198e-05   3.6492240426955203e-06   1.6671263163124298e-05
-3.238089627827198e-05   3.6492240426955203e-06   1.6671263163124298e-05
-3.238089627827198e-05   3.6492240426955203e-06   1.6671263163124298e-05
-4.0769791623567955e-05   9.641379246784487e-06   1.6423798077332954e-05
-4.0769791623567955e-05   9.641379246784487e-06   1.6423798077332954e-05
-4.0769791623567955e-05   9.641379246784487e-06   1.6423798077332954e-05
-4.0769791623567955e-05   9.641379246784487e-06   1.6423798077332954e-05
-6.141758173182037e-05   9.508605715262105e-06   -1.806884955533449e-05
-6.141758173182037e-05   9.508605715262105e-06   -1.806884955533449e-05
-6.141758173182037e-05   9.508605715262105e-06   -1.806884955533449e-05
-6.141758173182037e-05   9.508605715262105e-06   -1.806884955533449e-05
-6.337506344275128e-05   9.311670370192211e-06   2.4356320861704077e-05
-6.337506344275128e-05   9.311670370192211e-06   2.4356320861704077e-05
-6.337506344275128e-05   9.311670370192211e-06   2.4356320861704077e-05
-6.337506344275128e-05   9.311670370192211e-06   2.4356320861704077e-05
-4.1859765474898034e-05   9.693757267129066e-06   -1.1731761222880533e-05
-4.1859765474898034e-05   9.693757267129066e-06   -1.1731761222880533e-05
-4.1859765474898034e-05   9.693757267129066e-06   -1.1731761222880533e-05
-4.1859765474898034e-05   9.693757267129066e-06   -1.1731761222880533e-05
-4.976827836560681e-05   9.686546107817023e-06   1.4534202905546931e-06
-4.976827836560681e-05   9.686546107817023e-06   1.4534202905546931e-06
-4.976827836560681e-05   9.686546107817023e-06   1.4534202905546931e-06
-4.976827836560681e-05   9.686546107817023e-06   1.4534202905546931e-06
-4.185976547489801e-05   9.311670370192211e-06   2.4127068723541487e-05
-4.185976547489801e-05   9.311670370192211e-06   2.4127068723541487e-05
-4.185976547489801e-05   9.311670370192211e-06   2.4127068723541487e-05
-4.185976547489801e-05   9.311670370192211e-06   2.4127068723541487e-05
-6.337506344275128e-05   9.693757267129066e-06   -1.1502509084718214e-05
-6.337506344275128e-05   9.693757267129066e-06   -1.1502509084718214e-05
-6.337506344275128e-05   9.693757267129066e-06   -1.1502509084718214e-05
-6.337506344275128e-05   9.693757267129066e-06   -1.1502509084718214e-05
-6.529460731868298e-05   9.075174583352864e-06   2.9919559101346813e-05
-6.529460731868298e-05   9.075174583352864e-06   2.9919559101346813e-05
-6.529460731868298e-05   9.075174583352864e-06   2.9919559101346813e-05
-6.529460731868298e-05   9.075174583352864e-06   2.9919559101346813e-05
-4.3196043977874684e-05   9.624822038684479e-06   -7.241168273199473e-06
-4.3196043977874684e-05   9.624822038684479e-06   -7.241168273199473e-06
-4.3196043977874684e-05   9.624822038684479e-06   -7.241168273199473e-06
-4.3196043977874684e-05   9.624822038684479e-06   -7.241168273199473e-06
-5.201732158581801e-05   9.687539983353147e-06   7.423330306571997e-06
-5.201732158581801e-05   9.687539983353147e-06   7.423330306571997e-06
-5.201732158581801e-05   9.687539983353147e-06   7.423330306571997e-06
-5.201732158581801e-05   9.687539983353147e-06   7.423330306571997e-06
-4.3196043977874684e-05   9.075174583353298e-06   2.9589770628147887e-05
-4.3196043977874684e-05   9.075174583353298e-06   2.9589770628147887e-05
-4.3196043977874684e-05   9.075174583353298e-06   2.9589770628147887e-05
-4.3196043977874684e-05   9.075174583353298e-06   2.9589770628147887e-05
-6.529460731868308e-05   9.624822038684479e-06   -6.911379800000764e-06
-6.529460731868308e-05   9.624822038684479e-06   -6.911379800000764e-06
-6.529460731868308e-05   9.624822038684479e-06   -6.911379800000764e-06
-6.529460731868308e-05   9.624822038684479e-06   -6.911379800000764e-06
-6.755888831746836e-05   7.567248851817615e-06   3.921411014183671e-05
-6.755888831746836e-05   7.567248851817615e-06   3.921411014183671e-05
-6.755888831746836e-05   7.567248851817615e-06   3.921411014183671e-05
-6.755888831746836e-05   7.567248851817615e-06   3.921411014183671e-05
-4.4609364211606965e-05   8.86304799257347e-06   1.8742381428077902e-07
-4.4609364211606965e-05   8.86304799257347e-06   1.8742381428077902e-07
-4.4609364211606965e-05   8.86304799257347e-06   1.8742381428077902e-07
-4.4609364211606965e-05   8.86304799257347e-06   1.8742381428077902e-07
-5.281718804217245e-05   9.22961101927416e-06   1.3647192382536916e-05
-5.281718804217245e-05   9.22961101927416e-06   1.3647192382536916e-05
-5.281718804217245e-05   9.22961101927416e-06   1.3647192382536916e-05
-5.281718804217245e-05   9.22961101927416e-06   1.3647192382536916e-05
4.089804541103287e-05   -5.719070461777638e-06   3.1516399146435184e-05
4.089804541103287e-05   -5.719070461777638e-06   3.1516399146435184e-05
4.089804541103287e-05   -5.719070461777638e-06   3.1516399146435184e-05
4.089804541103287e-05   -5.719070461777638e-06   3.1516399146435184e-05
2.024033214005815e-05   -4.199955914574146e-06   -2.0016542435338704e-06
2.024033214005815e-05   -4.199955914574146e-06   -2.0016542435338704e-06
2.024033214005815e-05   -4.199955914574146e-06   -2.0016542435338704e-06
2.024033214005815e-05   -4.199955914574146e-06   -2.0016542435338704e-06
1.9469358014916933e-05   -6.479513255083606e-06   2.740018253450543e-05
1.9469358014916933e-05   -6.479513255083606e-06   2.740018253450543e-05
1.9469358014916933e-05   -6.479513255083606e-06   2.740018253450543e-05
1.9469358014916933e-05   -6.479513255083606e-06   2.740018253450543e-05
3.9480519658354e-05   -4.870986688582752e-06   -6.916869477790401e-06
3.9480519658354e-05   -4.870986688582752e-06   -6.916869477790401e-06
3.9480519658354e-05   -4.870986688582752e-06   -6.916869477790401e-06
3.9480519658354e-05   -4.870986688582752e-06   -6.916869477790401e-06
2.8647704312353965e-05   -5.262812922202879e-06   1.1372918505715265e-05
2.8647704312353965e-05   -5.262812922202879e-06   1.1372918505715265e-05
2.8647704312353965e-05   -5.262812922202879e-06   1.1372918505715265e-05
2.8647704312353965e-05   -5.262812922202879e-06   1.1372918505715265e-05
3.9480519658353934e-05   -6.479513255083606e-06   2.643506659460483e-05
3.9480519658353934e-05   -6.479513255083606e-06   2.643506659460483e-05
3.9480519658353934e-05   -6.479513255083606e-06   2.643506659460483e-05
3.9480519658353934e-05   -6.479513255083606e-06   2.643506659460483e-05
1.9469358014917015e-05   -4.870986688582752e-06   -5.951753537889555e-06
1.9469358014917015e-05   -4.870986688582752e-06   -5.951753537889555e-06
1.9469358014917015e-05   -4.870986688582752e-06   -5.951753537889555e-06
1.9469358014917015e-05   -4.870986688582752e-06   -5.951753537889555e-06
1.8612429548948695e-05   -6.5919759040973525e-06   2.4551349141010417e-05
1.8612429548948695e-05   -6.5919759040973525e-06   2.4551349141010417e-05
1.8612429548948695e-05   -6.5919759040973525e-06   2.4551349141010417e-05
1.8612429548948695e-05   -6.5919759040973525e-06   2.4551349141010417e-05
3.8196427270241254e-05   -5.005413557680489e-06   -9.040584468994065e-06
3.8196427270241254e-05   -5.005413557680489e-06   -9.040584468994065e-06
3.8196427270241254e-05   -5.005413557680489e-06   -9.040584468994065e-06
3.8196427270241254e-05   -5.005413557680489e-06   -9.040584468994065e-06
2.8116786607940767e-05   -5.523042469501123e-06   8.069393981932453e-06
2.8116786607940767e-05   -5.523042469501123e-06   8.069393981932453e-06
2.8116786607940767e-05   -5.523042469501123e-06   8.069393981932453e-06
2.8116786607940767e-05   -5.523042469501123e-06   8.069393981932453e-06
3.819642727024112e-05   -6.5919759040973525e-06   2.3599411733159952e-05
3.819642727024112e-05   -6.5919759040973525e-06   2.3599411733159952e-05
3.819642727024112e-05   -6.5919759040973525e-06   2.3599411733159952e-05
3.819642727024112e-05   -6.5919759040973525e-06   2.3599411733159952e-05
1.861242954894873e-05   -5.005413557680489e-06   -8.088647061144094e-06
1.861242954894873e-05   -5.005413557680489e-06   -8.088647061144094e-06
1.861242954894873e-05   -5.005413557680489e-06   -8.088647061144094e-06
1.861242954894873e-05   -5.005413557680489e-06   -8.088647061144094e-06
1.7788021721923732e-05   -6.5477490095858844e-06   2.0575506350248513e-05
1.7788021721923732e-05   -6.5477490095858844e-06   2.0575506350248513e-05
1.7788021721923732e-05   -6.5477490095858844e-06   2.0575506350248513e-05
1.7788021721923732e-05   -6.5477490095858844e-06   2.0575506350248513e-05
3.6741635002754216e-05   -5.057813240688051e-06   -1.1907810579140914e-05
3.6741635002754216e-05   -5.057813240688051e-06   -1.1907810579140914e-05
3.6741635002754216e-05   -5.057813240688051e-06   -1.1907810579140914e-05
3.6741635002754216e-05   -5.057813240688051e-06   -1.1907810579140914e-05
2.6674311546118008e-05   -5.428914303809993e-06   5.0937224864599275e-06
2.6674311546118008e-05   -5.428914303809993e-06   5.0937224864599275e-06
2.6674311546118008e-05   -5.428914303809993e-06   5.0937224864599275e-06
2.6674311546118008e-05   -5.428914303809993e-06   5.0937224864599275e-06
2.024033214005815e-05   -2.014812657915189e-06   3.3039064356158105e-05
2.024033214005815e-05   -2.014812657915189e-06   3.3039064356158105e-05
2.024033214005815e-05   -2.014812657915189e-06   3.3039064356158105e-05
2.024033214005815e-05   -2.014812657915189e-06   3.3039064356158105e-05
8.495482542358792e-07   -8.040862292740206e-07   1.4475270703057097e-06
8.495482542358792e-07   -8.040862292740206e-07   1.4475270703057097e-06
8.495482542358792e-07   -8.040862292740206e-07   1.4475270703057097e-06
8.495482542358792e-07   -8.040862292740206e-07   1.4475270703057097e-06
1.0919346410169452e-07   -2.4228899145807992e-06   3.338026315563092e-05
1.0919346410169452e-07   -2.4228899145807992e-06   3.338026315563092e-05
1.0919346410169452e-07   -2.4228899145807992e-06   3.338026315563092e-05
1.0919346410169452e-07   -2.4228899145807992e-06   3.338026315563092e-05
1.9469358014917015e-05   -1.2794201008396126e-06   4.2724034936087124e-07
1.9469358014917015e-05   -1.2794201008396126e-06   4.2724034936087124e-07
1.9469358014917015e-05   -1.2794201008396126e-06   4.2724034936087124e-07
1.9469358014917015e-05   -1.2794201008396126e-06   4.2724034936087124e-07
1.0043606076902995e-05   -1.5701947167514035e-06   1.631129168226447e-05
1.0043606076902995e-05   -1.5701947167514035e-06   1.631129168226447e-05
1.0043606076902995e-05   -1.5701947167514035e-06   1.631129168226447e-05
1.0043606076902995e-05   -1.5701947167514035e-06   1.631129168226447e-05
1.9469358014916988e-05   -2.4228899145805824e-06   3.2694181267386296e-05
1.9469358014916988e-05   -2.4228899145805824e-06   3.2694181267386296e-05
1.9469358014916988e-05   -2.4228899145805824e-06   3.2694181267386296e-05
1.9469358014916988e-05   -2.4228899145805824e-06   3.2694181267386296e-05
1.0919346410169452e-07   -1.2794201008396126e-06   1.1133222376055914e-06
1.0919346410169452e-07   -1.2794201008396126e-06   1.1133222376055914e-06
1.0919346410169452e-07   -1.2794201008396126e-06   1.1133222376055914e-06
1.0919346410169452e-07   -1.2794201008396126e-06   1.1133222376055914e-06
-6.60376165942061e-07   -2.6897048601905605e-06   3.287447884192771e-05
-6.60376165942061e-07   -2.6897048601905605e-06   3.287447884192771e-05
-6.60376165942061e-07   -2.6897048601905605e-06   3.287447884192771e-05
-6.60376165942061e-07   -2.6897048601905605e-06   3.287447884192771e-05
1.861242954894873e-05   -1.6319047453400466e-06   1.1845591486601471e-07
1.861242954894873e-05   -1.6319047453400466e-06   1.1845591486601471e-07
1.861242954894873e-05   -1.6319047453400466e-06   1.1845591486601471e-07
1.861242954894873e-05   -1.6319047453400466e-06   1.1845591486601471e-07
9.193138198514801e-06   -1.8189585031214931e-06   1.59295070869252e-05
9.193138198514801e-06   -1.8189585031214931e-06   1.59295070869252e-05
9.193138198514801e-06   -1.8189585031214931e-06   1.59295070869252e-05
9.193138198514801e-06   -1.8189585031214931e-06   1.59295070869252e-05
1.8612429548948695e-05   -2.6897048601905605e-06   3.2239798773017444e-05
1.8612429548948695e-05   -2.6897048601905605e-06   3.2239798773017444e-05
1.8612429548948695e-05   -2.6897048601905605e-06   3.2239798773017444e-05
1.8612429548948695e-05   -2.6897048601905605e-06   3.2239798773017444e-05
-6.60376165942061e-07   -1.6319047453400466e-06   7.53135983776361e-07
-6.60376165942061e-07   -1.6319047453400466e-06   7.53135983776361e-07
-6.60376165942061e-07   -1.6319047453400466e-06   7.53135983776361e-07
-6.60376165942061e-07   -1.6319047453400466e-06   7.53135983776361e-07
-1.4615588642799592e-06   -2.8028780266924676e-06   3.312395043559538e-05
-1.4615588642799592e-06   -2.8028780266924676e-06   3.312395043559538e-05
-1.4615588642799592e-06   -2.8028780266924676e-06   3.312395043559538e-05
-1.4615588642799592e-06   -2.8028780266924676e-06   3.312395043559538e-05
1.778802172192378e-05   -1.9092219837441287e-06   5.051224994866111e-07
1.778802172192378e-05   -1.9092219837441287e-06   5.051224994866111e-07
1.778802172192378e-05   -1.9092219837441287e-06   5.051224994866111e-07
1.778802172192378e-05   -1.9092219837441287e-06   5.051224994866111e-07
8.55466264064103e-06   -1.9517964421440423e-06   1.591959897666519e-05
8.55466264064103e-06   -1.9517964421440423e-06   1.591959897666519e-05
8.55466264064103e-06   -1.9517964421440423e-06   1.591959897666519e-05
8.55466264064103e-06   -1.9517964421440423e-06   1.591959897666519e-05
8.495482542358792e-07   1.7974664796259737e-06   3.410218293446862e-05
8.495482542358792e-07   1.7974664796259737e-06   3.410218293446862e-05
8.495482542358792e-07   1.7974664796259737e-06   3.410218293446862e-05
8.495482542358792e-07   1.7974664796259737e-06   3.410218293446862e-05
-1.7976545758407032e-05   2.6040949973164546e-06   3.2093366906781615e-06
-1.7976545758407032e-05   2.6040949973164546e-06   3.2093366906781615e-06
-1.7976545758407032e-05   2.6040949973164546e-06   3.2093366906781615e-06
-1.7976545758407032e-05   2.6040949973164546e-06   3.2093366906781615e-06
-1.8750243922881698e-05   1.4861954346797029e-06   3.4569786215146074e-05
-1.8750243922881698e-05   1.4861954346797029e-06   3.4569786215146074e-05
-1.8750243922881698e-05   1.4861954346797029e-06   3.4569786215146074e-05
-1.8750243922881698e-05   1.4861954346797029e-06   3.4569786215146074e-05
1.0919346410169452e-07   2.2092702460162986e-06   2.7035456833718113e-06
1.0919346410169452e-07   2.2092702460162986e-06   2.7035456833718113e-06
1.0919346410169452e-07   2.2092702460162986e-06   2.7035456833718113e-06
1.0919346410169452e-07   2.2092702460162986e-06   2.7035456833718113e-06
-8.955805924023641e-06   2.0466617179971426e-06   1.7909443113725435e-05
-8.955805924023641e-06   2.0466617179971426e-06   1.7909443113725435e-05
-8.955805924023641e-06   2.0466617179971426e-06   1.7909443113725435e-05
-8.955805924023641e-06   2.0466617179971426e-06   1.7909443113725435e-05
1.0919346410169452e-07   1.4861954346797029e-06   3.4135941328344074e-05
1.0919346410169452e-07   1.4861954346797029e-06   3.4135941328344074e-05
1.0919346410169452e-07   1.4861954346797029e-06   3.4135941328344074e-05
1.0919346410169452e-07   1.4861954346797029e-06   3.4135941328344074e-05
-1.8750243922881698e-05   2.2092702460162986e-06   3.1373905701737037e-06
-1.8750243922881698e-05   2.2092702460162986e-06   3.1373905701737037e-06
-1.8750243922881698e-05   2.2092702460162986e-06   3.1373905701737037e-06
-1.8750243922881698e-05   2.2092702460162986e-06   3.1373905701737037e-06
-1.9567058737807272e-05   1.1964463949047308e-06   3.489409020372464e-05
-1.9567058737807272e-05   1.1964463949047308e-06   3.489409020372464e-05
-1.9567058737807272e-05   1.1964463949047308e-06   3.489409020372464e-05
-1.9567058737807272e-05   1.1964463949047308e-06   3.489409020372464e-05
-6.60376165942061e-07   1.8259279594833467e-06   3.0052636452020673e-06
-6.60376165942061e-07   1.8259279594833467e-06   3.0052636452020673e-06
-6.60376165942061e-07   1.8259279594833467e-06   3.0052636452020673e-06
-6.60376165942061e-07   1.8259279594833467e-06   3.0052636452020673e-06
-9.674412087724468e-06   1.821665674475335e-06   1.8031214219177665e-05
-9.674412087724468e-06   1.821665674475335e-06   1.8031214219177665e-05
-9.674412087724468e-06   1.821665674475335e-06   1.8031214219177665e-05
-9.674412087724468e-06   1.821665674475335e-06   1.8031214219177665e-05
-6.60376165942061e-07   1.1964463949047308e-06   3.451640126497747e-05
-6.60376165942061e-07   1.1964463949047308e-06   3.451640126497747e-05
-6.60376165942061e-07   1.1964463949047308e-06   3.451640126497747e-05
-6.60376165942061e-07   1.1964463949047308e-06   3.451640126497747e-05
-1.9567058737807272e-05   1.8259279594835635e-06   3.3829525839493453e-06
-1.9567058737807272e-05   1.8259279594835635e-06   3.3829525839493453e-06
-1.9567058737807272e-05   1.8259279594835635e-06   3.3829525839493453e-06
-1.9567058737807272e-05   1.8259279594835635e-06   3.3829525839493453e-06
-2.0409834467213686e-05   9.880062843336743e-07   3.5409910979032795e-05
-2.0409834467213686e-05   9.880062843336743e-07   3.5409910979032795e-05
-2.0409834467213686e-05   9.880062843336743e-07   3.5409910979032795e-05
-2.0409834467213686e-05   9.880062843336743e-07   3.5409910979032795e-05
-1.4615588642799592e-06   1.4847523263858148e-06   3.5314040155788357e-06
-1.4615588642799592e-06   1.4847523263858148e-06   3.5314040155788357e-06
-1.4615588642799592e-06   1.4847523263858148e-06   3.5314040155788357e-06
-1.4615588642799592e-06   1.4847523263858148e-06   3.5314040155788357e-06
-1.0452080869724228e-05   1.6061943045172708e-06   1.8442742171107635e-05
-1.0452080869724228e-05   1.6061943045172708e-06   1.8442742171107635e-05
-1.0452080869724228e-05   1.6061943045172708e-06   1.8442742171107635e-05
-1.0452080869724228e-05   1.6061943045172708e-06   1.8442742171107635e-05
-1.7976545758407087e-05   5.8466697138443834e-06   2.9761966925778488e-05
-1.7976545758407087e-05   5.8466697138443834e-06   2.9761966925778488e-05
-1.7976545758407087e-05   5.8466697138443834e-06   2.9761966925778488e-05
-1.7976545758407087e-05   5.8466697138443834e-06   2.9761966925778488e-05
-3.621696958346432e-05   5.9208398706625705e-06   -5.942373552261055e-07
-3.621696958346432e-05   5.9208398706625705e-06   -5.942373552261055e-07
-3.621696958346432e-05   5.9208398706625705e-06   -5.942373552261055e-07
-3.621696958346432e-05   5.9208398706625705e-06   -5.942373552261055e-07
-3.711508810126492e-05   5.535207724212919e-06   3.0282754691682593e-05
-3.711508810126492e-05   5.535207724212919e-06   3.0282754691682593e-05
-3.711508810126492e-05   5.535207724212919e-06   3.0282754691682593e-05
-3.711508810126492e-05   5.535207724212919e-06   3.0282754691682593e-05
-1.8750243922881725e-05   5.544440480423742e-06   -3.308585926824843e-07
-1.8750243922881725e-05   5.544440480423742e-06   -3.308585926824843e-07
-1.8750243922881725e-05   5.544440480423742e-06   -3.308585926824843e-07
-1.8750243922881725e-05   5.544440480423742e-06   -3.308585926824843e-07
-2.739178843690227e-05   5.6970715991331265e-06   1.3980136926126062e-05
-2.739178843690227e-05   5.6970715991331265e-06   1.3980136926126062e-05
-2.739178843690227e-05   5.6970715991331265e-06   1.3980136926126062e-05
-2.739178843690227e-05   5.6970715991331265e-06   1.3980136926126062e-05
-1.8750243922881725e-05   5.535207724212919e-06   3.0277215037956186e-05
-1.8750243922881725e-05   5.535207724212919e-06   3.0277215037956186e-05
-1.8750243922881725e-05   5.535207724212919e-06   3.0277215037956186e-05
-1.8750243922881725e-05   5.535207724212919e-06   3.0277215037956186e-05
-3.711508810126492e-05   5.544440480423742e-06   -3.253189389561045e-07
-3.711508810126492e-05   5.544440480423742e-06   -3.253189389561045e-07
-3.711508810126492e-05   5.544440480423742e-06   -3.253189389561045e-07
-3.711508810126492e-05   5.544440480423742e-06   -3.253189389561045e-07
-3.8110134343966317e-05   5.246609070557861e-06   3.169055368587256e-05
-3.8110134343966317e-05   5.246609070557861e-06   3.169055368587256e-05
-3.8110134343966317e-05   5.246609070557861e-06   3.169055368587256e-05
-3.8110134343966317e-05   5.246609070557861e-06   3.169055368587256e-05
-1.9567058737807313e-05   5.19690205218388e-06   8.152518866320609e-07
-1.9567058737807313e-05   5.19690205218388e-06   8.152518866320609e-07
-1.9567058737807313e-05   5.19690205218388e-06   8.152518866320609e-07
-1.9567058737807313e-05   5.19690205218388e-06   8.152518866320609e-07
-2.8040010923186966e-05   5.484862242213003e-06   1.4764062748247471e-05
-2.8040010923186966e-05   5.484862242213003e-06   1.4764062748247471e-05
-2.8040010923186966e-05   5.484862242213003e-06   1.4764062748247471e-05
-2.8040010923186966e-05   5.484862242213003e-06   1.4764062748247471e-05
-1.9567058737807272e-05   5.246609070557861e-06   3.172037789689699e-05
-1.9567058737807272e-05   5.246609070557861e-06   3.172037789689699e-05
-1.9567058737807272e-05   5.246609070557861e-06   3.172037789689699e-05
-1.9567058737807272e-05   5.246609070557861e-06   3.172037789689699e-05
-3.8110134343966317e-05   5.19690205218388e-06   7.854276756073851e-07
-3.8110134343966317e-05   5.19690205218388e-06   7.854276756073851e-07
-3.8110134343966317e-05   5.19690205218388e-06   7.854276756073851e-07
-3.8110134343966317e-05   5.19690205218388e-06   7.854276756073851e-07
-3.905824588753003e-05   4.858023403525808e-06   3.270434283487436e-05
-3.905824588753003e-05   4.858023403525808e-06   3.270434283487436e-05
-3.905824588753003e-05   4.858023403525808e-06   3.270434283487436e-05
-3.905824588753003e-05   4.858023403525808e-06   3.270434283487436e-05
-2.0409834467213686e-05   4.7719863398431196e-06   1.6752793725569352e-06
-2.0409834467213686e-05   4.7719863398431196e-06   1.6752793725569352e-06
-2.0409834467213686e-05   4.7719863398431196e-06   1.6752793725569352e-06
-2.0409834467213686e-05   4.7719863398431196e-06   1.6752793725569352e-06
-2.9073697945551245e-05   5.2085248878092506e-06   1.5853128707674427e-05
-2.9073697945551245e-05   5.2085248878092506e-06   1.5853128707674427e-05
-2.9073697945551245e-05   5.2085248878092506e-06   1.5853128707674427e-05
-2.9073697945551245e-05   5.2085248878092506e-06   1.5853128707674427e-05
-3.621696958346424e-05   9.508605715262105e-06   1.4312783869243218e-05
-3.621696958346424e-05   9.508605715262105e-06   1.4312783869243218e-05
-3.621696958346424e-05   9.508605715262105e-06   1.4312783869243218e-05
-3.621696958346424e-05   9.508605715262105e-06   1.4312783869243218e-05
-5.3561872199154274e-05   8.530662824028168e-06   -1.5182152891646912e-05
-5.3561872199154274e-05   8.530662824028168e-06   -1.5182152891646912e-05
-5.3561872199154274e-05   8.530662824028168e-06   -1.5182152891646912e-05
-5.3561872199154274e-05   8.530662824028168e-06   -1.5182152891646912e-05
-5.4976356269141315e-05   9.693757267129066e-06   1.9867890022307825e-05
-5.4976356269141315e-05   9.693757267129066e-06   1.9867890022307825e-05
-5.4976356269141315e-05   9.693757267129066e-06   1.9867890022307825e-05
-5.4976356269141315e-05   9.693757267129066e-06   1.9867890022307825e-05
-3.711508810126492e-05   8.623087264666117e-06   -9.258488256008376e-06
-3.711508810126492e-05   8.623087264666117e-06   -9.258488256008376e-06
-3.711508810126492e-05   8.623087264666117e-06   -9.258488256008376e-06
-3.711508810126492e-05   8.623087264666117e-06   -9.258488256008376e-06
-4.3726267688550384e-05   9.034894291659167e-06   1.5130601732713921e-06
-4.3726267688550384e-05   9.034894291659167e-06   1.5130601732713921e-06
-4.3726267688550384e-05   9.034894291659167e-06   1.5130601732713921e-06
-4.3726267688550384e-05   9.034894291659167e-06   1.5130601732713921e-06
-3.711508810126481e-05   9.693757267129066e-06   2.0510292023785638e-05
-3.711508810126481e-05   9.693757267129066e-06   2.0510292023785638e-05
-3.711508810126481e-05   9.693757267129066e-06   2.0510292023785638e-05
-3.711508810126481e-05   9.693757267129066e-06   2.0510292023785638e-05
-5.497635626914142e-05   8.623087264666117e-06   -9.90089025748619e-06
-5.497635626914142e-05   8.623087264666117e-06   -9.90089025748619e-06
-5.497635626914142e-05   8.623087264666117e-06   -9.90089025748619e-06
-5.497635626914142e-05   8.623087264666117e-06   -9.90089025748619e-06
-5.6357001579800055e-05   9.624822038684696e-06   2.4187278888337287e-05
-5.6357001579800055e-05   9.624822038684696e-06   2.4187278888337287e-05
-5.6357001579800055e-05   9.624822038684696e-06   2.4187278888337287e-05
-5.6357001579800055e-05   9.624822038684696e-06   2.4187278888337287e-05
-3.8110134343966317e-05   8.528724521187237e-06   -5.5665079942208875e-06
-3.8110134343966317e-05   8.528724521187237e-06   -5.5665079942208875e-06
-3.8110134343966317e-05   8.528724521187237e-06   -5.5665079942208875e-06
-3.8110134343966317e-05   8.528724521187237e-06   -5.5665079942208875e-06
-4.546781271603736e-05   9.200578360880462e-06   6.2931769887492744e-06
-4.546781271603736e-05   9.200578360880462e-06   6.2931769887492744e-06
-4.546781271603736e-05   9.200578360880462e-06   6.2931769887492744e-06
-4.546781271603736e-05   9.200578360880462e-06   6.2931769887492744e-06
-3.8110134343966317e-05   9.624822038684479e-06   2.4844937398835632e-05
-3.8110134343966317e-05   9.624822038684479e-06   2.4844937398835632e-05
-3.8110134343966317e-05   9.624822038684479e-06   2.4844937398835632e-05
-3.8110134343966317e-05   9.624822038684479e-06   2.4844937398835632e-05
-5.635700157980011e-05   8.528724521187454e-06   -6.2241665047191785e-06
-5.635700157980011e-05   8.528724521187454e-06   -6.2241665047191785e-06
-5.635700157980011e-05   8.528724521187454e-06   -6.2241665047191785e-06
-5.635700157980011e-05   8.528724521187454e-06   -6.2241665047191785e-06
-5.7968900142204194e-05   8.86304799257347e-06   3.158386122574259e-05
-5.7968900142204194e-05   8.86304799257347e-06   3.158386122574259e-05
-5.7968900142204194e-05   8.86304799257347e-06   3.158386122574259e-05
-5.7968900142204194e-05   8.86304799257347e-06   3.158386122574259e-05
-3.905824588753003e-05   7.872476034330358e-06   6.604473095643722e-07
-3.905824588753003e-05   7.872476034330358e-06   6.604473095643722e-07
-3.905824588753003e-05   7.872476034330358e-06   6.604473095643722e-07
-3.905824588753003e-05   7.872476034330358e-06   6.604473095643722e-07
-4.5904719520112626e-05   8.9297111964615e-06   1.1436895599924223e-05
-4.5904719520112626e-05   8.9297111964615e-06   1.1436895599924223e-05
-4.5904719520112626e-05   8.9297111964615e-06   1.1436895599924223e-05
-4.5904719520112626e-05   8.9297111964615e-06   1.1436895599924223e-05
3.10950099963197e-05   -4.199955914574146e-06   2.634791376288537e-05
3.10950099963197e-05   -4.199955914574146e-06   2.634791376288537e-05
3.10950099963197e-05   -4.199955914574146e-06   2.634791376288537e-05
3.10950099963197e-05   -4.199955914574146e-06   2.634791376288537e-05
1.4634520698894564e-05   -2.781511826139291e-06   -2.3516861309561335e-07
1.4634520698894564e-05   -2.781511826139291e-06   -2.3516861309561335e-07
1.4634520698894564e-05   -2.781511826139291e-06   -2.3516861309561335e-07
1.4634520698894564e-05   -2.781511826139291e-06   -2.3516861309561335e-07
1.394554004086725e-05   -4.8709866885825355e-06   2.314586283797557e-05
1.394554004086725e-05   -4.8709866885825355e-06   2.314586283797557e-05
1.394554004086725e-05   -4.8709866885825355e-06   2.314586283797557e-05
1.394554004086725e-05   -4.8709866885825355e-06   2.314586283797557e-05
2.9761657297945038e-05   -3.373888692555834e-06   -4.112591388103341e-06
2.9761657297945038e-05   -3.373888692555834e-06   -4.112591388103341e-06
2.9761657297945038e-05   -3.373888692555834e-06   -4.112591388103341e-06
2.9761657297945038e-05   -3.373888692555834e-06   -4.112591388103341e-06
2.1307553431741432e-05   -3.835175997747402e-06   1.0254354105350931e-05
2.1307553431741432e-05   -3.835175997747402e-06   1.0254354105350931e-05
2.1307553431741432e-05   -3.835175997747402e-06   1.0254354105350931e-05
2.1307553431741432e-05   -3.835175997747402e-06   1.0254354105350931e-05
2.9761657297945038e-05   -4.8709866885825355e-06   2.224760404035981e-05
2.9761657297945038e-05   -4.8709866885825355e-06   2.224760404035981e-05
2.9761657297945038e-05   -4.8709866885825355e-06   2.224760404035981e-05
2.9761657297945038e-05   -4.8709866885825355e-06   2.224760404035981e-05
1.3945540040867273e-05   -3.373888692555834e-06   -3.214332590487567e-06
1.3945540040867273e-05   -3.373888692555834e-06   -3.214332590487567e-06
1.3945540040867273e-05   -3.373888692555834e-06   -3.214332590487567e-06
1.3945540040867273e-05   -3.373888692555834e-06   -3.214332590487567e-06
1.3184771240331054e-05   -5.005413557680489e-06   2.08955928657393e-05
1.3184771240331054e-05   -5.005413557680489e-06   2.08955928657393e-05
1.3184771240331054e-05   -5.005413557680489e-06   2.08955928657393e-05
1.3184771240331054e-05   -5.005413557680489e-06   2.08955928657393e-05
2.8592731132836335e-05   -3.531828091351977e-06   -5.6684915682330865e-06
2.8592731132836335e-05   -3.531828091351977e-06   -5.6684915682330865e-06
2.8592731132836335e-05   -3.531828091351977e-06   -5.6684915682330865e-06
2.8592731132836335e-05   -3.531828091351977e-06   -5.6684915682330865e-06
2.075710823449971e-05   -4.075692672429916e-06   7.71719867764196e-06
2.075710823449971e-05   -4.075692672429916e-06   7.71719867764196e-06
2.075710823449971e-05   -4.075692672429916e-06   7.71719867764196e-06
2.075710823449971e-05   -4.075692672429916e-06   7.71719867764196e-06
2.8592731132836287e-05   -5.005413557680489e-06   2.001144158594241e-05
2.8592731132836287e-05   -5.005413557680489e-06   2.001144158594241e-05
2.8592731132836287e-05   -5.005413557680489e-06   2.001144158594241e-05
2.8592731132836287e-05   -5.005413557680489e-06   2.001144158594241e-05
1.3184771240331077e-05   -3.531828091351977e-06   -4.784340288435966e-06
1.3184771240331077e-05   -3.531828091351977e-06   -4.784340288435966e-06
1.3184771240331077e-05   -3.531828091351977e-06   -4.784340288435966e-06
1.3184771240331077e-05   -3.531828091351977e-06   -4.784340288435966e-06
1.2482133298946452e-05   -5.057813240687834e-06   1.7845015932355535e-05
1.2482133298946452e-05   -5.057813240687834e-06   1.7845015932355535e-05
1.2482133298946452e-05   -5.057813240687834e-06   1.7845015932355535e-05
1.2482133298946452e-05   -5.057813240687834e-06   1.7845015932355535e-05
2.7286135151587874e-05   -3.6779773658929694e-06   -7.656222013590477e-06
2.7286135151587874e-05   -3.6779773658929694e-06   -7.656222013590477e-06
2.7286135151587874e-05   -3.6779773658929694e-06   -7.656222013590477e-06
2.7286135151587874e-05   -3.6779773658929694e-06   -7.656222013590477e-06
1.9534711486157953e-05   -4.051632750135198e-06   5.48701065933846e-06
1.9534711486157953e-05   -4.051632750135198e-06   5.48701065933846e-06
1.9534711486157953e-05   -4.051632750135198e-06   5.48701065933846e-06
1.9534711486157953e-05   -4.051632750135198e-06   5.48701065933846e-06
1.4634520698894513e-05   -8.040862292740206e-07   2.992172567260103e-05
1.4634520698894513e-05   -8.040862292740206e-07   2.992172567260103e-05
1.4634520698894513e-05   -8.040862292740206e-07   2.992172567260103e-05
1.4634520698894513e-05   -8.040862292740206e-07   2.992172567260103e-05
-9.432349684444351e-07   -1.7323393065957898e-08   4.430857262094465e-06
-9.432349684444351e-07   -1.7323393065957898e-08   4.430857262094465e-06
-9.432349684444351e-07   -1.7323393065957898e-08   4.430857262094465e-06
-9.432349684444351e-07   -1.7323393065957898e-08   4.430857262094465e-06
-1.5911417198486712e-06   -1.2794201008396126e-06   2.997328352254288e-05
-1.5911417198486712e-06   -1.2794201008396126e-06   2.997328352254288e-05
-1.5911417198486712e-06   -1.2794201008396126e-06   2.997328352254288e-05
-1.5911417198486712e-06   -1.2794201008396126e-06   2.997328352254288e-05
1.3945540040867273e-05   -5.320421053111278e-07   3.630387124032657e-06
1.3945540040867273e-05   -5.320421053111278e-07   3.630387124032657e-06
1.3945540040867273e-05   -5.320421053111278e-07   3.630387124032657e-06
1.3945540040867273e-05   -5.320421053111278e-07   3.630387124032657e-06
6.405842431849505e-06   -6.769909076792795e-07   1.6283519087149763e-05
6.405842431849505e-06   -6.769909076792795e-07   1.6283519087149763e-05
6.405842431849505e-06   -6.769909076792795e-07   1.6283519087149763e-05
6.405842431849505e-06   -6.769909076792795e-07   1.6283519087149763e-05
1.3945540040867215e-05   -1.2794201008396126e-06   2.9524856725225875e-05
1.3945540040867215e-05   -1.2794201008396126e-06   2.9524856725225875e-05
1.3945540040867215e-05   -1.2794201008396126e-06   2.9524856725225875e-05
1.3945540040867215e-05   -1.2794201008396126e-06   2.9524856725225875e-05
-1.5911417198486712e-06   -5.320421053111278e-07   4.078813921349722e-06
-1.5911417198486712e-06   -5.320421053111278e-07   4.078813921349722e-06
-1.5911417198486712e-06   -5.320421053111278e-07   4.078813921349722e-06
-1.5911417198486712e-06   -5.320421053111278e-07   4.078813921349722e-06
-2.2529024129930503e-06   -1.6319047453400466e-06   2.9519484391504758e-05
-2.2529024129930503e-06   -1.6319047453400466e-06   2.9519484391504758e-05
-2.2529024129930503e-06   -1.6319047453400466e-06   2.9519484391504758e-05
-2.2529024129930503e-06   -1.6319047453400466e-06   2.9519484391504758e-05
1.3184771240331077e-05   -9.372571624145266e-07   3.373239752875962e-06
1.3184771240331077e-05   -9.372571624145266e-07   3.373239752875962e-06
1.3184771240331077e-05   -9.372571624145266e-07   3.373239752875962e-06
1.3184771240331077e-05   -9.372571624145266e-07   3.373239752875962e-06
5.678645505926706e-06   -9.943801789387158e-07   1.5917723120132055e-05
5.678645505926706e-06   -9.943801789387158e-07   1.5917723120132055e-05
5.678645505926706e-06   -9.943801789387158e-07   1.5917723120132055e-05
5.678645505926706e-06   -9.943801789387158e-07   1.5917723120132055e-05
1.3184771240331054e-05   -1.6319047453402635e-06   2.9102695841749272e-05
1.3184771240331054e-05   -1.6319047453402635e-06   2.9102695841749272e-05
1.3184771240331054e-05   -1.6319047453402635e-06   2.9102695841749272e-05
1.3184771240331054e-05   -1.6319047453402635e-06   2.9102695841749272e-05
-2.2529024129930503e-06   -9.372571624145266e-07   3.7900283026311155e-06
-2.2529024129930503e-06   -9.372571624145266e-07   3.7900283026311155e-06
-2.2529024129930503e-06   -9.372571624145266e-07   3.7900283026311155e-06
-2.2529024129930503e-06   -9.372571624145266e-07   3.7900283026311155e-06
-2.9182955004938404e-06   -1.9092219837441287e-06   2.972237393363583e-05
-2.9182955004938404e-06   -1.9092219837441287e-06   2.972237393363583e-05
-2.9182955004938404e-06   -1.9092219837441287e-06   2.972237393363583e-05
-2.9182955004938404e-06   -1.9092219837441287e-06   2.972237393363583e-05
1.2482133298946463e-05   -1.3119113437577712e-06   3.6966062172434435e-06
1.2482133298946463e-05   -1.3119113437577712e-06   3.6966062172434435e-06
1.2482133298946463e-05   -1.3119113437577712e-06   3.6966062172434435e-06
1.2482133298946463e-05   -1.3119113437577712e-06   3.6966062172434435e-06
5.124077732568775e-06   -1.2287201286642017e-06   1.5910117432150662e-05
5.124077732568775e-06   -1.2287201286642017e-06   1.5910117432150662e-05
5.124077732568775e-06   -1.2287201286642017e-06   1.5910117432150662e-05
5.124077732568775e-06   -1.2287201286642017e-06   1.5910117432150662e-05
-9.432349684444351e-07   2.6040949973164546e-06   3.1671615884084226e-05
-9.432349684444351e-07   2.6040949973164546e-06   3.1671615884084226e-05
-9.432349684444351e-07   2.6040949973164546e-06   3.1671615884084226e-05
-9.432349684444351e-07   2.6040949973164546e-06   3.1671615884084226e-05
-1.6194095049588752e-05   2.6815410051265857e-06   6.2999833535296555e-06
-1.6194095049588752e-05   2.6815410051265857e-06   6.2999833535296555e-06
-1.6194095049588752e-05   2.6815410051265857e-06   6.2999833535296555e-06
-1.6194095049588752e-05   2.6815410051265857e-06   6.2999833535296555e-06
-1.6845660719537464e-05   2.2092702460162986e-06   3.157584737766158e-05
-1.6845660719537464e-05   2.2092702460162986e-06   3.157584737766158e-05
-1.6845660719537464e-05   2.2092702460162986e-06   3.157584737766158e-05
-1.6845660719537464e-05   2.2092702460162986e-06   3.157584737766158e-05
-1.5911417198486712e-06   2.2298375949370616e-06   6.139308635494498e-06
-1.5911417198486712e-06   2.2298375949370616e-06   6.139308635494498e-06
-1.5911417198486712e-06   2.2298375949370616e-06   6.139308635494498e-06
-1.5911417198486712e-06   2.2298375949370616e-06   6.139308635494498e-06
-8.916577620861909e-06   2.388347135400589e-06   1.8253262746238642e-05
-8.916577620861909e-06   2.388347135400589e-06   1.8253262746238642e-05
-8.916577620861909e-06   2.388347135400589e-06   1.8253262746238642e-05
-8.916577620861909e-06   2.388347135400589e-06   1.8253262746238642e-05
-1.5911417198486712e-06   2.2092702460162986e-06   3.156350696830921e-05
-1.5911417198486712e-06   2.2092702460162986e-06   3.156350696830921e-05
-1.5911417198486712e-06   2.2092702460162986e-06   3.156350696830921e-05
-1.5911417198486712e-06   2.2092702460162986e-06   3.156350696830921e-05
-1.6845660719537464e-05   2.2298375949370616e-06   6.151649044846977e-06
-1.6845660719537464e-05   2.2298375949370616e-06   6.151649044846977e-06
-1.6845660719537464e-05   2.2298375949370616e-06   6.151649044846977e-06
-1.6845660719537464e-05   2.2298375949370616e-06   6.151649044846977e-06
-1.751340417697228e-05   1.8259279594835635e-06   3.174725324524329e-05
-1.751340417697228e-05   1.8259279594835635e-06   3.174725324524329e-05
-1.751340417697228e-05   1.8259279594835635e-06   3.174725324524329e-05
-1.751340417697228e-05   1.8259279594835635e-06   3.174725324524329e-05
-2.2529024129930503e-06   1.7853299466713546e-06   6.337442446298488e-06
-2.2529024129930503e-06   1.7853299466713546e-06   6.337442446298488e-06
-2.2529024129930503e-06   1.7853299466713546e-06   6.337442446298488e-06
-2.2529024129930503e-06   1.7853299466713546e-06   6.337442446298488e-06
-9.521374991723063e-06   2.0848933427308064e-06   1.8271825373213394e-05
-9.521374991723063e-06   2.0848933427308064e-06   1.8271825373213394e-05
-9.521374991723063e-06   2.0848933427308064e-06   1.8271825373213394e-05
-9.521374991723063e-06   2.0848933427308064e-06   1.8271825373213394e-05
-2.2529024129930503e-06   1.8259279594835635e-06   3.177161205293079e-05
-2.2529024129930503e-06   1.8259279594835635e-06   3.177161205293079e-05
-2.2529024129930503e-06   1.8259279594835635e-06   3.177161205293079e-05
-2.2529024129930503e-06   1.8259279594835635e-06   3.177161205293079e-05
-1.7513404176972333e-05   1.7853299466713546e-06   6.313083638610989e-06
-1.7513404176972333e-05   1.7853299466713546e-06   6.313083638610989e-06
-1.7513404176972333e-05   1.7853299466713546e-06   6.313083638610989e-06
-1.7513404176972333e-05   1.7853299466713546e-06   6.313083638610989e-06
-1.8180796810680173e-05   1.484752326385598e-06   3.213975447704815e-05
-1.8180796810680173e-05   1.484752326385598e-06   3.213975447704815e-05
-1.8180796810680173e-05   1.484752326385598e-06   3.213975447704815e-05
-1.8180796810680173e-05   1.484752326385598e-06   3.213975447704815e-05
-2.9182955004938404e-06   1.36357341486734e-06   6.774959640315156e-06
-2.9182955004938404e-06   1.36357341486734e-06   6.774959640315156e-06
-2.9182955004938404e-06   1.36357341486734e-06   6.774959640315156e-06
-2.9182955004938404e-06   1.36357341486734e-06   6.774959640315156e-06
-1.0154621680517217e-05   1.7892701315905778e-06   1.8580085243654124e-05
-1.0154621680517217e-05   1.7892701315905778e-06   1.8580085243654124e-05
-1.0154621680517217e-05   1.7892701315905778e-06   1.8580085243654124e-05
-1.0154621680517217e-05   1.7892701315905778e-06   1.8580085243654124e-05
-1.6194095049588725e-05   5.9208398706625705e-06   2.7870007348774952e-05
-1.6194095049588725e-05   5.9208398706625705e-06   2.7870007348774952e-05
-1.6194095049588725e-05   5.9208398706625705e-06   2.7870007348774952e-05
-1.6194095049588725e-05   5.9208398706625705e-06   2.7870007348774952e-05
-3.111294191446485e-05   5.2795530147825825e-06   2.620490460453662e-06
-3.111294191446485e-05   5.2795530147825825e-06   2.620490460453662e-06
-3.111294191446485e-05   5.2795530147825825e-06   2.620490460453662e-06
-3.111294191446485e-05   5.2795530147825825e-06   2.620490460453662e-06
-3.1814184732264686e-05   5.544440480423742e-06   2.7689401722972608e-05
-3.1814184732264686e-05   5.544440480423742e-06   2.7689401722972608e-05
-3.1814184732264686e-05   5.544440480423742e-06   2.7689401722972608e-05
-3.1814184732264686e-05   5.544440480423742e-06   2.7689401722972608e-05
-1.684566071953749e-05   4.847446327368825e-06   3.160058193593543e-06
-1.684566071953749e-05   4.847446327368825e-06   3.160058193593543e-06
-1.684566071953749e-05   4.847446327368825e-06   3.160058193593543e-06
-1.684566071953749e-05   4.847446327368825e-06   3.160058193593543e-06
-2.3912321574655966e-05   5.327084608844519e-06   1.4650043316572175e-05
-2.3912321574655966e-05   5.327084608844519e-06   1.4650043316572175e-05
-2.3912321574655966e-05   5.327084608844519e-06   1.4650043316572175e-05
-2.3912321574655966e-05   5.327084608844519e-06   1.4650043316572175e-05
-1.6845660719537464e-05   5.544440480423525e-06   2.810759821480547e-05
-1.6845660719537464e-05   5.544440480423525e-06   2.810759821480547e-05
-1.6845660719537464e-05   5.544440480423525e-06   2.810759821480547e-05
-1.6845660719537464e-05   5.544440480423525e-06   2.810759821480547e-05
-3.1814184732264605e-05   4.847446327368825e-06   2.7418617017606253e-06
-3.1814184732264605e-05   4.847446327368825e-06   2.7418617017606253e-06
-3.1814184732264605e-05   4.847446327368825e-06   2.7418617017606253e-06
-3.1814184732264605e-05   4.847446327368825e-06   2.7418617017606253e-06
-3.258591642363255e-05   5.19690205218388e-06   2.8728037387622295e-05
-3.258591642363255e-05   5.19690205218388e-06   2.8728037387622295e-05
-3.258591642363255e-05   5.19690205218388e-06   2.8728037387622295e-05
-3.258591642363255e-05   5.19690205218388e-06   2.8728037387622295e-05
-1.7513404176972333e-05   4.444376785010893e-06   4.058698803492157e-06
-1.7513404176972333e-05   4.444376785010893e-06   4.058698803492157e-06
-1.7513404176972333e-05   4.444376785010893e-06   4.058698803492157e-06
-1.7513404176972333e-05   4.444376785010893e-06   4.058698803492157e-06
-2.441472607523588e-05   5.0514191982375944e-06   1.519667651932947e-05
-2.441472607523588e-05   5.0514191982375944e-06   1.519667651932947e-05
-2.441472607523588e-05   5.0514191982375944e-06   1.519667651932947e-05
-2.441472607523588e-05   5.0514191982375944e-06   1.519667651932947e-05
-1.7513404176972306e-05   5.196902052183663e-06   2.917955254792587e-05
-1.7513404176972306e-05   5.196902052183663e-06   2.917955254792587e-05
-1.7513404176972306e-05   5.196902052183663e-06   2.917955254792587e-05
-1.7513404176972306e-05   5.196902052183663e-06   2.917955254792587e-05
-3.2585916423632496e-05   4.444376785010893e-06   3.607183643188419e-06
-3.2585916423632496e-05   4.444376785010893e-06   3.607183643188419e-06
-3.2585916423632496e-05   4.444376785010893e-06   3.607183643188419e-06
-3.2585916423632496e-05   4.444376785010893e-06   3.607183643188419e-06
-3.329128445883991e-05   4.7719863398431196e-06   2.9507140105814985e-05
-3.329128445883991e-05   4.7719863398431196e-06   2.9507140105814985e-05
-3.329128445883991e-05   4.7719863398431196e-06   2.9507140105814985e-05
-3.329128445883991e-05   4.7719863398431196e-06   2.9507140105814985e-05
-1.81807968106802e-05   3.974582834876186e-06   4.801436128528769e-06
-1.81807968106802e-05   3.974582834876186e-06   4.801436128528769e-06
-1.81807968106802e-05   3.974582834876186e-06   4.801436128528769e-06
-1.81807968106802e-05   3.974582834876186e-06   4.801436128528769e-06
-2.5216057857867284e-05   4.739971438592026e-06   1.6067638044945797e-05
-2.5216057857867284e-05   4.739971438592026e-06   1.6067638044945797e-05
-2.5216057857867284e-05   4.739971438592026e-06   1.6067638044945797e-05
-2.5216057857867284e-05   4.739971438592026e-06   1.6067638044945797e-05
-3.111294191446485e-05   8.530662824028168e-06   1.348408543356671e-05
-3.111294191446485e-05   8.530662824028168e-06   1.348408543356671e-05
-3.111294191446485e-05   8.530662824028168e-06   1.348408543356671e-05
-3.111294191446485e-05   8.530662824028168e-06   1.348408543356671e-05
-4.529093967756587e-05   7.281964020733724e-06   -1.0895130120245331e-05
-4.529093967756587e-05   7.281964020733724e-06   -1.0895130120245331e-05
-4.529093967756587e-05   7.281964020733724e-06   -1.0895130120245331e-05
-4.529093967756587e-05   7.281964020733724e-06   -1.0895130120245331e-05
-4.655173450006725e-05   8.623087264666117e-06   1.7930746242701082e-05
-4.655173450006725e-05   8.623087264666117e-06   1.7930746242701082e-05
-4.655173450006725e-05   8.623087264666117e-06   1.7930746242701082e-05
-4.655173450006725e-05   8.623087264666117e-06   1.7930746242701082e-05
-3.1814184732264686e-05   7.247276992634064e-06   -5.806350540417675e-06
-3.1814184732264686e-05   7.247276992634064e-06   -5.806350540417675e-06
-3.1814184732264686e-05   7.247276992634064e-06   -5.806350540417675e-06
-3.1814184732264686e-05   7.247276992634064e-06   -5.806350540417675e-06
-3.722012574560689e-05   7.80405776957269e-06   2.869482682323055e-06
-3.722012574560689e-05   7.80405776957269e-06   2.869482682323055e-06
-3.722012574560689e-05   7.80405776957269e-06   2.869482682323055e-06
-3.722012574560689e-05   7.80405776957269e-06   2.869482682323055e-06
-3.181418473226463e-05   8.623087264666117e-06   1.8756232405920227e-05
-3.181418473226463e-05   8.623087264666117e-06   1.8756232405920227e-05
-3.181418473226463e-05   8.623087264666117e-06   1.8756232405920227e-05
-3.181418473226463e-05   8.623087264666117e-06   1.8756232405920227e-05
-4.65517345000673e-05   7.247276992634064e-06   -6.63183670363682e-06
-4.65517345000673e-05   7.247276992634064e-06   -6.63183670363682e-06
-4.65517345000673e-05   7.247276992634064e-06   -6.63183670363682e-06
-4.65517345000673e-05   7.247276992634064e-06   -6.63183670363682e-06
-4.7680094330760194e-05   8.528724521187237e-06   2.151896562816412e-05
-4.7680094330760194e-05   8.528724521187237e-06   2.151896562816412e-05
-4.7680094330760194e-05   8.528724521187237e-06   2.151896562816412e-05
-4.7680094330760194e-05   8.528724521187237e-06   2.151896562816412e-05
-3.258591642363255e-05   7.100164371804914e-06   -2.780861460752529e-06
-3.258591642363255e-05   7.100164371804914e-06   -2.780861460752529e-06
-3.258591642363255e-05   7.100164371804914e-06   -2.780861460752529e-06
-3.258591642363255e-05   7.100164371804914e-06   -2.780861460752529e-06
-3.867170694099604e-05   7.890870826696974e-06   6.887698861919632e-06
-3.867170694099604e-05   7.890870826696974e-06   6.887698861919632e-06
-3.867170694099604e-05   7.890870826696974e-06   6.887698861919632e-06
-3.867170694099604e-05   7.890870826696974e-06   6.887698861919632e-06
-3.258591642363255e-05   8.528724521187454e-06   2.237610171779386e-05
-3.258591642363255e-05   8.528724521187454e-06   2.237610171779386e-05
-3.258591642363255e-05   8.528724521187454e-06   2.237610171779386e-05
-3.258591642363255e-05   8.528724521187454e-06   2.237610171779386e-05
-4.768009433076036e-05   7.100164371804914e-06   -3.637997550382053e-06
-4.768009433076036e-05   7.100164371804914e-06   -3.637997550382053e-06
-4.768009433076036e-05   7.100164371804914e-06   -3.637997550382053e-06
-4.768009433076036e-05   7.100164371804914e-06   -3.637997550382053e-06
-4.8976161271372694e-05   7.872476034330358e-06   2.7690353178647922e-05
-4.8976161271372694e-05   7.872476034330358e-06   2.7690353178647922e-05
-4.8976161271372694e-05   7.872476034330358e-06   2.7690353178647922e-05
-4.8976161271372694e-05   7.872476034330358e-06   2.7690353178647922e-05
-3.329128445883991e-05   6.449847530357045e-06   2.402468926810612e-06
-3.329128445883991e-05   6.449847530357045e-06   2.402468926810612e-06
-3.329128445883991e-05   6.449847530357045e-06   2.402468926810612e-06
-3.329128445883991e-05   6.449847530357045e-06   2.402468926810612e-06
-3.897813463395033e-05   7.621075901937269e-06   1.1177815529047036e-05
-3.897813463395033e-05   7.621075901937269e-06   1.1177815529047036e-05
-3.897813463395033e-05   7.621075901937269e-06   1.1177815529047036e-05
-3.897813463395033e-05   7.621075901937269e-06   1.1177815529047036e-05
2.1468407435700546e-05   -2.781511826139291e-06   2.147977669271755e-05
2.1468407435700546e-05   -2.781511826139291e-06   2.147977669271755e-05
2.1468407435700546e-05   -2.781511826139291e-06   2.147977669271755e-05
2.1468407435700546e-05   -2.781511826139291e-06   2.147977669271755e-05
8.910895148021782e-06   -1.3737383883080049e-06   1.395253609284895e-06
8.910895148021782e-06   -1.3737383883080049e-06   1.395253609284895e-06
8.910895148021782e-06   -1.3737383883080049e-06   1.395253609284895e-06
8.910895148021782e-06   -1.3737383883080049e-06   1.395253609284895e-06
8.356197225536117e-06   -3.373888692555834e-06   1.9307041149310505e-05
8.356197225536117e-06   -3.373888692555834e-06   1.9307041149310505e-05
8.356197225536117e-06   -3.373888692555834e-06   1.9307041149310505e-05
8.356197225536117e-06   -3.373888692555834e-06   1.9307041149310505e-05
2.0286955378353037e-05   -1.9042653522864227e-06   -1.4593297762128214e-06
2.0286955378353037e-05   -1.9042653522864227e-06   -1.4593297762128214e-06
2.0286955378353037e-05   -1.9042653522864227e-06   -1.4593297762128214e-06
2.0286955378353037e-05   -1.9042653522864227e-06   -1.4593297762128214e-06
1.4021766763939978e-05   -2.4146033047460665e-06   9.288854019285225e-06
1.4021766763939978e-05   -2.4146033047460665e-06   9.288854019285225e-06
1.4021766763939978e-05   -2.4146033047460665e-06   9.288854019285225e-06
1.4021766763939978e-05   -2.4146033047460665e-06   9.288854019285225e-06
2.028695537835307e-05   -3.373888692555834e-06   1.8425267145148858e-05
2.028695537835307e-05   -3.373888692555834e-06   1.8425267145148858e-05
2.028695537835307e-05   -3.373888692555834e-06   1.8425267145148858e-05
2.028695537835307e-05   -3.373888692555834e-06   1.8425267145148858e-05
8.356197225536086e-06   -1.9042653522864227e-06   -5.775557720510797e-07
8.356197225536086e-06   -1.9042653522864227e-06   -5.775557720510797e-07
8.356197225536086e-06   -1.9042653522864227e-06   -5.775557720510797e-07
8.356197225536086e-06   -1.9042653522864227e-06   -5.775557720510797e-07
7.732849233112333e-06   -3.531828091351977e-06   1.7694230593693944e-05
7.732849233112333e-06   -3.531828091351977e-06   1.7694230593693944e-05
7.732849233112333e-06   -3.531828091351977e-06   1.7694230593693944e-05
7.732849233112333e-06   -3.531828091351977e-06   1.7694230593693944e-05
1.9272409428644587e-05   -2.086550605414012e-06   -2.405536223755938e-06
1.9272409428644587e-05   -2.086550605414012e-06   -2.405536223755938e-06
1.9272409428644587e-05   -2.086550605414012e-06   -2.405536223755938e-06
1.9272409428644587e-05   -2.086550605414012e-06   -2.405536223755938e-06
1.3497874953380643e-05   -2.63975731718772e-06   7.55061192874865e-06
1.3497874953380643e-05   -2.63975731718772e-06   7.55061192874865e-06
1.3497874953380643e-05   -2.63975731718772e-06   7.55061192874865e-06
1.3497874953380643e-05   -2.63975731718772e-06   7.55061192874865e-06
1.927240942864462e-05   -3.531828091351977e-06   1.682706410213112e-05
1.927240942864462e-05   -3.531828091351977e-06   1.682706410213112e-05
1.927240942864462e-05   -3.531828091351977e-06   1.682706410213112e-05
1.927240942864462e-05   -3.531828091351977e-06   1.682706410213112e-05
7.73284923311232e-06   -2.086550605414012e-06   -1.5383697321931424e-06
7.73284923311232e-06   -2.086550605414012e-06   -1.5383697321931424e-06
7.73284923311232e-06   -2.086550605414012e-06   -1.5383697321931424e-06
7.73284923311232e-06   -2.086550605414012e-06   -1.5383697321931424e-06
7.173937906573089e-06   -3.6779773658929694e-06   1.5597404585035186e-05
7.173937906573089e-06   -3.6779773658929694e-06   1.5597404585035186e-05
7.173937906573089e-06   -3.6779773658929694e-06   1.5597404585035186e-05
7.173937906573089e-06   -3.6779773658929694e-06   1.5597404585035186e-05
1.8121104967170675e-05   -2.326398744360858e-06   -3.45882102221337e-06
1.8121104967170675e-05   -2.326398744360858e-06   -3.45882102221337e-06
1.8121104967170675e-05   -2.326398744360858e-06   -3.45882102221337e-06
1.8121104967170675e-05   -2.326398744360858e-06   -3.45882102221337e-06
1.2522431957807359e-05   -2.6831142434205653e-06   6.086329959494615e-06
1.2522431957807359e-05   -2.6831142434205653e-06   6.086329959494615e-06
1.2522431957807359e-05   -2.6831142434205653e-06   6.086329959494615e-06
1.2522431957807359e-05   -2.6831142434205653e-06   6.086329959494615e-06
8.910895148021812e-06   -1.7323393065957898e-08   2.651840892888143e-05
8.910895148021812e-06   -1.7323393065957898e-08   2.651840892888143e-05
8.910895148021812e-06   -1.7323393065957898e-08   2.651840892888143e-05
8.910895148021812e-06   -1.7323393065957898e-08   2.651840892888143e-05
-2.869755065786509e-06   6.983294592473582e-07   7.313383617255586e-06
-2.869755065786509e-06   6.983294592473582e-07   7.313383617255586e-06
-2.869755065786509e-06   6.983294592473582e-07   7.313383617255586e-06
-2.869755065786509e-06   6.983294592473582e-07   7.313383617255586e-06
-3.379594269632726e-06   -5.320421053111278e-07   2.656810291269229e-05
-3.379594269632726e-06   -5.320421053111278e-07   2.656810291269229e-05
-3.379594269632726e-06   -5.320421053111278e-07   2.656810291269229e-05
-3.379594269632726e-06   -5.320421053111278e-07   2.656810291269229e-05
8.356197225536086e-06   1.6186130945847546e-07   6.592108371882561e-06
8.356197225536086e-06   1.6186130945847546e-07   6.592108371882561e-06
8.356197225536086e-06   1.6186130945847546e-07   6.592108371882561e-06
8.356197225536086e-06   1.6186130945847546e-07   6.592108371882561e-06
2.670340334832632e-06   3.147919388222023e-08   1.6146765792401257e-05
2.670340334832632e-06   3.147919388222023e-08   1.6146765792401257e-05
2.670340334832632e-06   3.147919388222023e-08   1.6146765792401257e-05
2.670340334832632e-06   3.147919388222023e-08   1.6146765792401257e-05
8.356197225536107e-06   -5.320421053113446e-07   2.6151760863830464e-05
8.356197225536107e-06   -5.320421053113446e-07   2.6151760863830464e-05
8.356197225536107e-06   -5.320421053113446e-07   2.6151760863830464e-05
8.356197225536107e-06   -5.320421053113446e-07   2.6151760863830464e-05
-3.379594269632726e-06   1.618613094586923e-07   7.00845042074451e-06
-3.379594269632726e-06   1.618613094586923e-07   7.00845042074451e-06
-3.379594269632726e-06   1.618613094586923e-07   7.00845042074451e-06
-3.379594269632726e-06   1.618613094586923e-07   7.00845042074451e-06
-3.900943802173147e-06   -9.372571624145266e-07   2.624817900972608e-05
-3.900943802173147e-06   -9.372571624145266e-07   2.624817900972608e-05
-3.900943802173147e-06   -9.372571624145266e-07   2.624817900972608e-05
-3.900943802173147e-06   -9.372571624145266e-07   2.624817900972608e-05
7.73284923311232e-06   -2.766432045471414e-07   6.462155576196694e-06
7.73284923311232e-06   -2.766432045471414e-07   6.462155576196694e-06
7.73284923311232e-06   -2.766432045471414e-07   6.462155576196694e-06
7.73284923311232e-06   -2.766432045471414e-07   6.462155576196694e-06
2.109457457366993e-06   -3.260532502977632e-07   1.586412122989015e-05
2.109457457366993e-06   -3.260532502977632e-07   1.586412122989015e-05
2.109457457366993e-06   -3.260532502977632e-07   1.586412122989015e-05
2.109457457366993e-06   -3.260532502977632e-07   1.586412122989015e-05
7.732849233112343e-06   -9.372571624145266e-07   2.5851810635005865e-05
7.732849233112343e-06   -9.372571624145266e-07   2.5851810635005865e-05
7.732849233112343e-06   -9.372571624145266e-07   2.5851810635005865e-05
7.732849233112343e-06   -9.372571624145266e-07   2.5851810635005865e-05
-3.90094380217316e-06   -2.7664320454735825e-07   6.858523950917044e-06
-3.90094380217316e-06   -2.7664320454735825e-07   6.858523950917044e-06
-3.90094380217316e-06   -2.7664320454735825e-07   6.858523950917044e-06
-3.90094380217316e-06   -2.7664320454735825e-07   6.858523950917044e-06
-4.417970951980514e-06   -1.3119113437577712e-06   2.64845740613679e-05
-4.417970951980514e-06   -1.3119113437577712e-06   2.64845740613679e-05
-4.417970951980514e-06   -1.3119113437577712e-06   2.64845740613679e-05
-4.417970951980514e-06   -1.3119113437577712e-06   2.64845740613679e-05
7.173937906573062e-06   -7.081733931315389e-07   6.80248319340298e-06
7.173937906573062e-06   -7.081733931315389e-07   6.80248319340298e-06
7.173937906573062e-06   -7.081733931315389e-07   6.80248319340298e-06
7.173937906573062e-06   -7.081733931315389e-07   6.80248319340298e-06
1.666901430157978e-06   -6.235655355402159e-07   1.5930112606206523e-05
1.666901430157978e-06   -6.235655355402159e-07   1.5930112606206523e-05
1.666901430157978e-06   -6.235655355402159e-07   1.5930112606206523e-05
1.666901430157978e-06   -6.235655355402159e-07   1.5930112606206523e-05
-2.8697550657864955e-06   2.6815410051265857e-06   2.8770459127018533e-05
-2.8697550657864955e-06   2.6815410051265857e-06   2.8770459127018533e-05
-2.8697550657864955e-06   2.6815410051265857e-06   2.8770459127018533e-05
-2.8697550657864955e-06   2.6815410051265857e-06   2.8770459127018533e-05
-1.4455153542176582e-05   2.6404685774365517e-06   9.436818209754543e-06
-1.4455153542176582e-05   2.6404685774365517e-06   9.436818209754543e-06
-1.4455153542176582e-05   2.6404685774365517e-06   9.436818209754543e-06
-1.4455153542176582e-05   2.6404685774365517e-06   9.436818209754543e-06
-1.4958316781099265e-05   2.2298375949370616e-06   2.8582798454899506e-05
-1.4958316781099265e-05   2.2298375949370616e-06   2.8582798454899506e-05
-1.4958316781099265e-05   2.2298375949370616e-06   2.8582798454899506e-05
-1.4958316781099265e-05   2.2298375949370616e-06   2.8582798454899506e-05
-3.3795942696327125e-06   2.153505641707288e-06   9.330726774393156e-06
-3.3795942696327125e-06   2.153505641707288e-06   9.330726774393156e-06
-3.3795942696327125e-06   2.153505641707288e-06   9.330726774393156e-06
-3.3795942696327125e-06   2.153505641707288e-06   9.330726774393156e-06
-8.937995159586064e-06   2.3658588403309335e-06   1.8467316338474985e-05
-8.937995159586064e-06   2.3658588403309335e-06   1.8467316338474985e-05
-8.937995159586064e-06   2.3658588403309335e-06   1.8467316338474985e-05
-8.937995159586064e-06   2.3658588403309335e-06   1.8467316338474985e-05
-3.379594269632726e-06   2.2298375949370616e-06   2.8628597626837284e-05
-3.379594269632726e-06   2.2298375949370616e-06   2.8628597626837284e-05
-3.379594269632726e-06   2.2298375949370616e-06   2.8628597626837284e-05
-3.379594269632726e-06   2.2298375949370616e-06   2.8628597626837284e-05
-1.4958316781099265e-05   2.153505641707288e-06   9.28492760245527e-06
-1.4958316781099265e-05   2.153505641707288e-06   9.28492760245527e-06
-1.4958316781099265e-05   2.153505641707288e-06   9.28492760245527e-06
-1.4958316781099265e-05   2.153505641707288e-06   9.28492760245527e-06
-1.5473516036575293e-05   1.7853299466713546e-06   2.872768229009626e-05
-1.5473516036575293e-05   1.7853299466713546e-06   2.872768229009626e-05
-1.5473516036575293e-05   1.7853299466713546e-06   2.872768229009626e-05
-1.5473516036575293e-05   1.7853299466713546e-06   2.872768229009626e-05
-3.900943802173133e-06   1.6721451745092212e-06   9.507972762723172e-06
-3.900943802173133e-06   1.6721451745092212e-06   9.507972762723172e-06
-3.900943802173133e-06   1.6721451745092212e-06   9.507972762723172e-06
-3.900943802173133e-06   1.6721451745092212e-06   9.507972762723172e-06
-9.398648578561816e-06   2.0126360609036206e-06   1.8466519524868244e-05
-9.398648578561816e-06   2.0126360609036206e-06   1.8466519524868244e-05
-9.398648578561816e-06   2.0126360609036206e-06   1.8466519524868244e-05
-9.398648578561816e-06   2.0126360609036206e-06   1.8466519524868244e-05
-3.90094380217316e-06   1.7853299466713546e-06   2.8795593153393235e-05
-3.90094380217316e-06   1.7853299466713546e-06   2.8795593153393235e-05
-3.90094380217316e-06   1.7853299466713546e-06   2.8795593153393235e-05
-3.90094380217316e-06   1.7853299466713546e-06   2.8795593153393235e-05
-1.5473516036575293e-05   1.6721451745092212e-06   9.440061899426114e-06
-1.5473516036575293e-05   1.6721451745092212e-06   9.440061899426114e-06
-1.5473516036575293e-05   1.6721451745092212e-06   9.440061899426114e-06
-1.5473516036575293e-05   1.6721451745092212e-06   9.440061899426114e-06
-1.5982652325074407e-05   1.36357341486734e-06   2.9111676709374368e-05
-1.5982652325074407e-05   1.36357341486734e-06   2.9111676709374368e-05
-1.5982652325074407e-05   1.36357341486734e-06   2.9111676709374368e-05
-1.5982652325074407e-05   1.36357341486734e-06   2.9111676709374368e-05
-4.417970951980514e-06   1.2087994297447797e-06   9.930072145291458e-06
-4.417970951980514e-06   1.2087994297447797e-06   9.930072145291458e-06
-4.417970951980514e-06   1.2087994297447797e-06   9.930072145291458e-06
-4.417970951980514e-06   1.2087994297447797e-06   9.930072145291458e-06
-9.880569905407907e-06   1.6677764268205244e-06   1.875901753609164e-05
-9.880569905407907e-06   1.6677764268205244e-06   1.875901753609164e-05
-9.880569905407907e-06   1.6677764268205244e-06   1.875901753609164e-05
-9.880569905407907e-06   1.6677764268205244e-06   1.875901753609164e-05
-1.4455153542176582e-05   5.279553014782799e-06   2.545109489085636e-05
-1.4455153542176582e-05   5.279553014782799e-06   2.545109489085636e-05
-1.4455153542176582e-05   5.279553014782799e-06   2.545109489085636e-05
-1.4455153542176582e-05   5.279553014782799e-06   2.545109489085636e-05
-2.5849229003642156e-05   4.530253206641837e-06   6.01138923686257e-06
-2.5849229003642156e-05   4.530253206641837e-06   6.01138923686257e-06
-2.5849229003642156e-05   4.530253206641837e-06   6.01138923686257e-06
-2.5849229003642156e-05   4.530253206641837e-06   6.01138923686257e-06
-2.6389152501849562e-05   4.847446327368825e-06   2.5115679319113147e-05
-2.6389152501849562e-05   4.847446327368825e-06   2.5115679319113147e-05
-2.6389152501849562e-05   4.847446327368825e-06   2.5115679319113147e-05
-2.6389152501849562e-05   4.847446327368825e-06   2.5115679319113147e-05
-1.4958316781099184e-05   4.054899186480996e-06   6.53981473572882e-06
-1.4958316781099184e-05   4.054899186480996e-06   6.53981473572882e-06
-1.4958316781099184e-05   4.054899186480996e-06   6.53981473572882e-06
-1.4958316781099184e-05   4.054899186480996e-06   6.53981473572882e-06
-2.0355173279667867e-05   4.597931854775916e-06   1.5208755965699931e-05
-2.0355173279667867e-05   4.597931854775916e-06   1.5208755965699931e-05
-2.0355173279667867e-05   4.597931854775916e-06   1.5208755965699931e-05
-2.0355173279667867e-05   4.597931854775916e-06   1.5208755965699931e-05
-1.4958316781099265e-05   4.847446327369042e-06   2.559120760364591e-05
-1.4958316781099265e-05   4.847446327369042e-06   2.559120760364591e-05
-1.4958316781099265e-05   4.847446327369042e-06   2.559120760364591e-05
-1.4958316781099265e-05   4.847446327369042e-06   2.559120760364591e-05
-2.6389152501849535e-05   4.054899186480996e-06   6.064286451195949e-06
-2.6389152501849535e-05   4.054899186480996e-06   6.064286451195949e-06
-2.6389152501849535e-05   4.054899186480996e-06   6.064286451195949e-06
-2.6389152501849535e-05   4.054899186480996e-06   6.064286451195949e-06
-2.6996622509533854e-05   4.444376785010893e-06   2.5975480905639226e-05
-2.6996622509533854e-05   4.444376785010893e-06   2.5975480905639226e-05
-2.6996622509533854e-05   4.444376785010893e-06   2.5975480905639226e-05
-2.6996622509533854e-05   4.444376785010893e-06   2.5975480905639226e-05
-1.5473516036575266e-05   3.614682536113873e-06   7.268120000046357e-06
-1.5473516036575266e-05   3.614682536113873e-06   7.268120000046357e-06
-1.5473516036575266e-05   3.614682536113873e-06   7.268120000046357e-06
-1.5473516036575266e-05   3.614682536113873e-06   7.268120000046357e-06
-2.072840126593394e-05   4.274282698455431e-06   1.5630501951573172e-05
-2.072840126593394e-05   4.274282698455431e-06   1.5630501951573172e-05
-2.072840126593394e-05   4.274282698455431e-06   1.5630501951573172e-05
-2.072840126593394e-05   4.274282698455431e-06   1.5630501951573172e-05
-1.547351603657532e-05   4.444376785010893e-06   2.6473297454977047e-05
-1.547351603657532e-05   4.444376785010893e-06   2.6473297454977047e-05
-1.547351603657532e-05   4.444376785010893e-06   2.6473297454977047e-05
-1.547351603657532e-05   4.444376785010893e-06   2.6473297454977047e-05
-2.69966225095338e-05   3.614682536113873e-06   6.770303450708264e-06
-2.69966225095338e-05   3.614682536113873e-06   6.770303450708264e-06
-2.69966225095338e-05   3.614682536113873e-06   6.770303450708264e-06
-2.69966225095338e-05   3.614682536113873e-06   6.770303450708264e-06
-2.7536439672454032e-05   3.974582834876186e-06   2.6699436563831997e-05
-2.7536439672454032e-05   3.974582834876186e-06   2.6699436563831997e-05
-2.7536439672454032e-05   3.974582834876186e-06   2.6699436563831997e-05
-2.7536439672454032e-05   3.974582834876186e-06   2.6699436563831997e-05
-1.5982652325074326e-05   3.122209533764622e-06   7.954548298866337e-06
-1.5982652325074326e-05   3.122209533764622e-06   7.954548298866337e-06
-1.5982652325074326e-05   3.122209533764622e-06   7.954548298866337e-06
-1.5982652325074326e-05   3.122209533764622e-06   7.954548298866337e-06
-2.1337679095225585e-05   3.933210291519676e-06   1.6392992461132375e-05
-2.1337679095225585e-05   3.933210291519676e-06   1.6392992461132375e-05
-2.1337679095225585e-05   3.933210291519676e-06   1.6392992461132375e-05
-2.1337679095225585e-05   3.933210291519676e-06   1.6392992461132375e-05
-2.5849229003642156e-05   7.281964020733507e-06   1.223511370724976e-05
-2.5849229003642156e-05   7.281964020733507e-06   1.223511370724976e-05
-2.5849229003642156e-05   7.281964020733507e-06   1.223511370724976e-05
-2.5849229003642156e-05   7.281964020733507e-06   1.223511370724976e-05
-3.654268290788652e-05   5.947747323068733e-06   -6.387839485089684e-06
-3.654268290788652e-05   5.947747323068733e-06   -6.387839485089684e-06
-3.654268290788652e-05   5.947747323068733e-06   -6.387839485089684e-06
-3.654268290788652e-05   5.947747323068733e-06   -6.387839485089684e-06
-3.7672290091818285e-05   7.247276992633847e-06   1.5696811292333383e-05
-3.7672290091818285e-05   7.247276992633847e-06   1.5696811292333383e-05
-3.7672290091818285e-05   7.247276992633847e-06   1.5696811292333383e-05
-3.7672290091818285e-05   7.247276992633847e-06   1.5696811292333383e-05
-2.638915250184948e-05   5.7961840182986155e-06   -2.2377622396798345e-06
-2.638915250184948e-05   5.7961840182986155e-06   -2.2377622396798345e-06
-2.638915250184948e-05   5.7961840182986155e-06   -2.2377622396798345e-06
-2.638915250184948e-05   5.7961840182986155e-06   -2.2377622396798345e-06
-3.042832308842193e-05   6.4481561072868634e-06   4.103005484548455e-06
-3.042832308842193e-05   6.4481561072868634e-06   4.103005484548455e-06
-3.042832308842193e-05   6.4481561072868634e-06   4.103005484548455e-06
-3.042832308842193e-05   6.4481561072868634e-06   4.103005484548455e-06
-2.6389152501849562e-05   7.247276992633847e-06   1.656746707693474e-05
-2.6389152501849562e-05   7.247276992633847e-06   1.656746707693474e-05
-2.6389152501849562e-05   7.247276992633847e-06   1.656746707693474e-05
-2.6389152501849562e-05   7.247276992633847e-06   1.656746707693474e-05
-3.767229009181839e-05   5.796184018298399e-06   -3.108418024281136e-06
-3.767229009181839e-05   5.796184018298399e-06   -3.108418024281136e-06
-3.767229009181839e-05   5.796184018298399e-06   -3.108418024281136e-06
-3.767229009181839e-05   5.796184018298399e-06   -3.108418024281136e-06
-3.865738564480726e-05   7.100164371805131e-06   1.8693024660452898e-05
-3.865738564480726e-05   7.100164371805131e-06   1.8693024660452898e-05
-3.865738564480726e-05   7.100164371805131e-06   1.8693024660452898e-05
-3.865738564480726e-05   7.100164371805131e-06   1.8693024660452898e-05
-2.6996622509533745e-05   5.6094791363965266e-06   1.5283057624228573e-07
-2.6996622509533745e-05   5.6094791363965266e-06   1.5283057624228573e-07
-2.6996622509533745e-05   5.6094791363965266e-06   1.5283057624228573e-07
-2.6996622509533745e-05   5.6094791363965266e-06   1.5283057624228573e-07
-3.1626150552474565e-05   6.453022777224782e-06   7.3625844633142955e-06
-3.1626150552474565e-05   6.453022777224782e-06   7.3625844633142955e-06
-3.1626150552474565e-05   6.453022777224782e-06   7.3625844633142955e-06
-3.1626150552474565e-05   6.453022777224782e-06   7.3625844633142955e-06
-2.69966225095338e-05   7.100164371804914e-06   1.958743580169806e-05
-2.69966225095338e-05   7.100164371804914e-06   1.958743580169806e-05
-2.69966225095338e-05   7.100164371804914e-06   1.958743580169806e-05
-2.69966225095338e-05   7.100164371804914e-06   1.958743580169806e-05
-3.865738564480731e-05   5.60947913639631e-06   -7.415805650029853e-07
-3.865738564480731e-05   5.60947913639631e-06   -7.415805650029853e-07
-3.865738564480731e-05   5.60947913639631e-06   -7.415805650029853e-07
-3.865738564480731e-05   5.60947913639631e-06   -7.415805650029853e-07
-3.979968719051817e-05   6.449847530357045e-06   2.3898093275635324e-05
-3.979968719051817e-05   6.449847530357045e-06   2.3898093275635324e-05
-3.979968719051817e-05   6.449847530357045e-06   2.3898093275635324e-05
-3.979968719051817e-05   6.449847530357045e-06   2.3898093275635324e-05
-2.753643967245395e-05   4.9818172145931275e-06   4.340165601653351e-06
-2.753643967245395e-05   4.9818172145931275e-06   4.340165601653351e-06
-2.753643967245395e-05   4.9818172145931275e-06   4.340165601653351e-06
-2.753643967245395e-05   4.9818172145931275e-06   4.340165601653351e-06
-3.1890600089176234e-05   6.179568399224209e-06   1.0878448918745249e-05
-3.1890600089176234e-05   6.179568399224209e-06   1.0878448918745249e-05
-3.1890600089176234e-05   6.179568399224209e-06   1.0878448918745249e-05
-3.1890600089176234e-05   6.179568399224209e-06   1.0878448918745249e-05
1.196881397812855e-05   -1.3737383883080049e-06   1.6927046221728507e-05
1.196881397812855e-05   -1.3737383883080049e-06   1.6927046221728507e-05
1.196881397812855e-05   -1.3737383883080049e-06   1.6927046221728507e-05
1.196881397812855e-05   -1.3737383883080049e-06   1.6927046221728507e-05
3.1476465742427502e-06   2.1556696871549014e-08   3.062277599693306e-06
3.1476465742427502e-06   2.1556696871549014e-08   3.062277599693306e-06
3.1476465742427502e-06   2.1556696871549014e-08   3.062277599693306e-06
3.1476465742427502e-06   2.1556696871549014e-08   3.062277599693306e-06
2.732001225575546e-06   -1.9042653522864227e-06   1.5775952264175273e-05
2.732001225575546e-06   -1.9042653522864227e-06   1.5775952264175273e-05
2.732001225575546e-06   -1.9042653522864227e-06   1.5775952264175273e-05
2.732001225575546e-06   -1.9042653522864227e-06   1.5775952264175273e-05
1.094088934173864e-05   -4.5428055418989845e-07   1.2244811917125207e-06
1.094088934173864e-05   -4.5428055418989845e-07   1.2244811917125207e-06
1.094088934173864e-05   -4.5428055418989845e-07   1.2244811917125207e-06
1.094088934173864e-05   -4.5428055418989845e-07   1.2244811917125207e-06
6.773249102604603e-06   -9.950287814587157e-07   8.494997193297571e-06
6.773249102604603e-06   -9.950287814587157e-07   8.494997193297571e-06
6.773249102604603e-06   -9.950287814587157e-07   8.494997193297571e-06
6.773249102604603e-06   -9.950287814587157e-07   8.494997193297571e-06
1.094088934173866e-05   -1.9042653522864227e-06   1.4905961385317554e-05
1.094088934173866e-05   -1.9042653522864227e-06   1.4905961385317554e-05
1.094088934173866e-05   -1.9042653522864227e-06   1.4905961385317554e-05
1.094088934173866e-05   -1.9042653522864227e-06   1.4905961385317554e-05
2.7320012255755427e-06   -4.5428055418989845e-07   2.094472070570362e-06
2.7320012255755427e-06   -4.5428055418989845e-07   2.094472070570362e-06
2.7320012255755427e-06   -4.5428055418989845e-07   2.094472070570362e-06
2.7320012255755427e-06   -4.5428055418989845e-07   2.094472070570362e-06
2.247304625055975e-06   -2.086550605414012e-06   1.4802351866457478e-05
2.247304625055975e-06   -2.086550605414012e-06   1.4802351866457478e-05
2.247304625055975e-06   -2.086550605414012e-06   1.4802351866457478e-05
2.247304625055975e-06   -2.086550605414012e-06   1.4802351866457478e-05
1.0070218386121853e-05   -6.589559445732349e-07   9.076054681765957e-07
1.0070218386121853e-05   -6.589559445732349e-07   9.076054681765957e-07
1.0070218386121853e-05   -6.589559445732349e-07   9.076054681765957e-07
1.0070218386121853e-05   -6.589559445732349e-07   9.076054681765957e-07
6.277668609687595e-06   -1.2027815398177322e-06   7.554817119380435e-06
6.277668609687595e-06   -1.2027815398177322e-06   7.554817119380435e-06
6.277668609687595e-06   -1.2027815398177322e-06   7.554817119380435e-06
6.277668609687595e-06   -1.2027815398177322e-06   7.554817119380435e-06
1.0070218386121873e-05   -2.086550605414012e-06   1.3945795069953033e-05
1.0070218386121873e-05   -2.086550605414012e-06   1.3945795069953033e-05
1.0070218386121873e-05   -2.086550605414012e-06   1.3945795069953033e-05
1.0070218386121873e-05   -2.086550605414012e-06   1.3945795069953033e-05
2.247304625055965e-06   -6.589559445732349e-07   1.7641622646812028e-06
2.247304625055965e-06   -6.589559445732349e-07   1.7641622646812028e-06
2.247304625055965e-06   -6.589559445732349e-07   1.7641622646812028e-06
2.247304625055965e-06   -6.589559445732349e-07   1.7641622646812028e-06
1.8272026712986461e-06   -2.326398744360858e-06   1.3674198999961561e-05
1.8272026712986461e-06   -2.326398744360858e-06   1.3674198999961561e-05
1.8272026712986461e-06   -2.326398744360858e-06   1.3674198999961561e-05
1.8272026712986461e-06   -2.326398744360858e-06   1.3674198999961561e-05
9.050177460196484e-06   -9.989675598849612e-07   8.394489744465388e-07
9.050177460196484e-06   -9.989675598849612e-07   8.394489744465388e-07
9.050177460196484e-06   -9.989675598849612e-07   8.394489744465388e-07
9.050177460196484e-06   -9.989675598849612e-07   8.394489744465388e-07
5.544165386376098e-06   -1.3090682267292899e-06   6.868862830920674e-06
5.544165386376098e-06   -1.3090682267292899e-06   6.868862830920674e-06
5.544165386376098e-06   -1.3090682267292899e-06   6.868862830920674e-06
5.544165386376098e-06   -1.3090682267292899e-06   6.868862830920674e-06
3.1476465742427536e-06   6.98329459247575e-07   2.3252961569418897e-05
3.1476465742427536e-06   6.98329459247575e-07   2.3252961569418897e-05
3.1476465742427536e-06   6.98329459247575e-07   2.3252961569418897e-05
3.1476465742427536e-06   6.98329459247575e-07   2.3252961569418897e-05
-4.885790312930094e-06   1.331115115029086e-06   1.0243571484266434e-05
-4.885790312930094e-06   1.331115115029086e-06   1.0243571484266434e-05
-4.885790312930094e-06   1.331115115029086e-06   1.0243571484266434e-05
-4.885790312930094e-06   1.331115115029086e-06   1.0243571484266434e-05
-5.2510834001660264e-06   1.618613094586923e-07   2.3324937865393768e-05
-5.2510834001660264e-06   1.618613094586923e-07   2.3324937865393768e-05
-5.2510834001660264e-06   1.618613094586923e-07   2.3324937865393768e-05
-5.2510834001660264e-06   1.618613094586923e-07   2.3324937865393768e-05
2.7320012255755427e-06   7.940637382663259e-07   9.640475365206599e-06
2.7320012255755427e-06   7.940637382663259e-07   9.640475365206599e-06
2.7320012255755427e-06   7.940637382663259e-07   9.640475365206599e-06
2.7320012255755427e-06   7.940637382663259e-07   9.640475365206599e-06
-1.1245991580038014e-06   6.925221450058885e-07   1.6129067627129043e-05
-1.1245991580038014e-06   6.925221450058885e-07   1.6129067627129043e-05
-1.1245991580038014e-06   6.925221450058885e-07   1.6129067627129043e-05
-1.1245991580038014e-06   6.925221450058885e-07   1.6129067627129043e-05
2.732001225575546e-06   1.6186130945847546e-07   2.2945616408108927e-05
2.732001225575546e-06   1.6186130945847546e-07   2.2945616408108927e-05
2.732001225575546e-06   1.6186130945847546e-07   2.2945616408108927e-05
2.732001225575546e-06   1.6186130945847546e-07   2.2945616408108927e-05
-5.2510834001660264e-06   7.940637382665428e-07   1.0019796822491344e-05
-5.2510834001660264e-06   7.940637382665428e-07   1.0019796822491344e-05
-5.2510834001660264e-06   7.940637382665428e-07   1.0019796822491344e-05
-5.2510834001660264e-06   7.940637382665428e-07   1.0019796822491344e-05
-5.62711012220208e-06   -2.7664320454735825e-07   2.3172500618656245e-05
-5.62711012220208e-06   -2.7664320454735825e-07   2.3172500618656245e-05
-5.62711012220208e-06   -2.7664320454735825e-07   2.3172500618656245e-05
-5.62711012220208e-06   -2.7664320454735825e-07   2.3172500618656245e-05
2.247304625055965e-06   3.393958684675888e-07   9.678852596084144e-06
2.247304625055965e-06   3.393958684675888e-07   9.678852596084144e-06
2.247304625055965e-06   3.393958684675888e-07   9.678852596084144e-06
2.247304625055965e-06   3.393958684675888e-07   9.678852596084144e-06
-1.5147244726860703e-06   3.1826262894747194e-07   1.5961581036033162e-05
-1.5147244726860703e-06   3.1826262894747194e-07   1.5961581036033162e-05
-1.5147244726860703e-06   3.1826262894747194e-07   1.5961581036033162e-05
-1.5147244726860703e-06   3.1826262894747194e-07   1.5961581036033162e-05
2.247304625055975e-06   -2.766432045471414e-07   2.280287717484734e-05
2.247304625055975e-06   -2.766432045471414e-07   2.280287717484734e-05
2.247304625055975e-06   -2.766432045471414e-07   2.280287717484734e-05
2.247304625055975e-06   -2.766432045471414e-07   2.280287717484734e-05
-5.62711012220208e-06   3.393958684675888e-07   1.0048476039893075e-05
-5.62711012220208e-06   3.393958684675888e-07   1.0048476039893075e-05
-5.62711012220208e-06   3.393958684675888e-07   1.0048476039893075e-05
-5.62711012220208e-06   3.393958684675888e-07   1.0048476039893075e-05
-5.997602938380677e-06   -7.081733931315389e-07   2.3474670517767285e-05
-5.997602938380677e-06   -7.081733931315389e-07   2.3474670517767285e-05
-5.997602938380677e-06   -7.081733931315389e-07   2.3474670517767285e-05
-5.997602938380677e-06   -7.081733931315389e-07   2.3474670517767285e-05
1.8272026712986394e-06   -1.2464926795038508e-07   1.0083213359860038e-05
1.8272026712986394e-06   -1.2464926795038508e-07   1.0083213359860038e-05
1.8272026712986394e-06   -1.2464926795038508e-07   1.0083213359860038e-05
1.8272026712986394e-06   -1.2464926795038508e-07   1.0083213359860038e-05
-1.8447447787043425e-06   -1.7037118511115112e-08   1.6138558486868243e-05
-1.8447447787043425e-06   -1.7037118511115112e-08   1.6138558486868243e-05
-1.8447447787043425e-06   -1.7037118511115112e-08   1.6138558486868243e-05
-1.8447447787043425e-06   -1.7037118511115112e-08   1.6138558486868243e-05
-4.885790312930094e-06   2.6404685774365517e-06   2.5780711012000673e-05
-4.885790312930094e-06   2.6404685774365517e-06   2.5780711012000673e-05
-4.885790312930094e-06   2.6404685774365517e-06   2.5780711012000673e-05
-4.885790312930094e-06   2.6404685774365517e-06   2.5780711012000673e-05
-1.2781221968527988e-05   2.4906316717322394e-06   1.2531756109248216e-05
-1.2781221968527988e-05   2.4906316717322394e-06   1.2531756109248216e-05
-1.2781221968527988e-05   2.4906316717322394e-06   1.2531756109248216e-05
-1.2781221968527988e-05   2.4906316717322394e-06   1.2531756109248216e-05
-1.3131857425216216e-05   2.153505641707288e-06   2.5552711140898097e-05
-1.3131857425216216e-05   2.153505641707288e-06   2.5552711140898097e-05
-1.3131857425216216e-05   2.153505641707288e-06   2.5552711140898097e-05
-1.3131857425216216e-05   2.153505641707288e-06   2.5552711140898097e-05
-5.251083400165999e-06   1.9960005114669395e-06   1.251259084395886e-05
-5.251083400165999e-06   1.9960005114669395e-06   1.251259084395886e-05
-5.251083400165999e-06   1.9960005114669395e-06   1.251259084395886e-05
-5.251083400165999e-06   1.9960005114669395e-06   1.251259084395886e-05
-9.029445122754564e-06   2.2642684772138533e-06   1.864889960215914e-05
-9.029445122754564e-06   2.2642684772138533e-06   1.864889960215914e-05
-9.029445122754564e-06   2.2642684772138533e-06   1.864889960215914e-05
-9.029445122754564e-06   2.2642684772138533e-06   1.864889960215914e-05
-5.2510834001660264e-06   2.153505641707288e-06   2.5647214219042523e-05
-5.2510834001660264e-06   2.153505641707288e-06   2.5647214219042523e-05
-5.2510834001660264e-06   2.153505641707288e-06   2.5647214219042523e-05
-5.2510834001660264e-06   2.153505641707288e-06   2.5647214219042523e-05
-1.3131857425216216e-05   1.9960005114667227e-06   1.2418087765814515e-05
-1.3131857425216216e-05   1.9960005114667227e-06   1.2418087765814515e-05
-1.3131857425216216e-05   1.9960005114667227e-06   1.2418087765814515e-05
-1.3131857425216216e-05   1.9960005114667227e-06   1.2418087765814515e-05
-1.3493935038315602e-05   1.6721451745092212e-06   2.5721012240164103e-05
-1.3493935038315602e-05   1.6721451745092212e-06   2.5721012240164103e-05
-1.3493935038315602e-05   1.6721451745092212e-06   2.5721012240164103e-05
-1.3493935038315602e-05   1.6721451745092212e-06   2.5721012240164103e-05
-5.6271101222020664e-06   1.5039165240122044e-06   1.2710574570273228e-05
-5.6271101222020664e-06   1.5039165240122044e-06   1.2710574570273228e-05
-5.6271101222020664e-06   1.5039165240122044e-06   1.2710574570273228e-05
-5.6271101222020664e-06   1.5039165240122044e-06   1.2710574570273228e-05
-9.34152750616643e-06   1.8882634449477343e-06   1.8670662057652688e-05
-9.34152750616643e-06   1.8882634449477343e-06   1.8670662057652688e-05
-9.34152750616643e-06   1.8882634449477343e-06   1.8670662057652688e-05
-9.34152750616643e-06   1.8882634449477343e-06   1.8670662057652688e-05
-5.62711012220208e-06   1.6721451745092212e-06   2.58219494304624e-05
-5.62711012220208e-06   1.6721451745092212e-06   2.58219494304624e-05
-5.62711012220208e-06   1.6721451745092212e-06   2.58219494304624e-05
-5.62711012220208e-06   1.6721451745092212e-06   2.58219494304624e-05
-1.3493935038315575e-05   1.5039165240124212e-06   1.2609637379975202e-05
-1.3493935038315575e-05   1.5039165240124212e-06   1.2609637379975202e-05
-1.3493935038315575e-05   1.5039165240124212e-06   1.2609637379975202e-05
-1.3493935038315575e-05   1.5039165240124212e-06   1.2609637379975202e-05
-1.385032067584044e-05   1.2087994297447797e-06   2.61344525906681e-05
-1.385032067584044e-05   1.2087994297447797e-06   2.61344525906681e-05
-1.385032067584044e-05   1.2087994297447797e-06   2.61344525906681e-05
-1.385032067584044e-05   1.2087994297447797e-06   2.61344525906681e-05
-5.997602938380664e-06   1.0328592487244583e-06   1.3152153803514004e-05
-5.997602938380664e-06   1.0328592487244583e-06   1.3152153803514004e-05
-5.997602938380664e-06   1.0328592487244583e-06   1.3152153803514004e-05
-5.997602938380664e-06   1.0328592487244583e-06   1.3152153803514004e-05
-9.67354181015125e-06   1.5198538554376997e-06   1.8986521825770742e-05
-9.67354181015125e-06   1.5198538554376997e-06   1.8986521825770742e-05
-9.67354181015125e-06   1.5198538554376997e-06   1.8986521825770742e-05
-9.67354181015125e-06   1.5198538554376997e-06   1.8986521825770742e-05
-1.2781221968527988e-05   4.530253206641837e-06   2.2714959780570625e-05
-1.2781221968527988e-05   4.530253206641837e-06   2.2714959780570625e-05
-1.2781221968527988e-05   4.530253206641837e-06   2.2714959780570625e-05
-1.2781221968527988e-05   4.530253206641837e-06   2.2714959780570625e-05
-2.0535637437887487e-05   3.7029893127601445e-06   9.294575661975793e-06
-2.0535637437887487e-05   3.7029893127601445e-06   9.294575661975793e-06
-2.0535637437887487e-05   3.7029893127601445e-06   9.294575661975793e-06
-2.0535637437887487e-05   3.7029893127601445e-06   9.294575661975793e-06
-2.091797461395721e-05   4.054899186480996e-06   2.2297286393631148e-05
-2.091797461395721e-05   4.054899186480996e-06   2.2297286393631148e-05
-2.091797461395721e-05   4.054899186480996e-06   2.2297286393631148e-05
-2.091797461395721e-05   4.054899186480996e-06   2.2297286393631148e-05
-1.3131857425216216e-05   3.20437938557995e-06   9.830736292936783e-06
-1.3131857425216216e-05   3.20437938557995e-06   9.830736292936783e-06
-1.3131857425216216e-05   3.20437938557995e-06   9.830736292936783e-06
-1.3131857425216216e-05   3.20437938557995e-06   9.830736292936783e-06
-1.6800998678539783e-05   3.8095161166049833e-06   1.5582889676528616e-05
-1.6800998678539783e-05   3.8095161166049833e-06   1.5582889676528616e-05
-1.6800998678539783e-05   3.8095161166049833e-06   1.5582889676528616e-05
-1.6800998678539783e-05   3.8095161166049833e-06   1.5582889676528616e-05
-1.3131857425216216e-05   4.054899186480996e-06   2.2807598274171646e-05
-1.3131857425216216e-05   4.054899186480996e-06   2.2807598274171646e-05
-1.3131857425216216e-05   4.054899186480996e-06   2.2807598274171646e-05
-1.3131857425216216e-05   4.054899186480996e-06   2.2807598274171646e-05
-2.091797461395721e-05   3.204379385580167e-06   9.32042441239623e-06
-2.091797461395721e-05   3.204379385580167e-06   9.32042441239623e-06
-2.091797461395721e-05   3.204379385580167e-06   9.32042441239623e-06
-2.091797461395721e-05   3.204379385580167e-06   9.32042441239623e-06
-2.1370588384094912e-05   3.614682536113873e-06   2.303071845069461e-05
-2.1370588384094912e-05   3.614682536113873e-06   2.303071845069461e-05
-2.1370588384094912e-05   3.614682536113873e-06   2.303071845069461e-05
-2.1370588384094912e-05   3.614682536113873e-06   2.303071845069461e-05
-1.3493935038315548e-05   2.75076271929694e-06   1.0421314764485893e-05
-1.3493935038315548e-05   2.75076271929694e-06   1.0421314764485893e-05
-1.3493935038315548e-05   2.75076271929694e-06   1.0421314764485893e-05
-1.3493935038315548e-05   2.75076271929694e-06   1.0421314764485893e-05
-1.7048289901377064e-05   3.4570215548485137e-06   1.592148423492409e-05
-1.7048289901377064e-05   3.4570215548485137e-06   1.592148423492409e-05
-1.7048289901377064e-05   3.4570215548485137e-06   1.592148423492409e-05
-1.7048289901377064e-05   3.4570215548485137e-06   1.592148423492409e-05
-1.3493935038315548e-05   3.614682536113873e-06   2.354907034078451e-05
-1.3493935038315548e-05   3.614682536113873e-06   2.354907034078451e-05
-1.3493935038315548e-05   3.614682536113873e-06   2.354907034078451e-05
-1.3493935038315548e-05   3.614682536113873e-06   2.354907034078451e-05
-2.1370588384094858e-05   2.75076271929694e-06   9.902962874395777e-06
-2.1370588384094858e-05   2.75076271929694e-06   9.902962874395777e-06
-2.1370588384094858e-05   2.75076271929694e-06   9.902962874395777e-06
-2.1370588384094858e-05   2.75076271929694e-06   9.902962874395777e-06
-2.1758758557528617e-05   3.122209533764622e-06   2.373787936307348e-05
-2.1758758557528617e-05   3.122209533764622e-06   2.373787936307348e-05
-2.1758758557528617e-05   3.122209533764622e-06   2.373787936307348e-05
-2.1758758557528617e-05   3.122209533764622e-06   2.373787936307348e-05
-1.3850320675840412e-05   2.265686580026332e-06   1.1071063332502955e-05
-1.3850320675840412e-05   2.265686580026332e-06   1.1071063332502955e-05
-1.3850320675840412e-05   2.265686580026332e-06   1.1071063332502955e-05
-1.3850320675840412e-05   2.265686580026332e-06   1.1071063332502955e-05
-1.7474388475843564e-05   3.10368043662931e-06   1.6608380018547217e-05
-1.7474388475843564e-05   3.10368043662931e-06   1.6608380018547217e-05
-1.7474388475843564e-05   3.10368043662931e-06   1.6608380018547217e-05
-1.7474388475843564e-05   3.10368043662931e-06   1.6608380018547217e-05
-2.053563743788754e-05   5.947747323068733e-06   1.0619902740888242e-05
-2.053563743788754e-05   5.947747323068733e-06   1.0619902740888242e-05
-2.053563743788754e-05   5.947747323068733e-06   1.0619902740888242e-05
-2.053563743788754e-05   5.947747323068733e-06   1.0619902740888242e-05
-2.7538364291923904e-05   4.560667662315649e-06   -1.8835564789575817e-06
-2.7538364291923904e-05   4.560667662315649e-06   -1.8835564789575817e-06
-2.7538364291923904e-05   4.560667662315649e-06   -1.8835564789575817e-06
-2.7538364291923904e-05   4.560667662315649e-06   -1.8835564789575817e-06
-2.8518926197357633e-05   5.796184018298399e-06   1.3100856992628168e-05
-2.8518926197357633e-05   5.796184018298399e-06   1.3100856992628168e-05
-2.8518926197357633e-05   5.796184018298399e-06   1.3100856992628168e-05
-2.8518926197357633e-05   5.796184018298399e-06   1.3100856992628168e-05
-2.0917974613957155e-05   4.305549501420515e-06   1.3269850637546402e-06
-2.0917974613957155e-05   4.305549501420515e-06   1.3269850637546402e-06
-2.0917974613957155e-05   4.305549501420515e-06   1.3269850637546402e-06
-2.0917974613957155e-05   4.305549501420515e-06   1.3269850637546402e-06
-2.348968720117649e-05   5.057220279229037e-06   5.162170242435887e-06
-2.348968720117649e-05   5.057220279229037e-06   5.162170242435887e-06
-2.348968720117649e-05   5.057220279229037e-06   5.162170242435887e-06
-2.348968720117649e-05   5.057220279229037e-06   5.162170242435887e-06
-2.0917974613957155e-05   5.7961840182986155e-06   1.3995237702755093e-05
-2.0917974613957155e-05   5.7961840182986155e-06   1.3995237702755093e-05
-2.0917974613957155e-05   5.7961840182986155e-06   1.3995237702755093e-05
-2.0917974613957155e-05   5.7961840182986155e-06   1.3995237702755093e-05
-2.8518926197357687e-05   4.305549501420515e-06   4.3260435362782327e-07
-2.8518926197357687e-05   4.305549501420515e-06   4.3260435362782327e-07
-2.8518926197357687e-05   4.305549501420515e-06   4.3260435362782327e-07
-2.8518926197357687e-05   4.305549501420515e-06   4.3260435362782327e-07
-2.9362754295675733e-05   5.60947913639631e-06   1.5502634661468265e-05
-2.9362754295675733e-05   5.60947913639631e-06   1.5502634661468265e-05
-2.9362754295675733e-05   5.60947913639631e-06   1.5502634661468265e-05
-2.9362754295675733e-05   5.60947913639631e-06   1.5502634661468265e-05
-2.1370588384094858e-05   4.091794278463e-06   3.092969056927154e-06
-2.1370588384094858e-05   4.091794278463e-06   3.092969056927154e-06
-2.1370588384094858e-05   4.091794278463e-06   3.092969056927154e-06
-2.1370588384094858e-05   4.091794278463e-06   3.092969056927154e-06
-2.443205870661494e-05   4.9914797423823015e-06   7.655608316109257e-06
-2.443205870661494e-05   4.9914797423823015e-06   7.655608316109257e-06
-2.443205870661494e-05   4.9914797423823015e-06   7.655608316109257e-06
-2.443205870661494e-05   4.9914797423823015e-06   7.655608316109257e-06
-2.1370588384094858e-05   5.6094791363965266e-06   1.6413245576228468e-05
-2.1370588384094858e-05   5.6094791363965266e-06   1.6413245576228468e-05
-2.1370588384094858e-05   5.6094791363965266e-06   1.6413245576228468e-05
-2.1370588384094858e-05   5.6094791363965266e-06   1.6413245576228468e-05
-2.9362754295675787e-05   4.091794278463e-06   2.18235814216706e-06
-2.9362754295675787e-05   4.091794278463e-06   2.18235814216706e-06
-2.9362754295675787e-05   4.091794278463e-06   2.18235814216706e-06
-2.9362754295675787e-05   4.091794278463e-06   2.18235814216706e-06
-3.0372212870885768e-05   4.981817214593344e-06   1.9751486995655317e-05
-3.0372212870885768e-05   4.981817214593344e-06   1.9751486995655317e-05
-3.0372212870885768e-05   4.981817214593344e-06   1.9751486995655317e-05
-3.0372212870885768e-05   4.981817214593344e-06   1.9751486995655317e-05
-2.1758758557528508e-05   3.5094277964730063e-06   6.2791634575989495e-06
-2.1758758557528508e-05   3.5094277964730063e-06   6.2791634575989495e-06
-2.1758758557528508e-05   3.5094277964730063e-06   6.2791634575989495e-06
-2.1758758557528508e-05   3.5094277964730063e-06   6.2791634575989495e-06
-2.466508805803593e-05   4.726647776533187e-06   1.0392713970408854e-05
-2.466508805803593e-05   4.726647776533187e-06   1.0392713970408854e-05
-2.466508805803593e-05   4.726647776533187e-06   1.0392713970408854e-05
-2.466508805803593e-05   4.726647776533187e-06   1.0392713970408854e-05
2.4596811807883415e-06   2.1556696871549014e-08   1.2654143919018919e-05
2.4596811807883415e-06   2.1556696871549014e-08   1.2654143919018919e-05
2.4596811807883415e-06   2.1556696871549014e-08   1.2654143919018919e-05
2.4596811807883415e-06   2.1556696871549014e-08   1.2654143919018919e-05
-2.6062987639324967e-06   1.3627005758527332e-06   5.015530338539718e-06
-2.6062987639324967e-06   1.3627005758527332e-06   5.015530338539718e-06
-2.6062987639324967e-06   1.3627005758527332e-06   5.015530338539718e-06
-2.6062987639324967e-06   1.3627005758527332e-06   5.015530338539718e-06
-2.901605292945606e-06   -4.5428055418989845e-07   1.2473520624303042e-05
-2.901605292945606e-06   -4.5428055418989845e-07   1.2473520624303042e-05
-2.901605292945606e-06   -4.5428055418989845e-07   1.2473520624303042e-05
-2.901605292945606e-06   -4.5428055418989845e-07   1.2473520624303042e-05
1.5617131933692781e-06   9.187410097484961e-07   4.2108435420817685e-06
1.5617131933692781e-06   9.187410097484961e-07   4.2108435420817685e-06
1.5617131933692781e-06   9.187410097484961e-07   4.2108435420817685e-06
1.5617131933692781e-06   9.187410097484961e-07   4.2108435420817685e-06
-4.919809114647361e-07   3.859488129278471e-07   7.953342368230923e-06
-4.919809114647361e-07   3.859488129278471e-07   7.953342368230923e-06
-4.919809114647361e-07   3.859488129278471e-07   7.953342368230923e-06
-4.919809114647361e-07   3.859488129278471e-07   7.953342368230923e-06
1.5617131933692646e-06   -4.542805541901153e-07   1.1649707685939766e-05
1.5617131933692646e-06   -4.542805541901153e-07   1.1649707685939766e-05
1.5617131933692646e-06   -4.542805541901153e-07   1.1649707685939766e-05
1.5617131933692646e-06   -4.542805541901153e-07   1.1649707685939766e-05
-2.901605292945606e-06   9.187410097484961e-07   5.0346564804449895e-06
-2.901605292945606e-06   9.187410097484961e-07   5.0346564804449895e-06
-2.901605292945606e-06   9.187410097484961e-07   5.0346564804449895e-06
-2.901605292945606e-06   9.187410097484961e-07   5.0346564804449895e-06
-3.26655987830097e-06   -6.589559445732349e-07   1.214237288230894e-05
-3.26655987830097e-06   -6.589559445732349e-07   1.214237288230894e-05
-3.26655987830097e-06   -6.589559445732349e-07   1.214237288230894e-05
-3.26655987830097e-06   -6.589559445732349e-07   1.214237288230894e-05
7.820968784832564e-07   6.75040917418328e-07   4.594213503806964e-06
7.820968784832564e-07   6.75040917418328e-07   4.594213503806964e-06
7.820968784832564e-07   6.75040917418328e-07   4.594213503806964e-06
7.820968784832564e-07   6.75040917418328e-07   4.594213503806964e-06
-9.75864538626957e-07   1.9682829248423867e-07   7.811076773950963e-06
-9.75864538626957e-07   1.9682829248423867e-07   7.811076773950963e-06
-9.75864538626957e-07   1.9682829248423867e-07   7.811076773950963e-06
-9.75864538626957e-07   1.9682829248423867e-07   7.811076773950963e-06
7.8209687848327e-07   -6.589559445732349e-07   1.1341974765114002e-05
7.8209687848327e-07   -6.589559445732349e-07   1.1341974765114002e-05
7.8209687848327e-07   -6.589559445732349e-07   1.1341974765114002e-05
7.8209687848327e-07   -6.589559445732349e-07   1.1341974765114002e-05
-3.2665598783009632e-06   6.75040917418328e-07   5.39461162100182e-06
-3.2665598783009632e-06   6.75040917418328e-07   5.39461162100182e-06
-3.2665598783009632e-06   6.75040917418328e-07   5.39461162100182e-06
-3.2665598783009632e-06   6.75040917418328e-07   5.39461162100182e-06
-3.5718393369002688e-06   -9.989675598849612e-07   1.201751051305253e-05
-3.5718393369002688e-06   -9.989675598849612e-07   1.201751051305253e-05
-3.5718393369002688e-06   -9.989675598849612e-07   1.201751051305253e-05
-3.5718393369002688e-06   -9.989675598849612e-07   1.201751051305253e-05
-1.96305779746192e-07   1.588248853117433e-07   5.696945784011093e-06
-1.96305779746192e-07   1.588248853117433e-07   5.696945784011093e-06
-1.96305779746192e-07   1.588248853117433e-07   5.696945784011093e-06
-1.96305779746192e-07   1.588248853117433e-07   5.696945784011093e-06
-1.4994468854586363e-06   2.4472638414678102e-08   7.949458975003438e-06
-1.4994468854586363e-06   2.4472638414678102e-08   7.949458975003438e-06
-1.4994468854586363e-06   2.4472638414678102e-08   7.949458975003438e-06
-1.4994468854586363e-06   2.4472638414678102e-08   7.949458975003438e-06
-2.6062987639324967e-06   1.331115115029086e-06   2.0260452737512003e-05
-2.6062987639324967e-06   1.331115115029086e-06   2.0260452737512003e-05
-2.6062987639324967e-06   1.331115115029086e-06   2.0260452737512003e-05
-2.6062987639324967e-06   1.331115115029086e-06   2.0260452737512003e-05
-6.84523592497642e-06   1.597023226657568e-06   1.3355102336082422e-05
-6.84523592497642e-06   1.597023226657568e-06   1.3355102336082422e-05
-6.84523592497642e-06   1.597023226657568e-06   1.3355102336082422e-05
-6.84523592497642e-06   1.597023226657568e-06   1.3355102336082422e-05
-7.068271112954929e-06   7.940637382665428e-07   2.0204047463940776e-05
-7.068271112954929e-06   7.940637382665428e-07   2.0204047463940776e-05
-7.068271112954929e-06   7.940637382665428e-07   2.0204047463940776e-05
-7.068271112954929e-06   7.940637382665428e-07   2.0204047463940776e-05
-2.901605292945606e-06   1.1016029799357186e-06   1.3075080885590454e-05
-2.901605292945606e-06   1.1016029799357186e-06   1.3075080885590454e-05
-2.901605292945606e-06   1.1016029799357186e-06   1.3075080885590454e-05
-2.901605292945606e-06   1.1016029799357186e-06   1.3075080885590454e-05
-4.884989552770233e-06   1.1480978495788862e-06   1.635282439684557e-05
-4.884989552770233e-06   1.1480978495788862e-06   1.635282439684557e-05
-4.884989552770233e-06   1.1480978495788862e-06   1.635282439684557e-05
-4.884989552770233e-06   1.1480978495788862e-06   1.635282439684557e-05
-2.901605292945596e-06   7.940637382665428e-07   2.0019523918938858e-05
-2.901605292945596e-06   7.940637382665428e-07   2.0019523918938858e-05
-2.901605292945596e-06   7.940637382665428e-07   2.0019523918938858e-05
-2.901605292945596e-06   7.940637382665428e-07   2.0019523918938858e-05
-7.068271112954915e-06   1.1016029799357186e-06   1.3259604430591952e-05
-7.068271112954915e-06   1.1016029799357186e-06   1.3259604430591952e-05
-7.068271112954915e-06   1.1016029799357186e-06   1.3259604430591952e-05
-7.068271112954915e-06   1.1016029799357186e-06   1.3259604430591952e-05
-7.298366362149734e-06   3.393958684675888e-07   2.0240359096867513e-05
-7.298366362149734e-06   3.393958684675888e-07   2.0240359096867513e-05
-7.298366362149734e-06   3.393958684675888e-07   2.0240359096867513e-05
-7.298366362149734e-06   3.393958684675888e-07   2.0240359096867513e-05
-3.2665598783009632e-06   6.448890070601902e-07   1.3337385740630502e-05
-3.2665598783009632e-06   6.448890070601902e-07   1.3337385740630502e-05
-3.2665598783009632e-06   6.448890070601902e-07   1.3337385740630502e-05
-3.2665598783009632e-06   6.448890070601902e-07   1.3337385740630502e-05
-5.1128209126787114e-06   7.864121325598661e-07   1.6329573589293683e-05
-5.1128209126787114e-06   7.864121325598661e-07   1.6329573589293683e-05
-5.1128209126787114e-06   7.864121325598661e-07   1.6329573589293683e-05
-5.1128209126787114e-06   7.864121325598661e-07   1.6329573589293683e-05
-3.2665598783009632e-06   3.393958684675888e-07   2.005706321371169e-05
-3.2665598783009632e-06   3.393958684675888e-07   2.005706321371169e-05
-3.2665598783009632e-06   3.393958684675888e-07   2.005706321371169e-05
-3.2665598783009632e-06   3.393958684675888e-07   2.005706321371169e-05
-7.298366362149721e-06   6.448890070601902e-07   1.3520681623786215e-05
-7.298366362149721e-06   6.448890070601902e-07   1.3520681623786215e-05
-7.298366362149721e-06   6.448890070601902e-07   1.3520681623786215e-05
-7.298366362149721e-06   6.448890070601902e-07   1.3520681623786215e-05
-7.524201369296703e-06   -1.2464926795038508e-07   2.0630046883865277e-05
-7.524201369296703e-06   -1.2464926795038508e-07   2.0630046883865277e-05
-7.524201369296703e-06   -1.2464926795038508e-07   2.0630046883865277e-05
-7.524201369296703e-06   -1.2464926795038508e-07   2.0630046883865277e-05
-3.5718393369002586e-06   1.5073522552431877e-07   1.3877546133786472e-05
-3.5718393369002586e-06   1.5073522552431877e-07   1.3877546133786472e-05
-3.5718393369002586e-06   1.5073522552431877e-07   1.3877546133786472e-05
-3.5718393369002586e-06   1.5073522552431877e-07   1.3877546133786472e-05
-5.3401716770514655e-06   4.315015066438943e-07   1.6656306932033403e-05
-5.3401716770514655e-06   4.315015066438943e-07   1.6656306932033403e-05
-5.3401716770514655e-06   4.315015066438943e-07   1.6656306932033403e-05
-5.3401716770514655e-06   4.315015066438943e-07   1.6656306932033403e-05
-6.845235924976407e-06   2.4906316717322394e-06   2.2798084372893418e-05
-6.845235924976407e-06   2.4906316717322394e-06   2.2798084372893418e-05
-6.845235924976407e-06   2.4906316717322394e-06   2.2798084372893418e-05
-6.845235924976407e-06   2.4906316717322394e-06   2.2798084372893418e-05
-1.1066267011887974e-05   1.919145805566371e-06   1.5420141041674635e-05
-1.1066267011887974e-05   1.919145805566371e-06   1.5420141041674635e-05
-1.1066267011887974e-05   1.919145805566371e-06   1.5420141041674635e-05
-1.1066267011887974e-05   1.919145805566371e-06   1.5420141041674635e-05
-1.1255248786323085e-05   1.9960005114667227e-06   2.2375553488869146e-05
-1.1255248786323085e-05   1.9960005114667227e-06   2.2375553488869146e-05
-1.1255248786323085e-05   1.9960005114667227e-06   2.2375553488869146e-05
-1.1255248786323085e-05   1.9960005114667227e-06   2.2375553488869146e-05
-7.068271112954915e-06   1.4605205172345693e-06   1.57185453631281e-05
-7.068271112954915e-06   1.4605205172345693e-06   1.57185453631281e-05
-7.068271112954915e-06   1.4605205172345693e-06   1.57185453631281e-05
-7.068271112954915e-06   1.4605205172345693e-06   1.57185453631281e-05
-9.06353479405735e-06   1.9281304616000725e-06   1.87634188650127e-05
-9.06353479405735e-06   1.9281304616000725e-06   1.87634188650127e-05
-9.06353479405735e-06   1.9281304616000725e-06   1.87634188650127e-05
-9.06353479405735e-06   1.9281304616000725e-06   1.87634188650127e-05
-7.068271112954915e-06   1.9960005114667227e-06   2.2696841485408265e-05
-7.068271112954915e-06   1.9960005114667227e-06   2.2696841485408265e-05
-7.068271112954915e-06   1.9960005114667227e-06   2.2696841485408265e-05
-7.068271112954915e-06   1.9960005114667227e-06   2.2696841485408265e-05
-1.1255248786323085e-05   1.4605205172345693e-06   1.5397257366588763e-05
-1.1255248786323085e-05   1.4605205172345693e-06   1.5397257366588763e-05
-1.1255248786323085e-05   1.4605205172345693e-06   1.5397257366588763e-05
-1.1255248786323085e-05   1.4605205172345693e-06   1.5397257366588763e-05
-1.145767142703361e-05   1.5039165240124212e-06   2.2596776449320473e-05
-1.145767142703361e-05   1.5039165240124212e-06   2.2596776449320473e-05
-1.145767142703361e-05   1.5039165240124212e-06   2.2596776449320473e-05
-1.145767142703361e-05   1.5039165240124212e-06   2.2596776449320473e-05
-7.298366362149721e-06   9.944478941336038e-07   1.5970282519108014e-05
-7.298366362149721e-06   9.944478941336038e-07   1.5970282519108014e-05
-7.298366362149721e-06   9.944478941336038e-07   1.5970282519108014e-05
-7.298366362149721e-06   9.944478941336038e-07   1.5970282519108014e-05
-9.225015002451545e-06   1.5611369111583756e-06   1.8841350176062455e-05
-9.225015002451545e-06   1.5611369111583756e-06   1.8841350176062455e-05
-9.225015002451545e-06   1.5611369111583756e-06   1.8841350176062455e-05
-9.225015002451545e-06   1.5611369111583756e-06   1.8841350176062455e-05
-7.298366362149721e-06   1.5039165240124212e-06   2.290245762724761e-05
-7.298366362149721e-06   1.5039165240124212e-06   2.290245762724761e-05
-7.298366362149721e-06   1.5039165240124212e-06   2.290245762724761e-05
-7.298366362149721e-06   1.5039165240124212e-06   2.290245762724761e-05
-1.145767142703361e-05   9.944478941336038e-07   1.5664601341180658e-05
-1.145767142703361e-05   9.944478941336038e-07   1.5664601341180658e-05
-1.145767142703361e-05   9.944478941336038e-07   1.5664601341180658e-05
-1.145767142703361e-05   9.944478941336038e-07   1.5664601341180658e-05
-1.1655919666510626e-05   1.0328592487244583e-06   2.306086754553919e-05
-1.1655919666510626e-05   1.0328592487244583e-06   2.306086754553919e-05
-1.1655919666510626e-05   1.0328592487244583e-06   2.306086754553919e-05
-1.1655919666510626e-05   1.0328592487244583e-06   2.306086754553919e-05
-7.5242013692966895e-06   5.528504039388005e-07   1.6462675690387667e-05
-7.5242013692966895e-06   5.528504039388005e-07   1.6462675690387667e-05
-7.5242013692966895e-06   5.528504039388005e-07   1.6462675690387667e-05
-7.5242013692966895e-06   5.528504039388005e-07   1.6462675690387667e-05
-9.404915836133283e-06   1.1997651010646568e-06   1.9209050983506518e-05
-9.404915836133283e-06   1.1997651010646568e-06   1.9209050983506518e-05
-9.404915836133283e-06   1.1997651010646568e-06   1.9209050983506518e-05
-9.404915836133283e-06   1.1997651010646568e-06   1.9209050983506518e-05
-1.1066267011888002e-05   3.7029893127599276e-06   1.9714370742250588e-05
-1.1066267011888002e-05   3.7029893127599276e-06   1.9714370742250588e-05
-1.1066267011888002e-05   3.7029893127599276e-06   1.9714370742250588e-05
-1.1066267011888002e-05   3.7029893127599276e-06   1.9714370742250588e-05
-1.5219407038876798e-05   2.597091802942434e-06   1.2128932191378752e-05
-1.5219407038876798e-05   2.597091802942434e-06   1.2128932191378752e-05
-1.5219407038876798e-05   2.597091802942434e-06   1.2128932191378752e-05
-1.5219407038876798e-05   2.597091802942434e-06   1.2128932191378752e-05
-1.5427129965005758e-05   3.20437938557995e-06   1.913435697560909e-05
-1.5427129965005758e-05   3.20437938557995e-06   1.913435697560909e-05
-1.5427129965005758e-05   3.20437938557995e-06   1.913435697560909e-05
-1.5427129965005758e-05   3.20437938557995e-06   1.913435697560909e-05
-1.1255248786323085e-05   2.1146376516095744e-06   1.2835066718186851e-05
-1.1255248786323085e-05   2.1146376516095744e-06   1.2835066718186851e-05
-1.1255248786323085e-05   2.1146376516095744e-06   1.2835066718186851e-05
-1.1255248786323085e-05   2.1146376516095744e-06   1.2835066718186851e-05
-1.3213949735434784e-05   2.8793707852684935e-06   1.5640728419844387e-05
-1.3213949735434784e-05   2.8793707852684935e-06   1.5640728419844387e-05
-1.3213949735434784e-05   2.8793707852684935e-06   1.5640728419844387e-05
-1.3213949735434784e-05   2.8793707852684935e-06   1.5640728419844387e-05
-1.1255248786323085e-05   3.20437938557995e-06   1.9788202015991142e-05
-1.1255248786323085e-05   3.20437938557995e-06   1.9788202015991142e-05
-1.1255248786323085e-05   3.20437938557995e-06   1.9788202015991142e-05
-1.1255248786323085e-05   3.20437938557995e-06   1.9788202015991142e-05
-1.5427129965005703e-05   2.1146376516095744e-06   1.2181221677804582e-05
-1.5427129965005703e-05   2.1146376516095744e-06   1.2181221677804582e-05
-1.5427129965005703e-05   2.1146376516095744e-06   1.2181221677804582e-05
-1.5427129965005703e-05   2.1146376516095744e-06   1.2181221677804582e-05
-1.5713742235478364e-05   2.75076271929694e-06   1.976911633155094e-05
-1.5713742235478364e-05   2.75076271929694e-06   1.976911633155094e-05
-1.5713742235478364e-05   2.75076271929694e-06   1.976911633155094e-05
-1.5713742235478364e-05   2.75076271929694e-06   1.976911633155094e-05
-1.145767142703361e-05   1.6852002154961682e-06   1.3315002486423357e-05
-1.145767142703361e-05   1.6852002154961682e-06   1.3315002486423357e-05
-1.145767142703361e-05   1.6852002154961682e-06   1.3315002486423357e-05
-1.145767142703361e-05   1.6852002154961682e-06   1.3315002486423357e-05
-1.3326830586141437e-05   2.523708191073102e-06   1.592716296625659e-05
-1.3326830586141437e-05   2.523708191073102e-06   1.592716296625659e-05
-1.3326830586141437e-05   2.523708191073102e-06   1.592716296625659e-05
-1.3326830586141437e-05   2.523708191073102e-06   1.592716296625659e-05
-1.145767142703361e-05   2.75076271929694e-06   2.0408453833831055e-05
-1.145767142703361e-05   2.75076271929694e-06   2.0408453833831055e-05
-1.145767142703361e-05   2.75076271929694e-06   2.0408453833831055e-05
-1.145767142703361e-05   2.75076271929694e-06   2.0408453833831055e-05
-1.571374223547831e-05   1.6852002154962766e-06   1.2675664984143024e-05
-1.571374223547831e-05   1.6852002154962766e-06   1.2675664984143024e-05
-1.571374223547831e-05   1.6852002154962766e-06   1.2675664984143024e-05
-1.571374223547831e-05   1.6852002154962766e-06   1.2675664984143024e-05
-1.5943406330608462e-05   2.265686580026332e-06   2.047441995296599e-05
-1.5943406330608462e-05   2.265686580026332e-06   2.047441995296599e-05
-1.5943406330608462e-05   2.265686580026332e-06   2.047441995296599e-05
-1.5943406330608462e-05   2.265686580026332e-06   2.047441995296599e-05
-1.1655919666510599e-05   1.2474845297357883e-06   1.3939530076310675e-05
-1.1655919666510599e-05   1.2474845297357883e-06   1.3939530076310675e-05
-1.1655919666510599e-05   1.2474845297357883e-06   1.3939530076310675e-05
-1.1655919666510599e-05   1.2474845297357883e-06   1.3939530076310675e-05
-1.3564472824696979e-05   2.185235154151936e-06   1.6557801631971955e-05
-1.3564472824696979e-05   2.185235154151936e-06   1.6557801631971955e-05
-1.3564472824696979e-05   2.185235154151936e-06   1.6557801631971955e-05
-1.3564472824696979e-05   2.185235154151936e-06   1.6557801631971955e-05
-1.5219407038876798e-05   4.560667662315866e-06   8.704947891878707e-06
-1.5219407038876798e-05   4.560667662315866e-06   8.704947891878707e-06
-1.5219407038876798e-05   4.560667662315866e-06   8.704947891878707e-06
-1.5219407038876798e-05   4.560667662315866e-06   8.704947891878707e-06
-1.849136150737431e-05   3.0728884901381386e-06   2.359022941076131e-06
-1.849136150737431e-05   3.0728884901381386e-06   2.359022941076131e-06
-1.849136150737431e-05   3.0728884901381386e-06   2.359022941076131e-06
-1.849136150737431e-05   3.0728884901381386e-06   2.359022941076131e-06
-1.927809683776086e-05   4.305549501420732e-06   1.0208738460531271e-05
-1.927809683776086e-05   4.305549501420732e-06   1.0208738460531271e-05
-1.927809683776086e-05   4.305549501420732e-06   1.0208738460531271e-05
-1.927809683776086e-05   4.305549501420732e-06   1.0208738460531271e-05
-1.5427129965005703e-05   2.7519175573603337e-06   4.7226395057087234e-06
-1.5427129965005703e-05   2.7519175573603337e-06   4.7226395057087234e-06
-1.5427129965005703e-05   2.7519175573603337e-06   4.7226395057087234e-06
-1.5427129965005703e-05   2.7519175573603337e-06   4.7226395057087234e-06
-1.651026968655479e-05   3.634927800845347e-06   5.998066228866364e-06
-1.651026968655479e-05   3.634927800845347e-06   5.998066228866364e-06
-1.651026968655479e-05   3.634927800845347e-06   5.998066228866364e-06
-1.651026968655479e-05   3.634927800845347e-06   5.998066228866364e-06
-1.5427129965005703e-05   4.305549501420732e-06   1.1140917626967011e-05
-1.5427129965005703e-05   4.305549501420732e-06   1.1140917626967011e-05
-1.5427129965005703e-05   4.305549501420732e-06   1.1140917626967011e-05
-1.5427129965005703e-05   4.305549501420732e-06   1.1140917626967011e-05
-1.927809683776086e-05   2.7519175573603337e-06   3.7904603392725496e-06
-1.927809683776086e-05   2.7519175573603337e-06   3.7904603392725496e-06
-1.927809683776086e-05   2.7519175573603337e-06   3.7904603392725496e-06
-1.927809683776086e-05   2.7519175573603337e-06   3.7904603392725496e-06
-1.9953202098156153e-05   4.091794278463e-06   1.2022823455961175e-05
-1.9953202098156153e-05   4.091794278463e-06   1.2022823455961175e-05
-1.9953202098156153e-05   4.091794278463e-06   1.2022823455961175e-05
-1.9953202098156153e-05   4.091794278463e-06   1.2022823455961175e-05
-1.5713742235478364e-05   2.531295848261423e-06   5.893356076285678e-06
-1.5713742235478364e-05   2.531295848261423e-06   5.893356076285678e-06
-1.5713742235478364e-05   2.531295848261423e-06   5.893356076285678e-06
-1.5713742235478364e-05   2.531295848261423e-06   5.893356076285678e-06
-1.7177467447469596e-05   3.50943068046076e-06   7.746017196951427e-06
-1.7177467447469596e-05   3.50943068046076e-06   7.746017196951427e-06
-1.7177467447469596e-05   3.50943068046076e-06   7.746017196951427e-06
-1.7177467447469596e-05   3.50943068046076e-06   7.746017196951427e-06
-1.5713742235478364e-05   4.091794278463e-06   1.2959122514081991e-05
-1.5713742235478364e-05   4.091794278463e-06   1.2959122514081991e-05
-1.5713742235478364e-05   4.091794278463e-06   1.2959122514081991e-05
-1.5713742235478364e-05   4.091794278463e-06   1.2959122514081991e-05
-1.9953202098156207e-05   2.5312958482613147e-06   4.957057018164807e-06
-1.9953202098156207e-05   2.5312958482613147e-06   4.957057018164807e-06
-1.9953202098156207e-05   2.5312958482613147e-06   4.957057018164807e-06
-1.9953202098156207e-05   2.5312958482613147e-06   4.957057018164807e-06
-2.0812085226522552e-05   3.5094277964730063e-06   1.5305032402807613e-05
-2.0812085226522552e-05   3.5094277964730063e-06   1.5305032402807613e-05
-2.0812085226522552e-05   3.5094277964730063e-06   1.5305032402807613e-05
-2.0812085226522552e-05   3.5094277964730063e-06   1.5305032402807613e-05
-1.5943406330608462e-05   2.0237587173112855e-06   8.081969023781416e-06
-1.5943406330608462e-05   2.0237587173112855e-06   8.081969023781416e-06
-1.5943406330608462e-05   2.0237587173112855e-06   8.081969023781416e-06
-1.5943406330608462e-05   2.0237587173112855e-06   8.081969023781416e-06
-1.736724536243424e-05   3.267568254277666e-06   9.708748354644511e-06
-1.736724536243424e-05   3.267568254277666e-06   9.708748354644511e-06
-1.736724536243424e-05   3.267568254277666e-06   9.708748354644511e-06
-1.736724536243424e-05   3.267568254277666e-06   9.708748354644511e-06
-7.47264610547015e-06   1.3627005758527332e-06   9.04876919253421e-06
-7.47264610547015e-06   1.3627005758527332e-06   9.04876919253421e-06
-7.47264610547015e-06   1.3627005758527332e-06   9.04876919253421e-06
-7.47264610547015e-06   1.3627005758527332e-06   9.04876919253421e-06
-8.214484160640192e-06   2.581570910870968e-06   8.54369463492837e-06
-8.214484160640192e-06   2.581570910870968e-06   8.54369463492837e-06
-8.214484160640192e-06   2.581570910870968e-06   8.54369463492837e-06
-8.214484160640192e-06   2.581570910870968e-06   8.54369463492837e-06
-8.42788177805827e-06   9.187410097484961e-07   9.708742838422592e-06
-8.42788177805827e-06   9.187410097484961e-07   9.708742838422592e-06
-8.42788177805827e-06   9.187410097484961e-07   9.708742838422592e-06
-8.42788177805827e-06   9.187410097484961e-07   9.708742838422592e-06
-8.366507964218845e-06   2.015355242646565e-06   8.948484608951434e-06
-8.366507964218845e-06   2.015355242646565e-06   8.948484608951434e-06
-8.366507964218845e-06   2.015355242646565e-06   8.948484608951434e-06
-8.366507964218845e-06   2.015355242646565e-06   8.948484608951434e-06
-7.919952067947337e-06   1.6064991815496364e-06   8.449538418490355e-06
-7.919952067947337e-06   1.6064991815496364e-06   8.449538418490355e-06
-7.919952067947337e-06   1.6064991815496364e-06   8.449538418490355e-06
-7.919952067947337e-06   1.6064991815496364e-06   8.449538418490355e-06
-8.366507964218859e-06   9.187410097484961e-07   9.050774298683848e-06
-8.366507964218859e-06   9.187410097484961e-07   9.050774298683848e-06
-8.366507964218859e-06   9.187410097484961e-07   9.050774298683848e-06
-8.366507964218859e-06   9.187410097484961e-07   9.050774298683848e-06
-8.42788177805827e-06   2.015355242646565e-06   9.606453148690232e-06
-8.42788177805827e-06   2.015355242646565e-06   9.606453148690232e-06
-8.42788177805827e-06   2.015355242646565e-06   9.606453148690232e-06
-8.42788177805827e-06   2.015355242646565e-06   9.606453148690232e-06
-8.70476860484197e-06   6.75040917418328e-07   1.0009088943400935e-05
-8.70476860484197e-06   6.75040917418328e-07   1.0009088943400935e-05
-8.70476860484197e-06   6.75040917418328e-07   1.0009088943400935e-05
-8.70476860484197e-06   6.75040917418328e-07   1.0009088943400935e-05
-9.23636480061361e-06   1.6245416346432609e-06   1.032538217268531e-05
-9.23636480061361e-06   1.6245416346432609e-06   1.032538217268531e-05
-9.23636480061361e-06   1.6245416346432609e-06   1.032538217268531e-05
-9.23636480061361e-06   1.6245416346432609e-06   1.032538217268531e-05
-8.451748615926208e-06   1.3624596436136215e-06   9.174937726157389e-06
-8.451748615926208e-06   1.3624596436136215e-06   9.174937726157389e-06
-8.451748615926208e-06   1.3624596436136215e-06   9.174937726157389e-06
-8.451748615926208e-06   1.3624596436136215e-06   9.174937726157389e-06
-9.236364800613631e-06   6.75040917418328e-07   9.439388513065824e-06
-9.236364800613631e-06   6.75040917418328e-07   9.439388513065824e-06
-9.236364800613631e-06   6.75040917418328e-07   9.439388513065824e-06
-9.236364800613631e-06   6.75040917418328e-07   9.439388513065824e-06
-8.70476860484197e-06   1.6245416346432609e-06   1.0895082603020313e-05
-8.70476860484197e-06   1.6245416346432609e-06   1.0895082603020313e-05
-8.70476860484197e-06   1.6245416346432609e-06   1.0895082603020313e-05
-8.70476860484197e-06   1.6245416346432609e-06   1.0895082603020313e-05
-8.881772348013143e-06   1.588248853117433e-07   1.0988821402924489e-05
-8.881772348013143e-06   1.588248853117433e-07   1.0988821402924489e-05
-8.881772348013143e-06   1.588248853117433e-07   1.0988821402924489e-05
-8.881772348013143e-06   1.588248853117433e-07   1.0988821402924489e-05
-1.0162834826904744e-05   6.636374161640441e-07   1.2821038015899e-05
-1.0162834826904744e-05   6.636374161640441e-07   1.2821038015899e-05
-1.0162834826904744e-05   6.636374161640441e-07   1.2821038015899e-05
-1.0162834826904744e-05   6.636374161640441e-07   1.2821038015899e-05
-8.827082630748432e-06   1.063721577454946e-06   1.0354733858863614e-05
-8.827082630748432e-06   1.063721577454946e-06   1.0354733858863614e-05
-8.827082630748432e-06   1.063721577454946e-06   1.0354733858863614e-05
-8.827082630748432e-06   1.063721577454946e-06   1.0354733858863614e-05
-8.214484160640192e-06   1.597023226657568e-06   1.7960118524110906e-05
-8.214484160640192e-06   1.597023226657568e-06   1.7960118524110906e-05
-8.214484160640192e-06   1.597023226657568e-06   1.7960118524110906e-05
-8.214484160640192e-06   1.597023226657568e-06   1.7960118524110906e-05
-8.352494949830541e-06   6.686076599615211e-07   1.7173051202109386e-05
-8.352494949830541e-06   6.686076599615211e-07   1.7173051202109386e-05
-8.352494949830541e-06   6.686076599615211e-07   1.7173051202109386e-05
-8.352494949830541e-06   6.686076599615211e-07   1.7173051202109386e-05
-8.419607210885985e-06   1.1016029799357186e-06   1.727976195405555e-05
-8.419607210885985e-06   1.1016029799357186e-06   1.727976195405555e-05
-8.419607210885985e-06   1.1016029799357186e-06   1.727976195405555e-05
-8.419607210885985e-06   1.1016029799357186e-06   1.727976195405555e-05
-8.42788177805827e-06   3.1926083074798606e-07   1.7762958188855236e-05
-8.42788177805827e-06   3.1926083074798606e-07   1.7762958188855236e-05
-8.42788177805827e-06   3.1926083074798606e-07   1.7762958188855236e-05
-8.42788177805827e-06   3.1926083074798606e-07   1.7762958188855236e-05
-8.328614629572327e-06   8.144852499426813e-07   1.7300378289861906e-05
-8.328614629572327e-06   8.144852499426813e-07   1.7300378289861906e-05
-8.328614629572327e-06   8.144852499426813e-07   1.7300378289861906e-05
-8.328614629572327e-06   8.144852499426813e-07   1.7300378289861906e-05
-8.427881778058278e-06   1.1016029799357186e-06   1.7749167243568016e-05
-8.427881778058278e-06   1.1016029799357186e-06   1.7749167243568016e-05
-8.427881778058278e-06   1.1016029799357186e-06   1.7749167243568016e-05
-8.427881778058278e-06   1.1016029799357186e-06   1.7749167243568016e-05
-8.419607210885985e-06   3.1926083074798606e-07   1.7293552899342614e-05
-8.419607210885985e-06   3.1926083074798606e-07   1.7293552899342614e-05
-8.419607210885985e-06   3.1926083074798606e-07   1.7293552899342614e-05
-8.419607210885985e-06   3.1926083074798606e-07   1.7293552899342614e-05
-8.50253840011775e-06   6.448890070601902e-07   1.7514148476946824e-05
-8.50253840011775e-06   6.448890070601902e-07   1.7514148476946824e-05
-8.50253840011775e-06   6.448890070601902e-07   1.7514148476946824e-05
-8.50253840011775e-06   6.448890070601902e-07   1.7514148476946824e-05
-8.70476860484197e-06   -8.463530307785318e-08   1.828891340423667e-05
-8.70476860484197e-06   -8.463530307785318e-08   1.828891340423667e-05
-8.70476860484197e-06   -8.463530307785318e-08   1.828891340423667e-05
-8.70476860484197e-06   -8.463530307785318e-08   1.828891340423667e-05
-8.410615506138769e-06   5.257454020102161e-07   1.7432429816678727e-05
-8.410615506138769e-06   5.257454020102161e-07   1.7432429816678727e-05
-8.410615506138769e-06   5.257454020102161e-07   1.7432429816678727e-05
-8.410615506138769e-06   5.257454020102161e-07   1.7432429816678727e-05
-8.70476860484197e-06   6.448890070601902e-07   1.795186306302951e-05
-8.70476860484197e-06   6.448890070601902e-07   1.795186306302951e-05
-8.70476860484197e-06   6.448890070601902e-07   1.795186306302951e-05
-8.70476860484197e-06   6.448890070601902e-07   1.795186306302951e-05
-8.502538400117737e-06   -8.463530307785318e-08   1.7851198818153824e-05
-8.502538400117737e-06   -8.463530307785318e-08   1.7851198818153824e-05
-8.502538400117737e-06   -8.463530307785318e-08   1.7851198818153824e-05
-8.502538400117737e-06   -8.463530307785318e-08   1.7851198818153824e-05
-8.563519999382034e-06   1.5073522552431877e-07   1.8015513562210143e-05
-8.563519999382034e-06   1.5073522552431877e-07   1.8015513562210143e-05
-8.563519999382034e-06   1.5073522552431877e-07   1.8015513562210143e-05
-8.563519999382034e-06   1.5073522552431877e-07   1.8015513562210143e-05
-8.881772348013126e-06   -6.146526467619559e-07   1.9005166866633492e-05
-8.881772348013126e-06   -6.146526467619559e-07   1.9005166866633492e-05
-8.881772348013126e-06   -6.146526467619559e-07   1.9005166866633492e-05
-8.881772348013126e-06   -6.146526467619559e-07   1.9005166866633492e-05
-8.539213129638476e-06   1.871564976265068e-07   1.7953149349375514e-05
-8.539213129638476e-06   1.871564976265068e-07   1.7953149349375514e-05
-8.539213129638476e-06   1.871564976265068e-07   1.7953149349375514e-05
-8.539213129638476e-06   1.871564976265068e-07   1.7953149349375514e-05
-8.352494949830555e-06   1.919145805566371e-06   1.98109994093851e-05
-8.352494949830555e-06   1.919145805566371e-06   1.98109994093851e-05
-8.352494949830555e-06   1.919145805566371e-06   1.98109994093851e-05
-8.352494949830555e-06   1.919145805566371e-06   1.98109994093851e-05
-9.01591235323408e-06   1.8658409768254874e-07   1.766576671231553e-05
-9.01591235323408e-06   1.8658409768254874e-07   1.766576671231553e-05
-9.01591235323408e-06   1.8658409768254874e-07   1.766576671231553e-05
-9.01591235323408e-06   1.8658409768254874e-07   1.766576671231553e-05
-9.039555204595073e-06   1.4605205172345693e-06   1.879772828601513e-05
-9.039555204595073e-06   1.4605205172345693e-06   1.879772828601513e-05
-9.039555204595073e-06   1.4605205172345693e-06   1.879772828601513e-05
-9.039555204595073e-06   1.4605205172345693e-06   1.879772828601513e-05
-8.419607210885985e-06   -1.0777048372635767e-07   1.8705456230409833e-05
-8.419607210885985e-06   -1.0777048372635767e-07   1.8705456230409833e-05
-8.419607210885985e-06   -1.0777048372635767e-07   1.8705456230409833e-05
-8.419607210885985e-06   -1.0777048372635767e-07   1.8705456230409833e-05
-8.692290808848672e-06   8.35067590914014e-07   1.8594226048896756e-05
-8.692290808848672e-06   8.35067590914014e-07   1.8594226048896756e-05
-8.692290808848672e-06   8.35067590914014e-07   1.8594226048896756e-05
-8.692290808848672e-06   8.35067590914014e-07   1.8594226048896756e-05
-8.419607210885985e-06   1.4605205172345693e-06   1.9738702886591642e-05
-8.419607210885985e-06   1.4605205172345693e-06   1.9738702886591642e-05
-8.419607210885985e-06   1.4605205172345693e-06   1.9738702886591642e-05
-8.419607210885985e-06   1.4605205172345693e-06   1.9738702886591642e-05
-9.039555204595046e-06   -1.0777048372635767e-07   1.7764481629833293e-05
-9.039555204595046e-06   -1.0777048372635767e-07   1.7764481629833293e-05
-9.039555204595046e-06   -1.0777048372635767e-07   1.7764481629833293e-05
-9.039555204595046e-06   -1.0777048372635767e-07   1.7764481629833293e-05
-9.081272140489617e-06   9.944478941336038e-07   1.9090963658586558e-05
-9.081272140489617e-06   9.944478941336038e-07   1.9090963658586558e-05
-9.081272140489617e-06   9.944478941336038e-07   1.9090963658586558e-05
-9.081272140489617e-06   9.944478941336038e-07   1.9090963658586558e-05
-8.502538400117737e-06   -4.601949620032259e-07   1.8999193138315466e-05
-8.502538400117737e-06   -4.601949620032259e-07   1.8999193138315466e-05
-8.502538400117737e-06   -4.601949620032259e-07   1.8999193138315466e-05
-8.502538400117737e-06   -4.601949620032259e-07   1.8999193138315466e-05
-8.698647103902957e-06   5.438332607219081e-07   1.872362404432246e-05
-8.698647103902957e-06   5.438332607219081e-07   1.872362404432246e-05
-8.698647103902957e-06   5.438332607219081e-07   1.872362404432246e-05
-8.698647103902957e-06   5.438332607219081e-07   1.872362404432246e-05
-8.502538400117737e-06   9.944478941336038e-07   1.996374937226846e-05
-8.502538400117737e-06   9.944478941336038e-07   1.996374937226846e-05
-8.502538400117737e-06   9.944478941336038e-07   1.996374937226846e-05
-8.502538400117737e-06   9.944478941336038e-07   1.996374937226846e-05
-9.081272140489617e-06   -4.601949620032259e-07   1.8126407424633455e-05
-9.081272140489617e-06   -4.601949620032259e-07   1.8126407424633455e-05
-9.081272140489617e-06   -4.601949620032259e-07   1.8126407424633455e-05
-9.081272140489617e-06   -4.601949620032259e-07   1.8126407424633455e-05
-9.108596935984714e-06   5.528504039389089e-07   1.9615530653165677e-05
-9.108596935984714e-06   5.528504039389089e-07   1.9615530653165677e-05
-9.108596935984714e-06   5.528504039389089e-07   1.9615530653165677e-05
-9.108596935984714e-06   5.528504039389089e-07   1.9615530653165677e-05
-8.56351999938202e-06   -8.136192119954878e-07   1.952695086172165e-05
-8.56351999938202e-06   -8.136192119954878e-07   1.952695086172165e-05
-8.56351999938202e-06   -8.136192119954878e-07   1.952695086172165e-05
-8.56351999938202e-06   -8.136192119954878e-07   1.952695086172165e-05
-8.719547106019345e-06   2.4452087747249465e-07   1.9152111985769218e-05
-8.719547106019345e-06   2.4452087747249465e-07   1.9152111985769218e-05
-8.719547106019345e-06   2.4452087747249465e-07   1.9152111985769218e-05
-8.719547106019345e-06   2.4452087747249465e-07   1.9152111985769218e-05
-9.01591235323408e-06   2.597091802942434e-06   1.6143792040249343e-05
-9.01591235323408e-06   2.597091802942434e-06   1.6143792040249343e-05
-9.01591235323408e-06   2.597091802942434e-06   1.6143792040249343e-05
-9.01591235323408e-06   2.597091802942434e-06   1.6143792040249343e-05
-9.965257161704329e-06   8.541006357049583e-07   1.351575599245643e-05
-9.965257161704329e-06   8.541006357049583e-07   1.351575599245643e-05
-9.965257161704329e-06   8.541006357049583e-07   1.351575599245643e-05
-9.965257161704329e-06   8.541006357049583e-07   1.351575599245643e-05
-9.983270165818566e-06   2.1146376516095744e-06   1.5246380754214734e-05
-9.983270165818566e-06   2.1146376516095744e-06   1.5246380754214734e-05
-9.983270165818566e-06   2.1146376516095744e-06   1.5246380754214734e-05
-9.983270165818566e-06   2.1146376516095744e-06   1.5246380754214734e-05
-9.039555204595073e-06   4.660428459453978e-07   1.4662679368907406e-05
-9.039555204595073e-06   4.660428459453978e-07   1.4662679368907406e-05
-9.039555204595073e-06   4.660428459453978e-07   1.4662679368907406e-05
-9.039555204595073e-06   4.660428459453978e-07   1.4662679368907406e-05
-9.476213082361138e-06   1.5430826078994793e-06   1.4744218641345066e-05
-9.476213082361138e-06   1.5430826078994793e-06   1.4744218641345066e-05
-9.476213082361138e-06   1.5430826078994793e-06   1.4744218641345066e-05
-9.476213082361138e-06   1.5430826078994793e-06   1.4744218641345066e-05
-9.039555204595073e-06   2.1146376516095744e-06   1.6235537637613218e-05
-9.039555204595073e-06   2.1146376516095744e-06   1.6235537637613218e-05
-9.039555204595073e-06   2.1146376516095744e-06   1.6235537637613218e-05
-9.039555204595073e-06   2.1146376516095744e-06   1.6235537637613218e-05
-9.983270165818512e-06   4.660428459453978e-07   1.3673522485508868e-05
-9.983270165818512e-06   4.660428459453978e-07   1.3673522485508868e-05
-9.983270165818512e-06   4.660428459453978e-07   1.3673522485508868e-05
-9.983270165818512e-06   4.660428459453978e-07   1.3673522485508868e-05
-1.0092858743782475e-05   1.6852002154962766e-06   1.581041629334322e-05
-1.0092858743782475e-05   1.6852002154962766e-06   1.581041629334322e-05
-1.0092858743782475e-05   1.6852002154962766e-06   1.581041629334322e-05
-1.0092858743782475e-05   1.6852002154962766e-06   1.581041629334322e-05
-9.081272140489617e-06   1.3361936468609184e-07   1.5055387131674466e-05
-9.081272140489617e-06   1.3361936468609184e-07   1.5055387131674466e-05
-9.081272140489617e-06   1.3361936468609184e-07   1.5055387131674466e-05
-9.081272140489617e-06   1.3361936468609184e-07   1.5055387131674466e-05
-9.450636864310487e-06   1.2246230636659555e-06   1.5016392785321324e-05
-9.450636864310487e-06   1.2246230636659555e-06   1.5016392785321324e-05
-9.450636864310487e-06   1.2246230636659555e-06   1.5016392785321324e-05
-9.450636864310487e-06   1.2246230636659555e-06   1.5016392785321324e-05
-9.08127214048959e-06   1.6852002154962766e-06   1.6741364803828985e-05
-9.08127214048959e-06   1.6852002154962766e-06   1.6741364803828985e-05
-9.08127214048959e-06   1.6852002154962766e-06   1.6741364803828985e-05
-9.08127214048959e-06   1.6852002154962766e-06   1.6741364803828985e-05
-1.0092858743782475e-05   1.3361936468598342e-07   1.4124438621188431e-05
-1.0092858743782475e-05   1.3361936468598342e-07   1.4124438621188431e-05
-1.0092858743782475e-05   1.3361936468598342e-07   1.4124438621188431e-05
-1.0092858743782475e-05   1.3361936468598342e-07   1.4124438621188431e-05
-1.0158641347675563e-05   1.2474845297356799e-06   1.6510954885671256e-05
-1.0158641347675563e-05   1.2474845297356799e-06   1.6510954885671256e-05
-1.0158641347675563e-05   1.2474845297356799e-06   1.6510954885671256e-05
-1.0158641347675563e-05   1.2474845297356799e-06   1.6510954885671256e-05
-9.108596935984687e-06   -2.0157457074592832e-07   1.5630316326475306e-05
-9.108596935984687e-06   -2.0157457074592832e-07   1.5630316326475306e-05
-9.108596935984687e-06   -2.0157457074592832e-07   1.5630316326475306e-05
-9.108596935984687e-06   -2.0157457074592832e-07   1.5630316326475306e-05
-9.499598617785046e-06   9.400059788797731e-07   1.5597037466366875e-05
-9.499598617785046e-06   9.400059788797731e-07   1.5597037466366875e-05
-9.499598617785046e-06   9.400059788797731e-07   1.5597037466366875e-05
-9.499598617785046e-06   9.400059788797731e-07   1.5597037466366875e-05
-9.965257161704329e-06   3.0728884901381386e-06   6.2207555929107e-06
-9.965257161704329e-06   3.0728884901381386e-06   6.2207555929107e-06
-9.965257161704329e-06   3.0728884901381386e-06   6.2207555929107e-06
-9.965257161704329e-06   3.0728884901381386e-06   6.2207555929107e-06
-9.865424483013533e-06   1.4105169282139672e-06   5.389720453574307e-06
-9.865424483013533e-06   1.4105169282139672e-06   5.389720453574307e-06
-9.865424483013533e-06   1.4105169282139672e-06   5.389720453574307e-06
-9.865424483013533e-06   1.4105169282139672e-06   5.389720453574307e-06
-1.0372841651816575e-05   2.7519175573603337e-06   6.817968476232478e-06
-1.0372841651816575e-05   2.7519175573603337e-06   6.817968476232478e-06
-1.0372841651816575e-05   2.7519175573603337e-06   6.817968476232478e-06
-1.0372841651816575e-05   2.7519175573603337e-06   6.817968476232478e-06
-9.983270165818512e-06   1.1355340475498708e-06   7.138512772122084e-06
-9.983270165818512e-06   1.1355340475498708e-06   7.138512772122084e-06
-9.983270165818512e-06   1.1355340475498708e-06   7.138512772122084e-06
-9.983270165818512e-06   1.1355340475498708e-06   7.138512772122084e-06
-9.720073357125233e-06   2.1629247330862177e-06   6.083417012978012e-06
-9.720073357125233e-06   2.1629247330862177e-06   6.083417012978012e-06
-9.720073357125233e-06   2.1629247330862177e-06   6.083417012978012e-06
-9.720073357125233e-06   2.1629247330862177e-06   6.083417012978012e-06
-9.983270165818512e-06   2.7519175573603337e-06   7.787798582118766e-06
-9.983270165818512e-06   2.7519175573603337e-06   7.787798582118766e-06
-9.983270165818512e-06   2.7519175573603337e-06   7.787798582118766e-06
-9.983270165818512e-06   2.7519175573603337e-06   7.787798582118766e-06
-1.0372841651816575e-05   1.1355340475498708e-06   6.168682666235796e-06
-1.0372841651816575e-05   1.1355340475498708e-06   6.168682666235796e-06
-1.0372841651816575e-05   1.1355340475498708e-06   6.168682666235796e-06
-1.0372841651816575e-05   1.1355340475498708e-06   6.168682666235796e-06
-1.081821979826553e-05   2.5312958482613147e-06   8.082821117975122e-06
-1.081821979826553e-05   2.5312958482613147e-06   8.082821117975122e-06
-1.081821979826553e-05   2.5312958482613147e-06   8.082821117975122e-06
-1.081821979826553e-05   2.5312958482613147e-06   8.082821117975122e-06
-1.009285874378242e-05   9.558187357435561e-07   7.819172294680694e-06
-1.009285874378242e-05   9.558187357435561e-07   7.819172294680694e-06
-1.009285874378242e-05   9.558187357435561e-07   7.819172294680694e-06
-1.009285874378242e-05   9.558187357435561e-07   7.819172294680694e-06
-1.0082292892892004e-05   2.002869679497226e-06   7.173331976944924e-06
-1.0082292892892004e-05   2.002869679497226e-06   7.173331976944924e-06
-1.0082292892892004e-05   2.002869679497226e-06   7.173331976944924e-06
-1.0082292892892004e-05   2.002869679497226e-06   7.173331976944924e-06
-1.009285874378242e-05   2.5312958482613147e-06   9.028107385485658e-06
-1.009285874378242e-05   2.5312958482613147e-06   9.028107385485658e-06
-1.009285874378242e-05   2.5312958482613147e-06   9.028107385485658e-06
-1.009285874378242e-05   2.5312958482613147e-06   9.028107385485658e-06
-1.0818219798265584e-05   9.558187357435561e-07   6.8738860271701035e-06
-1.0818219798265584e-05   9.558187357435561e-07   6.8738860271701035e-06
-1.0818219798265584e-05   9.558187357435561e-07   6.8738860271701035e-06
-1.0818219798265584e-05   9.558187357435561e-07   6.8738860271701035e-06
-1.1479043757081349e-05   2.0237587173112855e-06   1.0406054620193156e-05
-1.1479043757081349e-05   2.0237587173112855e-06   1.0406054620193156e-05
-1.1479043757081349e-05   2.0237587173112855e-06   1.0406054620193156e-05
-1.1479043757081349e-05   2.0237587173112855e-06   1.0406054620193156e-05
-1.0158641347675509e-05   5.933246454394503e-07   9.063644380973078e-06
-1.0158641347675509e-05   5.933246454394503e-07   9.063644380973078e-06
-1.0158641347675509e-05   5.933246454394503e-07   9.063644380973078e-06
-1.0158641347675509e-05   5.933246454394503e-07   9.063644380973078e-06
-1.020489239848379e-05   1.8117642785191613e-06   8.409665685804677e-06
-1.020489239848379e-05   1.8117642785191613e-06   8.409665685804677e-06
-1.020489239848379e-05   1.8117642785191613e-06   8.409665685804677e-06
-1.020489239848379e-05   1.8117642785191613e-06   8.409665685804677e-06
-1.949212583643016e-05   2.581570910870968e-06   7.584130316428425e-06
-1.949212583643016e-05   2.581570910870968e-06   7.584130316428425e-06
-1.949212583643016e-05   2.581570910870968e-06   7.584130316428425e-06
-1.949212583643016e-05   2.581570910870968e-06   7.584130316428425e-06
-1.3176795642267091e-05   3.572529743183048e-06   1.8704255939420782e-05
-1.3176795642267091e-05   3.572529743183048e-06   1.8704255939420782e-05
-1.3176795642267091e-05   3.572529743183048e-06   1.8704255939420782e-05
-1.3176795642267091e-05   3.572529743183048e-06   1.8704255939420782e-05
-1.3171680420201603e-05   2.0153552426464567e-06   8.599263212837841e-06
-1.3171680420201603e-05   2.0153552426464567e-06   8.599263212837841e-06
-1.3171680420201603e-05   2.0153552426464567e-06   8.599263212837841e-06
-1.3171680420201603e-05   2.0153552426464567e-06   8.599263212837841e-06
-2.148019217627302e-05   1.4390408351685233e-06   2.2792571450777074e-05
-2.148019217627302e-05   1.4390408351685233e-06   2.2792571450777074e-05
-2.148019217627302e-05   1.4390408351685233e-06   2.2792571450777074e-05
-2.148019217627302e-05   1.4390408351685233e-06   2.2792571450777074e-05
-1.5961359133833713e-05   2.115118283538362e-06   1.318886991102298e-05
-1.5961359133833713e-05   2.115118283538362e-06   1.318886991102298e-05
-1.5961359133833713e-05   2.115118283538362e-06   1.318886991102298e-05
-1.5961359133833713e-05   2.115118283538362e-06   1.318886991102298e-05
-2.1480192176273055e-05   2.0153552426464567e-06   8.94505185732459e-06
-2.1480192176273055e-05   2.0153552426464567e-06   8.94505185732459e-06
-2.1480192176273055e-05   2.0153552426464567e-06   8.94505185732459e-06
-2.1480192176273055e-05   2.0153552426464567e-06   8.94505185732459e-06
-1.317168042020158e-05   1.4390408351685233e-06   2.244678280629027e-05
-1.317168042020158e-05   1.4390408351685233e-06   2.244678280629027e-05
-1.317168042020158e-05   1.4390408351685233e-06   2.244678280629027e-05
-1.317168042020158e-05   1.4390408351685233e-06   2.244678280629027e-05
-1.3354360811206882e-05   1.6245416346432609e-06   9.611090488719165e-06
-1.3354360811206882e-05   1.6245416346432609e-06   9.611090488719165e-06
-1.3354360811206882e-05   1.6245416346432609e-06   9.611090488719165e-06
-1.3354360811206882e-05   1.6245416346432609e-06   9.611090488719165e-06
-2.1558512768448652e-05   1.02971019852341e-06   2.3641575945794094e-05
-2.1558512768448652e-05   1.02971019852341e-06   2.3641575945794094e-05
-2.1558512768448652e-05   1.02971019852341e-06   2.3641575945794094e-05
-2.1558512768448652e-05   1.02971019852341e-06   2.3641575945794094e-05
-1.7036901820330216e-05   1.3183843164464408e-06   1.5932353228176054e-05
-1.7036901820330216e-05   1.3183843164464408e-06   1.5932353228176054e-05
-1.7036901820330216e-05   1.3183843164464408e-06   1.5932353228176054e-05
-1.7036901820330216e-05   1.3183843164464408e-06   1.5932353228176054e-05
-2.1558512768448693e-05   1.6245416346432609e-06   9.967989350391211e-06
-2.1558512768448693e-05   1.6245416346432609e-06   9.967989350391211e-06
-2.1558512768448693e-05   1.6245416346432609e-06   9.967989350391211e-06
-2.1558512768448693e-05   1.6245416346432609e-06   9.967989350391211e-06
-1.3354360811206855e-05   1.02971019852341e-06   2.3284677084122184e-05
-1.3354360811206855e-05   1.02971019852341e-06   2.3284677084122184e-05
-1.3354360811206855e-05   1.02971019852341e-06   2.3284677084122184e-05
-1.3354360811206855e-05   1.02971019852341e-06   2.3284677084122184e-05
-1.3214763490841315e-05   6.636374161640441e-07   1.1380290506564947e-05
-1.3214763490841315e-05   6.636374161640441e-07   1.1380290506564947e-05
-1.3214763490841315e-05   6.636374161640441e-07   1.1380290506564947e-05
-1.3214763490841315e-05   6.636374161640441e-07   1.1380290506564947e-05
-2.179652801862152e-05   -7.127425239471024e-07   2.6509059350265194e-05
-2.179652801862152e-05   -7.127425239471024e-07   2.6509059350265194e-05
-2.179652801862152e-05   -7.127425239471024e-07   2.6509059350265194e-05
-2.179652801862152e-05   -7.127425239471024e-07   2.6509059350265194e-05
-1.677991904452008e-05   6.356763635347561e-07   1.7338993060940428e-05
-1.677991904452008e-05   6.356763635347561e-07   1.7338993060940428e-05
-1.677991904452008e-05   6.356763635347561e-07   1.7338993060940428e-05
-1.677991904452008e-05   6.356763635347561e-07   1.7338993060940428e-05
-1.3176795642267115e-05   6.686076599615211e-07   1.7365111523014274e-05
-1.3176795642267115e-05   6.686076599615211e-07   1.7365111523014274e-05
-1.3176795642267115e-05   6.686076599615211e-07   1.7365111523014274e-05
-1.3176795642267115e-05   6.686076599615211e-07   1.7365111523014274e-05
-8.093500556449472e-06   -4.06058116520549e-06   2.2999756704276795e-05
-8.093500556449472e-06   -4.06058116520549e-06   2.2999756704276795e-05
-8.093500556449472e-06   -4.06058116520549e-06   2.2999756704276795e-05
-8.093500556449472e-06   -4.06058116520549e-06   2.2999756704276795e-05
-8.111863733440203e-06   3.1926083074798606e-07   1.4567278736231197e-05
-8.111863733440203e-06   3.1926083074798606e-07   1.4567278736231197e-05
-8.111863733440203e-06   3.1926083074798606e-07   1.4567278736231197e-05
-8.111863733440203e-06   3.1926083074798606e-07   1.4567278736231197e-05
-1.317168042020158e-05   -3.328221697204898e-06   2.5188796064271905e-05
-1.317168042020158e-05   -3.328221697204898e-06   2.5188796064271905e-05
-1.317168042020158e-05   -3.328221697204898e-06   2.5188796064271905e-05
-1.317168042020158e-05   -3.328221697204898e-06   2.5188796064271905e-05
-1.0582755953481555e-05   -2.008631227998106e-06   2.008216767154775e-05
-1.0582755953481555e-05   -2.008631227998106e-06   2.008216767154775e-05
-1.0582755953481555e-05   -2.008631227998106e-06   2.008216767154775e-05
-1.0582755953481555e-05   -2.008631227998106e-06   2.008216767154775e-05
-1.3171680420201593e-05   3.1926083074798606e-07   1.675576825300258e-05
-1.3171680420201593e-05   3.1926083074798606e-07   1.675576825300258e-05
-1.3171680420201593e-05   3.1926083074798606e-07   1.675576825300258e-05
-1.3171680420201593e-05   3.1926083074798606e-07   1.675576825300258e-05
-8.11186373344019e-06   -3.328221697204898e-06   2.300030654750017e-05
-8.11186373344019e-06   -3.328221697204898e-06   2.300030654750017e-05
-8.11186373344019e-06   -3.328221697204898e-06   2.300030654750017e-05
-8.11186373344019e-06   -3.328221697204898e-06   2.300030654750017e-05
-8.146544877848081e-06   -8.463530307785318e-08   1.501415105525667e-05
-8.146544877848081e-06   -8.463530307785318e-08   1.501415105525667e-05
-8.146544877848081e-06   -8.463530307785318e-08   1.501415105525667e-05
-8.146544877848081e-06   -8.463530307785318e-08   1.501415105525667e-05
-1.3354360811206855e-05   -3.4025856942092292e-06   2.568461451220014e-05
-1.3354360811206855e-05   -3.4025856942092292e-06   2.568461451220014e-05
-1.3354360811206855e-05   -3.4025856942092292e-06   2.568461451220014e-05
-1.3354360811206855e-05   -3.4025856942092292e-06   2.568461451220014e-05
-1.0507540247299634e-05   -1.7550693501900728e-06   1.99514037659433e-05
-1.0507540247299634e-05   -1.7550693501900728e-06   1.99514037659433e-05
-1.0507540247299634e-05   -1.7550693501900728e-06   1.99514037659433e-05
-1.0507540247299634e-05   -1.7550693501900728e-06   1.99514037659433e-05
-1.3354360811206882e-05   -8.463530307785318e-08   1.700492128993566e-05
-1.3354360811206882e-05   -8.463530307785318e-08   1.700492128993566e-05
-1.3354360811206882e-05   -8.463530307785318e-08   1.700492128993566e-05
-1.3354360811206882e-05   -8.463530307785318e-08   1.700492128993566e-05
-8.146544877848068e-06   -3.4025856942092292e-06   2.369384427752134e-05
-8.146544877848068e-06   -3.4025856942092292e-06   2.369384427752134e-05
-8.146544877848068e-06   -3.4025856942092292e-06   2.369384427752134e-05
-8.146544877848068e-06   -3.4025856942092292e-06   2.369384427752134e-05
-8.070405268786489e-06   -6.146526467619559e-07   1.5572104535531862e-05
-8.070405268786489e-06   -6.146526467619559e-07   1.5572104535531862e-05
-8.070405268786489e-06   -6.146526467619559e-07   1.5572104535531862e-05
-8.070405268786489e-06   -6.146526467619559e-07   1.5572104535531862e-05
-1.3214763490841281e-05   -3.430364818855639e-06   2.5835462208879337e-05
-1.3214763490841281e-05   -3.430364818855639e-06   2.5835462208879337e-05
-1.3214763490841281e-05   -3.430364818855639e-06   2.5835462208879337e-05
-1.3214763490841281e-05   -3.430364818855639e-06   2.5835462208879337e-05
-1.0559440795569714e-05   -1.968497504775636e-06   2.0532803994978774e-05
-1.0559440795569714e-05   -1.968497504775636e-06   2.0532803994978774e-05
-1.0559440795569714e-05   -1.968497504775636e-06   2.0532803994978774e-05
-1.0559440795569714e-05   -1.968497504775636e-06   2.0532803994978774e-05
-8.093500556449472e-06   1.8658409768254874e-07   1.6059850762850485e-05
-8.093500556449472e-06   1.8658409768254874e-07   1.6059850762850485e-05
-8.093500556449472e-06   1.8658409768254874e-07   1.6059850762850485e-05
-8.093500556449472e-06   1.8658409768254874e-07   1.6059850762850485e-05
-5.966350400056725e-06   -3.1724713584089723e-06   1.7589667749850162e-05
-5.966350400056725e-06   -3.1724713584089723e-06   1.7589667749850162e-05
-5.966350400056725e-06   -3.1724713584089723e-06   1.7589667749850162e-05
-5.966350400056725e-06   -3.1724713584089723e-06   1.7589667749850162e-05
-5.9154639405223114e-06   -1.0777048372635767e-07   1.417439284557339e-05
-5.9154639405223114e-06   -1.0777048372635767e-07   1.417439284557339e-05
-5.9154639405223114e-06   -1.0777048372635767e-07   1.417439284557339e-05
-5.9154639405223114e-06   -1.0777048372635767e-07   1.417439284557339e-05
-8.11186373344019e-06   -3.1157525199346984e-06   1.9639848388828163e-05
-8.11186373344019e-06   -3.1157525199346984e-06   1.9639848388828163e-05
-8.11186373344019e-06   -3.1157525199346984e-06   1.9639848388828163e-05
-8.11186373344019e-06   -3.1157525199346984e-06   1.9639848388828163e-05
-6.979013275274545e-06   -1.602555271895483e-06   1.6843845943061912e-05
-6.979013275274545e-06   -1.602555271895483e-06   1.6843845943061912e-05
-6.979013275274545e-06   -1.602555271895483e-06   1.6843845943061912e-05
-6.979013275274545e-06   -1.602555271895483e-06   1.6843845943061912e-05
-8.11186373344019e-06   -1.0777048372635767e-07   1.5979182067298254e-05
-8.11186373344019e-06   -1.0777048372635767e-07   1.5979182067298254e-05
-8.11186373344019e-06   -1.0777048372635767e-07   1.5979182067298254e-05
-8.11186373344019e-06   -1.0777048372635767e-07   1.5979182067298254e-05
-5.9154639405223114e-06   -3.1157525199346984e-06   1.783505916710319e-05
-5.9154639405223114e-06   -3.1157525199346984e-06   1.783505916710319e-05
-5.9154639405223114e-06   -3.1157525199346984e-06   1.783505916710319e-05
-5.9154639405223114e-06   -3.1157525199346984e-06   1.783505916710319e-05
-5.872630667863067e-06   -4.601949620031175e-07   1.4512115281600183e-05
-5.872630667863067e-06   -4.601949620031175e-07   1.4512115281600183e-05
-5.872630667863067e-06   -4.601949620031175e-07   1.4512115281600183e-05
-5.872630667863067e-06   -4.601949620031175e-07   1.4512115281600183e-05
-8.146544877848068e-06   -3.210245118366703e-06   1.995200239206005e-05
-8.146544877848068e-06   -3.210245118366703e-06   1.995200239206005e-05
-8.146544877848068e-06   -3.210245118366703e-06   1.995200239206005e-05
-8.146544877848068e-06   -3.210245118366703e-06   1.995200239206005e-05
-6.9198475021981735e-06   -1.7076486510952818e-06   1.7005948885613696e-05
-6.9198475021981735e-06   -1.7076486510952818e-06   1.7005948885613696e-05
-6.9198475021981735e-06   -1.7076486510952818e-06   1.7005948885613696e-05
-6.9198475021981735e-06   -1.7076486510952818e-06   1.7005948885613696e-05
-8.146544877848068e-06   -4.601949620031175e-07   1.6162145375418476e-05
-8.146544877848068e-06   -4.601949620031175e-07   1.6162145375418476e-05
-8.146544877848068e-06   -4.601949620031175e-07   1.6162145375418476e-05
-8.146544877848068e-06   -4.601949620031175e-07   1.6162145375418476e-05
-5.872630667863067e-06   -3.210245118366703e-06   1.8301972298241946e-05
-5.872630667863067e-06   -3.210245118366703e-06   1.8301972298241946e-05
-5.872630667863067e-06   -3.210245118366703e-06   1.8301972298241946e-05
-5.872630667863067e-06   -3.210245118366703e-06   1.8301972298241946e-05
-5.7608822634463e-06   -8.136192119955962e-07   1.5035460557932877e-05
-5.7608822634463e-06   -8.136192119955962e-07   1.5035460557932877e-05
-5.7608822634463e-06   -8.136192119955962e-07   1.5035460557932877e-05
-5.7608822634463e-06   -8.136192119955962e-07   1.5035460557932877e-05
-8.070405268786489e-06   -3.3430537054270396e-06   2.0402326262891933e-05
-8.070405268786489e-06   -3.3430537054270396e-06   2.0402326262891933e-05
-8.070405268786489e-06   -3.3430537054270396e-06   2.0402326262891933e-05
-8.070405268786489e-06   -3.3430537054270396e-06   2.0402326262891933e-05
-6.850864606730731e-06   -1.8615026680052302e-06   1.7480827870346117e-05
-6.850864606730731e-06   -1.8615026680052302e-06   1.7480827870346117e-05
-6.850864606730731e-06   -1.8615026680052302e-06   1.7480827870346117e-05
-6.850864606730731e-06   -1.8615026680052302e-06   1.7480827870346117e-05
-5.966350400056725e-06   8.541006357048499e-07   1.094020146967902e-05
-5.966350400056725e-06   8.541006357048499e-07   1.094020146967902e-05
-5.966350400056725e-06   8.541006357048499e-07   1.094020146967902e-05
-5.966350400056725e-06   8.541006357048499e-07   1.094020146967902e-05
-4.988524198953274e-06   -1.3029831937645306e-06   1.1275661507169777e-05
-4.988524198953274e-06   -1.3029831937645306e-06   1.1275661507169777e-05
-4.988524198953274e-06   -1.3029831937645306e-06   1.1275661507169777e-05
-4.988524198953274e-06   -1.3029831937645306e-06   1.1275661507169777e-05
-4.884163803486918e-06   4.660428459453978e-07   9.878485324996936e-06
-4.884163803486918e-06   4.660428459453978e-07   9.878485324996936e-06
-4.884163803486918e-06   4.660428459453978e-07   9.878485324996936e-06
-4.884163803486918e-06   4.660428459453978e-07   9.878485324996936e-06
-5.9154639405223114e-06   -1.524132586805556e-06   1.2791424146373195e-05
-5.9154639405223114e-06   -1.524132586805556e-06   1.2791424146373195e-05
-5.9154639405223114e-06   -1.524132586805556e-06   1.2791424146373195e-05
-5.9154639405223114e-06   -1.524132586805556e-06   1.2791424146373195e-05
-5.399064000983285e-06   -2.97450326378144e-07   1.1194748224218275e-05
-5.399064000983285e-06   -2.97450326378144e-07   1.1194748224218275e-05
-5.399064000983285e-06   -2.97450326378144e-07   1.1194748224218275e-05
-5.399064000983285e-06   -2.97450326378144e-07   1.1194748224218275e-05
-5.9154639405223114e-06   4.660428459453978e-07   1.1072590584647367e-05
-5.9154639405223114e-06   4.660428459453978e-07   1.1072590584647367e-05
-5.9154639405223114e-06   4.660428459453978e-07   1.1072590584647367e-05
-5.9154639405223114e-06   4.660428459453978e-07   1.1072590584647367e-05
-4.884163803486972e-06   -1.524132586805556e-06   1.1597318886722493e-05
-4.884163803486972e-06   -1.524132586805556e-06   1.1597318886722493e-05
-4.884163803486972e-06   -1.524132586805556e-06   1.1597318886722493e-05
-4.884163803486972e-06   -1.524132586805556e-06   1.1597318886722493e-05
-4.838777706942421e-06   1.3361936468598342e-07   1.0344760135821605e-05
-4.838777706942421e-06   1.3361936468598342e-07   1.0344760135821605e-05
-4.838777706942421e-06   1.3361936468598342e-07   1.0344760135821605e-05
-4.838777706942421e-06   1.3361936468598342e-07   1.0344760135821605e-05
-5.872630667863067e-06   -1.6936053900136038e-06   1.3164183256842397e-05
-5.872630667863067e-06   -1.6936053900136038e-06   1.3164183256842397e-05
-5.872630667863067e-06   -1.6936053900136038e-06   1.3164183256842397e-05
-5.872630667863067e-06   -1.6936053900136038e-06   1.3164183256842397e-05
-5.295486534888803e-06   -5.334561821603414e-07   1.1506186843839765e-05
-5.295486534888803e-06   -5.334561821603414e-07   1.1506186843839765e-05
-5.295486534888803e-06   -5.334561821603414e-07   1.1506186843839765e-05
-5.295486534888803e-06   -5.334561821603414e-07   1.1506186843839765e-05
-5.872630667863067e-06   1.3361936468609184e-07   1.1441094988641248e-05
-5.872630667863067e-06   1.3361936468609184e-07   1.1441094988641248e-05
-5.872630667863067e-06   1.3361936468609184e-07   1.1441094988641248e-05
-5.872630667863067e-06   1.3361936468609184e-07   1.1441094988641248e-05
-4.838777706942421e-06   -1.6936053900136038e-06   1.2067848404022672e-05
-4.838777706942421e-06   -1.6936053900136038e-06   1.2067848404022672e-05
-4.838777706942421e-06   -1.6936053900136038e-06   1.2067848404022672e-05
-4.838777706942421e-06   -1.6936053900136038e-06   1.2067848404022672e-05
-4.762038496847426e-06   -2.015745707458199e-07   1.0930300344164827e-05
-4.762038496847426e-06   -2.015745707458199e-07   1.0930300344164827e-05
-4.762038496847426e-06   -2.015745707458199e-07   1.0930300344164827e-05
-4.762038496847426e-06   -2.015745707458199e-07   1.0930300344164827e-05
-5.7608822634463e-06   -1.915586984216507e-06   1.362344740324519e-05
-5.7608822634463e-06   -1.915586984216507e-06   1.362344740324519e-05
-5.7608822634463e-06   -1.915586984216507e-06   1.362344740324519e-05
-5.7608822634463e-06   -1.915586984216507e-06   1.362344740324519e-05
-5.216205360256739e-06   -7.405543125893694e-07   1.2010632961619873e-05
-5.216205360256739e-06   -7.405543125893694e-07   1.2010632961619873e-05
-5.216205360256739e-06   -7.405543125893694e-07   1.2010632961619873e-05
-5.216205360256739e-06   -7.405543125893694e-07   1.2010632961619873e-05
-4.988524198953274e-06   1.4105169282139672e-06   2.517338570269805e-06
-4.988524198953274e-06   1.4105169282139672e-06   2.517338570269805e-06
-4.988524198953274e-06   1.4105169282139672e-06   2.517338570269805e-06
-4.988524198953274e-06   1.4105169282139672e-06   2.517338570269805e-06
-2.906890451840629e-06   -1.438668769744209e-07   5.054097865677689e-06
-2.906890451840629e-06   -1.438668769744209e-07   5.054097865677689e-06
-2.906890451840629e-06   -1.438668769744209e-07   5.054097865677689e-06
-2.906890451840629e-06   -1.438668769744209e-07   5.054097865677689e-06
-3.074188179503492e-06   1.1355340475498708e-06   2.5413163389894017e-06
-3.074188179503492e-06   1.1355340475498708e-06   2.5413163389894017e-06
-3.074188179503492e-06   1.1355340475498708e-06   2.5413163389894017e-06
-3.074188179503492e-06   1.1355340475498708e-06   2.5413163389894017e-06
-4.884163803486918e-06   -2.0139807348451512e-07   6.36010165158251e-06
-4.884163803486918e-06   -2.0139807348451512e-07   6.36010165158251e-06
-4.884163803486918e-06   -2.0139807348451512e-07   6.36010165158251e-06
-4.884163803486918e-06   -2.0139807348451512e-07   6.36010165158251e-06
-3.827082221937594e-06   7.255792748960942e-07   4.0421126066385316e-06
-3.827082221937594e-06   7.255792748960942e-07   4.0421126066385316e-06
-3.827082221937594e-06   7.255792748960942e-07   4.0421126066385316e-06
-3.827082221937594e-06   7.255792748960942e-07   4.0421126066385316e-06
-4.884163803486918e-06   1.1355340475497624e-06   3.343475611609719e-06
-4.884163803486918e-06   1.1355340475497624e-06   3.343475611609719e-06
-4.884163803486918e-06   1.1355340475497624e-06   3.343475611609719e-06
-4.884163803486918e-06   1.1355340475497624e-06   3.343475611609719e-06
-3.074188179503492e-06   -2.0139807348456933e-07   5.557942378961868e-06
-3.074188179503492e-06   -2.0139807348456933e-07   5.557942378961868e-06
-3.074188179503492e-06   -2.0139807348456933e-07   5.557942378961868e-06
-3.074188179503492e-06   -2.0139807348456933e-07   5.557942378961868e-06
-3.2118637746384924e-06   9.558187357435561e-07   3.2985962753005055e-06
-3.2118637746384924e-06   9.558187357435561e-07   3.2985962753005055e-06
-3.2118637746384924e-06   9.558187357435561e-07   3.2985962753005055e-06
-3.2118637746384924e-06   9.558187357435561e-07   3.2985962753005055e-06
-4.838777706942421e-06   -2.790104876118659e-07   6.751017029820415e-06
-4.838777706942421e-06   -2.790104876118659e-07   6.751017029820415e-06
-4.838777706942421e-06   -2.790104876118659e-07   6.751017029820415e-06
-4.838777706942421e-06   -2.790104876118659e-07   6.751017029820415e-06
-3.897456484155265e-06   5.90062208868339e-07   4.660704707286855e-06
-3.897456484155265e-06   5.90062208868339e-07   4.660704707286855e-06
-3.897456484155265e-06   5.90062208868339e-07   4.660704707286855e-06
-3.897456484155265e-06   5.90062208868339e-07   4.660704707286855e-06
-4.838777706942421e-06   9.558187357435561e-07   4.039493809314084e-06
-4.838777706942421e-06   9.558187357435561e-07   4.039493809314084e-06
-4.838777706942421e-06   9.558187357435561e-07   4.039493809314084e-06
-4.838777706942421e-06   9.558187357435561e-07   4.039493809314084e-06
-3.2118637746384924e-06   -2.7901048761192013e-07   6.010119495806999e-06
-3.2118637746384924e-06   -2.7901048761192013e-07   6.010119495806999e-06
-3.2118637746384924e-06   -2.7901048761192013e-07   6.010119495806999e-06
-3.2118637746384924e-06   -2.7901048761192013e-07   6.010119495806999e-06
-3.5458712822050015e-06   5.933246454394503e-07   4.652604772134019e-06
-3.5458712822050015e-06   5.933246454394503e-07   4.652604772134019e-06
-3.5458712822050015e-06   5.933246454394503e-07   4.652604772134019e-06
-3.5458712822050015e-06   5.933246454394503e-07   4.652604772134019e-06
-4.762038496847426e-06   -3.741071659229796e-07   7.260009216688863e-06
-4.762038496847426e-06   -3.741071659229796e-07   7.260009216688863e-06
-4.762038496847426e-06   -3.741071659229796e-07   7.260009216688863e-06
-4.762038496847426e-06   -3.741071659229796e-07   7.260009216688863e-06
-3.908786320086955e-06   4.978914527006308e-07   5.314723084247179e-06
-3.908786320086955e-06   4.978914527006308e-07   5.314723084247179e-06
-3.908786320086955e-06   4.978914527006308e-07   5.314723084247179e-06
-3.908786320086955e-06   4.978914527006308e-07   5.314723084247179e-06
-4.575478597352953e-05   3.572529743183048e-06   1.971268383920517e-05
-4.575478597352953e-05   3.572529743183048e-06   1.971268383920517e-05
-4.575478597352953e-05   3.572529743183048e-06   1.971268383920517e-05
-4.575478597352953e-05   3.572529743183048e-06   1.971268383920517e-05
-1.0744309144113585e-05   -2.248746281620419e-05   6.242748301926611e-05
-1.0744309144113585e-05   -2.248746281620419e-05   6.242748301926611e-05
-1.0744309144113585e-05   -2.248746281620419e-05   6.242748301926611e-05
-1.0744309144113585e-05   -2.248746281620419e-05   6.242748301926611e-05
-1.2619389288083339e-05   1.439040835168469e-06   1.0810317331993012e-05
-1.2619389288083339e-05   1.439040835168469e-06   1.0810317331993012e-05
-1.2619389288083339e-05   1.439040835168469e-06   1.0810317331993012e-05
-1.2619389288083339e-05   1.439040835168469e-06   1.0810317331993012e-05
-4.1729773494259006e-05   -1.7497886965737763e-05   7.068978102282942e-05
-4.1729773494259006e-05   -1.7497886965737763e-05   7.068978102282942e-05
-4.1729773494259006e-05   -1.7497886965737763e-05   7.068978102282942e-05
-4.1729773494259006e-05   -1.7497886965737763e-05   7.068978102282942e-05
-2.7819952855370025e-05   -8.710450065268816e-06   4.223428448439975e-05
-2.7819952855370025e-05   -8.710450065268816e-06   4.223428448439975e-05
-2.7819952855370025e-05   -8.710450065268816e-06   4.223428448439975e-05
-2.7819952855370025e-05   -8.710450065268816e-06   4.223428448439975e-05
-4.172977349425894e-05   1.439040835168469e-06   2.2172474012536705e-05
-4.172977349425894e-05   1.439040835168469e-06   2.2172474012536705e-05
-4.172977349425894e-05   1.439040835168469e-06   2.2172474012536705e-05
-4.172977349425894e-05   1.439040835168469e-06   2.2172474012536705e-05
-1.2619389288083352e-05   -1.7497886965737763e-05   5.9327624342285685e-05
-1.2619389288083352e-05   -1.7497886965737763e-05   5.9327624342285685e-05
-1.2619389288083352e-05   -1.7497886965737763e-05   5.9327624342285685e-05
-1.2619389288083352e-05   -1.7497886965737763e-05   5.9327624342285685e-05
-1.2908894320396634e-05   1.0297101985233558e-06   1.188001339315143e-05
-1.2908894320396634e-05   1.0297101985233558e-06   1.188001339315143e-05
-1.2908894320396634e-05   1.0297101985233558e-06   1.188001339315143e-05
-1.2908894320396634e-05   1.0297101985233558e-06   1.188001339315143e-05
-3.937411286882758e-05   -1.5096237358578934e-05   6.566427950813094e-05
-3.937411286882758e-05   -1.5096237358578934e-05   6.566427950813094e-05
-3.937411286882758e-05   -1.5096237358578934e-05   6.566427950813094e-05
-3.937411286882758e-05   -1.5096237358578934e-05   6.566427950813094e-05
-2.6991139133332855e-05   -8.25432714929441e-06   4.092084382340239e-05
-2.6991139133332855e-05   -8.25432714929441e-06   4.092084382340239e-05
-2.6991139133332855e-05   -8.25432714929441e-06   4.092084382340239e-05
-2.6991139133332855e-05   -8.25432714929441e-06   4.092084382340239e-05
-3.9374112868827504e-05   1.0297101985233558e-06   2.1555581927412785e-05
-3.9374112868827504e-05   1.0297101985233558e-06   2.1555581927412785e-05
-3.9374112868827504e-05   1.0297101985233558e-06   2.1555581927412785e-05
-3.9374112868827504e-05   1.0297101985233558e-06   2.1555581927412785e-05
-1.2908894320396661e-05   -1.5096237358578934e-05   5.598871097386954e-05
-1.2908894320396661e-05   -1.5096237358578934e-05   5.598871097386954e-05
-1.2908894320396661e-05   -1.5096237358578934e-05   5.598871097386954e-05
-1.2908894320396661e-05   -1.5096237358578934e-05   5.598871097386954e-05
-1.4148737945692523e-05   -7.127425239471024e-07   1.4872662738979584e-05
-1.4148737945692523e-05   -7.127425239471024e-07   1.4872662738979584e-05
-1.4148737945692523e-05   -7.127425239471024e-07   1.4872662738979584e-05
-1.4148737945692523e-05   -7.127425239471024e-07   1.4872662738979584e-05
-3.635314439819013e-05   -1.1905192417763398e-05   5.8595476762765244e-05
-3.635314439819013e-05   -1.1905192417763398e-05   5.8595476762765244e-05
-3.635314439819013e-05   -1.1905192417763398e-05   5.8595476762765244e-05
-3.635314439819013e-05   -1.1905192417763398e-05   5.8595476762765244e-05
-2.596590003686587e-05   -7.620408181945477e-06   3.871253228573413e-05
-2.596590003686587e-05   -7.620408181945477e-06   3.871253228573413e-05
-2.596590003686587e-05   -7.620408181945477e-06   3.871253228573413e-05
-2.596590003686587e-05   -7.620408181945477e-06   3.871253228573413e-05
-1.0744309144113565e-05   -4.06058116520549e-06   1.1209702363529052e-05
-1.0744309144113565e-05   -4.06058116520549e-06   1.1209702363529052e-05
-1.0744309144113565e-05   -4.06058116520549e-06   1.1209702363529052e-05
-1.0744309144113565e-05   -4.06058116520549e-06   1.1209702363529052e-05
-3.739131741225892e-06   -7.006773540024448e-06   2.1117282610117133e-05
-3.739131741225892e-06   -7.006773540024448e-06   2.1117282610117133e-05
-3.739131741225892e-06   -7.006773540024448e-06   2.1117282610117133e-05
-3.739131741225892e-06   -7.006773540024448e-06   2.1117282610117133e-05
-4.181881729781005e-06   -3.328221697204844e-06   9.984349850227934e-06
-4.181881729781005e-06   -3.328221697204844e-06   9.984349850227934e-06
-4.181881729781005e-06   -3.328221697204844e-06   9.984349850227934e-06
-4.181881729781005e-06   -3.328221697204844e-06   9.984349850227934e-06
-1.2619389288083352e-05   -9.274856263449338e-06   2.7614843187145075e-05
-1.2619389288083352e-05   -9.274856263449338e-06   2.7614843187145075e-05
-1.2619389288083352e-05   -9.274856263449338e-06   2.7614843187145075e-05
-1.2619389288083352e-05   -9.274856263449338e-06   2.7614843187145075e-05
-7.413260902103302e-06   -4.853957789078384e-06   1.6285423459222383e-05
-7.413260902103302e-06   -4.853957789078384e-06   1.6285423459222383e-05
-7.413260902103302e-06   -4.853957789078384e-06   1.6285423459222383e-05
-7.413260902103302e-06   -4.853957789078384e-06   1.6285423459222383e-05
-1.2619389288083325e-05   -3.328221697204844e-06   1.3552330589974458e-05
-1.2619389288083325e-05   -3.328221697204844e-06   1.3552330589974458e-05
-1.2619389288083325e-05   -3.328221697204844e-06   1.3552330589974458e-05
-1.2619389288083325e-05   -3.328221697204844e-06   1.3552330589974458e-05
-4.181881729781032e-06   -9.274856263449338e-06   2.4046862447398416e-05
-4.181881729781032e-06   -9.274856263449338e-06   2.4046862447398416e-05
-4.181881729781032e-06   -9.274856263449338e-06   2.4046862447398416e-05
-4.181881729781032e-06   -9.274856263449338e-06   2.4046862447398416e-05
-4.561583564053213e-06   -3.402585694209175e-06   1.1227021877032676e-05
-4.561583564053213e-06   -3.402585694209175e-06   1.1227021877032676e-05
-4.561583564053213e-06   -3.402585694209175e-06   1.1227021877032676e-05
-4.561583564053213e-06   -3.402585694209175e-06   1.1227021877032676e-05
-1.2908894320396661e-05   -8.490800601203786e-06   2.8192135415135123e-05
-1.2908894320396661e-05   -8.490800601203786e-06   2.8192135415135123e-05
-1.2908894320396661e-05   -8.490800601203786e-06   2.8192135415135123e-05
-1.2908894320396661e-05   -8.490800601203786e-06   2.8192135415135123e-05
-8.364914401044354e-06   -5.929749914891527e-06   1.9082205137760746e-05
-8.364914401044354e-06   -5.929749914891527e-06   1.9082205137760746e-05
-8.364914401044354e-06   -5.929749914891527e-06   1.9082205137760746e-05
-8.364914401044354e-06   -5.929749914891527e-06   1.9082205137760746e-05
-1.2908894320396661e-05   -3.402585694209175e-06   1.4279950821229439e-05
-1.2908894320396661e-05   -3.402585694209175e-06   1.4279950821229439e-05
-1.2908894320396661e-05   -3.402585694209175e-06   1.4279950821229439e-05
-1.2908894320396661e-05   -3.402585694209175e-06   1.4279950821229439e-05
-4.561583564053213e-06   -8.490800601203786e-06   2.5139206470938373e-05
-4.561583564053213e-06   -8.490800601203786e-06   2.5139206470938373e-05
-4.561583564053213e-06   -8.490800601203786e-06   2.5139206470938373e-05
-4.561583564053213e-06   -8.490800601203786e-06   2.5139206470938373e-05
-5.180051250275807e-06   -3.4303648188556933e-06   1.2285876566608261e-05
-5.180051250275807e-06   -3.4303648188556933e-06   1.2285876566608261e-05
-5.180051250275807e-06   -3.4303648188556933e-06   1.2285876566608261e-05
-5.180051250275807e-06   -3.4303648188556933e-06   1.2285876566608261e-05
-1.4148737945692536e-05   -7.995393143942604e-06   2.9972704720688235e-05
-1.4148737945692536e-05   -7.995393143942604e-06   2.9972704720688235e-05
-1.4148737945692536e-05   -7.995393143942604e-06   2.9972704720688235e-05
-1.4148737945692536e-05   -7.995393143942604e-06   2.9972704720688235e-05
-8.92325939656122e-06   -5.414907659758361e-06   1.9715282514958866e-05
-8.92325939656122e-06   -5.414907659758361e-06   1.9715282514958866e-05
-8.92325939656122e-06   -5.414907659758361e-06   1.9715282514958866e-05
-8.92325939656122e-06   -5.414907659758361e-06   1.9715282514958866e-05
-3.739131741225892e-06   -3.1724713584089723e-06   6.047331257865937e-06
-3.739131741225892e-06   -3.1724713584089723e-06   6.047331257865937e-06
-3.739131741225892e-06   -3.1724713584089723e-06   6.047331257865937e-06
-3.739131741225892e-06   -3.1724713584089723e-06   6.047331257865937e-06
-2.0883549869083287e-06   -1.977756645482199e-06   9.515454676151282e-06
-2.0883549869083287e-06   -1.977756645482199e-06   9.515454676151282e-06
-2.0883549869083287e-06   -1.977756645482199e-06   9.515454676151282e-06
-2.0883549869083287e-06   -1.977756645482199e-06   9.515454676151282e-06
-2.0098941816305957e-06   -3.1157525199346442e-06   6.944040712605697e-06
-2.0098941816305957e-06   -3.1157525199346442e-06   6.944040712605697e-06
-2.0098941816305957e-06   -3.1157525199346442e-06   6.944040712605697e-06
-2.0098941816305957e-06   -3.1157525199346442e-06   6.944040712605697e-06
-4.181881729781032e-06   -2.582170818185131e-06   1.0243870938473227e-05
-4.181881729781032e-06   -2.582170818185131e-06   1.0243870938473227e-05
-4.181881729781032e-06   -2.582170818185131e-06   1.0243870938473227e-05
-4.181881729781032e-06   -2.582170818185131e-06   1.0243870938473227e-05
-2.8144191699543114e-06   -2.5637812587608053e-06   7.953732936440648e-06
-2.8144191699543114e-06   -2.5637812587608053e-06   7.953732936440648e-06
-2.8144191699543114e-06   -2.5637812587608053e-06   7.953732936440648e-06
-2.8144191699543114e-06   -2.5637812587608053e-06   7.953732936440648e-06
-4.181881729781005e-06   -3.1157525199346442e-06   6.6238916915559685e-06
-4.181881729781005e-06   -3.1157525199346442e-06   6.6238916915559685e-06
-4.181881729781005e-06   -3.1157525199346442e-06   6.6238916915559685e-06
-4.181881729781005e-06   -3.1157525199346442e-06   6.6238916915559685e-06
-2.0098941816305686e-06   -2.5821708181851244e-06   1.0564019959522929e-05
-2.0098941816305686e-06   -2.5821708181851244e-06   1.0564019959522929e-05
-2.0098941816305686e-06   -2.5821708181851244e-06   1.0564019959522929e-05
-2.0098941816305686e-06   -2.5821708181851244e-06   1.0564019959522929e-05
-2.016214107954784e-06   -3.2102451183667574e-06   7.426438138858737e-06
-2.016214107954784e-06   -3.2102451183667574e-06   7.426438138858737e-06
-2.016214107954784e-06   -3.2102451183667574e-06   7.426438138858737e-06
-2.016214107954784e-06   -3.2102451183667574e-06   7.426438138858737e-06
-4.561583564053213e-06   -3.308148206221092e-06   1.1727462418401969e-05
-4.561583564053213e-06   -3.308148206221092e-06   1.1727462418401969e-05
-4.561583564053213e-06   -3.308148206221092e-06   1.1727462418401969e-05
-4.561583564053213e-06   -3.308148206221092e-06   1.1727462418401969e-05
-2.9878910118808443e-06   -2.802979299140198e-06   8.801540153866201e-06
-2.9878910118808443e-06   -2.802979299140198e-06   8.801540153866201e-06
-2.9878910118808443e-06   -2.802979299140198e-06   8.801540153866201e-06
-2.9878910118808443e-06   -2.802979299140198e-06   8.801540153866201e-06
-4.561583564053186e-06   -3.210245118366703e-06   7.485179991571344e-06
-4.561583564053186e-06   -3.210245118366703e-06   7.485179991571344e-06
-4.561583564053186e-06   -3.210245118366703e-06   7.485179991571344e-06
-4.561583564053186e-06   -3.210245118366703e-06   7.485179991571344e-06
-2.016214107954784e-06   -3.308148206221092e-06   1.1668720565689362e-05
-2.016214107954784e-06   -3.308148206221092e-06   1.1668720565689362e-05
-2.016214107954784e-06   -3.308148206221092e-06   1.1668720565689362e-05
-2.016214107954784e-06   -3.308148206221092e-06   1.1668720565689362e-05
-2.052159024951844e-06   -3.3430537054269854e-06   8.149408657404675e-06
-2.052159024951844e-06   -3.3430537054269854e-06   8.149408657404675e-06
-2.052159024951844e-06   -3.3430537054269854e-06   8.149408657404675e-06
-2.052159024951844e-06   -3.3430537054269854e-06   8.149408657404675e-06
-5.180051250275807e-06   -3.9976524828812176e-06   1.3755321632750252e-05
-5.180051250275807e-06   -3.9976524828812176e-06   1.3755321632750252e-05
-5.180051250275807e-06   -3.9976524828812176e-06   1.3755321632750252e-05
-5.180051250275807e-06   -3.9976524828812176e-06   1.3755321632750252e-05
-3.186217932908461e-06   -3.0582737503525833e-06   9.868638864287598e-06
-3.186217932908461e-06   -3.0582737503525833e-06   9.868638864287598e-06
-3.186217932908461e-06   -3.0582737503525833e-06   9.868638864287598e-06
-3.186217932908461e-06   -3.0582737503525833e-06   9.868638864287598e-06
-2.0883549869083287e-06   -1.3029831937644764e-06   1.7444041406232858e-06
-2.0883549869083287e-06   -1.3029831937644764e-06   1.7444041406232858e-06
-2.0883549869083287e-06   -1.3029831937644764e-06   1.7444041406232858e-06
-2.0883549869083287e-06   -1.3029831937644764e-06   1.7444041406232858e-06
-1.5563209119821516e-06   3.1726697443271797e-07   3.6032776997519463e-06
-1.5563209119821516e-06   3.1726697443271797e-07   3.6032776997519463e-06
-1.5563209119821516e-06   3.1726697443271797e-07   3.6032776997519463e-06
-1.5563209119821516e-06   3.1726697443271797e-07   3.6032776997519463e-06
-1.261886026376793e-06   -1.5241325868056103e-06   2.874166568345095e-06
-1.261886026376793e-06   -1.5241325868056103e-06   2.874166568345095e-06
-1.261886026376793e-06   -1.5241325868056103e-06   2.874166568345095e-06
-1.261886026376793e-06   -1.5241325868056103e-06   2.874166568345095e-06
-2.0098941816305957e-06   9.880220731032648e-08   3.1470859506318137e-06
-2.0098941816305957e-06   9.880220731032648e-08   3.1470859506318137e-06
-2.0098941816305957e-06   9.880220731032648e-08   3.1470859506318137e-06
-2.0098941816305957e-06   9.880220731032648e-08   3.1470859506318137e-06
-1.6221904378880669e-06   -6.191171692794485e-07   2.9316646703479114e-06
-1.6221904378880669e-06   -6.191171692794485e-07   2.9316646703479114e-06
-1.6221904378880669e-06   -6.191171692794485e-07   2.9316646703479114e-06
-1.6221904378880669e-06   -6.191171692794485e-07   2.9316646703479114e-06
-2.0098941816305957e-06   -1.5241325868056103e-06   1.9004056918756204e-06
-2.0098941816305957e-06   -1.5241325868056103e-06   1.9004056918756204e-06
-2.0098941816305957e-06   -1.5241325868056103e-06   1.9004056918756204e-06
-2.0098941816305957e-06   -1.5241325868056103e-06   1.9004056918756204e-06
-1.261886026376793e-06   9.880220731032648e-08   4.12084682710137e-06
-1.261886026376793e-06   9.880220731032648e-08   4.12084682710137e-06
-1.261886026376793e-06   9.880220731032648e-08   4.12084682710137e-06
-1.261886026376793e-06   9.880220731032648e-08   4.12084682710137e-06
-1.1014484064615269e-06   -1.6936053900135496e-06   3.1576808728815643e-06
-1.1014484064615269e-06   -1.6936053900135496e-06   3.1576808728815643e-06
-1.1014484064615269e-06   -1.6936053900135496e-06   3.1576808728815643e-06
-1.1014484064615269e-06   -1.6936053900135496e-06   3.1576808728815643e-06
-2.016214107954784e-06   -2.4521909764309275e-07   3.8132585999477967e-06
-2.016214107954784e-06   -2.4521909764309275e-07   3.8132585999477967e-06
-2.016214107954784e-06   -2.4521909764309275e-07   3.8132585999477967e-06
-2.016214107954784e-06   -2.4521909764309275e-07   3.8132585999477967e-06
-1.472760593259831e-06   -7.914471730885832e-07   3.2352395873903243e-06
-1.472760593259831e-06   -7.914471730885832e-07   3.2352395873903243e-06
-1.472760593259831e-06   -7.914471730885832e-07   3.2352395873903243e-06
-1.472760593259831e-06   -7.914471730885832e-07   3.2352395873903243e-06
-2.016214107954784e-06   -1.6936053900135496e-06   2.2886490974591072e-06
-2.016214107954784e-06   -1.6936053900135496e-06   2.2886490974591072e-06
-2.016214107954784e-06   -1.6936053900135496e-06   2.2886490974591072e-06
-2.016214107954784e-06   -1.6936053900135496e-06   2.2886490974591072e-06
-1.1014484064615269e-06   -2.4521909764309275e-07   4.682290375370118e-06
-1.1014484064615269e-06   -2.4521909764309275e-07   4.682290375370118e-06
-1.1014484064615269e-06   -2.4521909764309275e-07   4.682290375370118e-06
-1.1014484064615269e-06   -2.4521909764309275e-07   4.682290375370118e-06
-8.555187765155788e-07   -1.915586984216507e-06   3.4681945255996905e-06
-8.555187765155788e-07   -1.915586984216507e-06   3.4681945255996905e-06
-8.555187765155788e-07   -1.915586984216507e-06   3.4681945255996905e-06
-8.555187765155788e-07   -1.915586984216507e-06   3.4681945255996905e-06
-2.052159024951844e-06   -9.48913597911341e-07   4.8825909078769355e-06
-2.052159024951844e-06   -9.48913597911341e-07   4.8825909078769355e-06
-2.052159024951844e-06   -9.48913597911341e-07   4.8825909078769355e-06
-2.052159024951844e-06   -9.48913597911341e-07   4.8825909078769355e-06
-1.352241817297533e-06   -1.0539322884910271e-06   3.77907344280119e-06
-1.352241817297533e-06   -1.0539322884910271e-06   3.77907344280119e-06
-1.352241817297533e-06   -1.0539322884910271e-06   3.77907344280119e-06
-1.352241817297533e-06   -1.0539322884910271e-06   3.77907344280119e-06
-1.5563209119821516e-06   -1.4386687697447512e-07   -2.572379116837399e-06
-1.5563209119821516e-06   -1.4386687697447512e-07   -2.572379116837399e-06
-1.5563209119821516e-06   -1.4386687697447512e-07   -2.572379116837399e-06
-1.5563209119821516e-06   -1.4386687697447512e-07   -2.572379116837399e-06
-2.953170984293656e-07   2.2050376914119728e-07   -2.520837065799809e-07
-2.953170984293656e-07   2.2050376914119728e-07   -2.520837065799809e-07
-2.953170984293656e-07   2.2050376914119728e-07   -2.520837065799809e-07
-2.953170984293656e-07   2.2050376914119728e-07   -2.520837065799809e-07
-6.4037052873930356e-09   -2.0139807348456933e-07   -2.0138797499282164e-06
-6.4037052873930356e-09   -2.0139807348456933e-07   -2.0138797499282164e-06
-6.4037052873930356e-09   -2.0139807348456933e-07   -2.0138797499282164e-06
-6.4037052873930356e-09   -2.0139807348456933e-07   -2.0138797499282164e-06
-1.261886026376793e-06   3.8055345462669187e-07   -2.7058013164597827e-07
-1.261886026376793e-06   3.8055345462669187e-07   -2.7058013164597827e-07
-1.261886026376793e-06   3.8055345462669187e-07   -2.7058013164597827e-07
-1.261886026376793e-06   3.8055345462669187e-07   -2.7058013164597827e-07
-7.129174029085934e-07   1.0265892573310263e-07   -1.0187911200905354e-06
-7.129174029085934e-07   1.0265892573310263e-07   -1.0187911200905354e-06
-7.129174029085934e-07   1.0265892573310263e-07   -1.0187911200905354e-06
-7.129174029085934e-07   1.0265892573310263e-07   -1.0187911200905354e-06
-1.261886026376793e-06   -2.0139807348451512e-07   -2.3630506667950233e-06
-1.261886026376793e-06   -2.0139807348451512e-07   -2.3630506667950233e-06
-1.261886026376793e-06   -2.0139807348451512e-07   -2.3630506667950233e-06
-1.261886026376793e-06   -2.0139807348451512e-07   -2.3630506667950233e-06
-6.403705287447246e-09   3.8055345462669187e-07   7.859078522080148e-08
-6.403705287447246e-09   3.8055345462669187e-07   7.859078522080148e-08
-6.403705287447246e-09   3.8055345462669187e-07   7.859078522080148e-08
-6.403705287447246e-09   3.8055345462669187e-07   7.859078522080148e-08
1.437519917795848e-07   -2.7901048761192013e-07   -1.7978589533407426e-06
1.437519917795848e-07   -2.7901048761192013e-07   -1.7978589533407426e-06
1.437519917795848e-07   -2.7901048761192013e-07   -1.7978589533407426e-06
1.437519917795848e-07   -2.7901048761192013e-07   -1.7978589533407426e-06
-1.1014484064615269e-06   3.231420923547621e-07   -8.381650425234519e-08
-1.1014484064615269e-06   3.231420923547621e-07   -8.381650425234519e-08
-1.1014484064615269e-06   3.231420923547621e-07   -8.381650425234519e-08
-1.1014484064615269e-06   3.231420923547621e-07   -8.381650425234519e-08
-5.000405582309395e-07   6.682642769812136e-08   -9.32373519175805e-07
-5.000405582309395e-07   6.682642769812136e-08   -9.32373519175805e-07
-5.000405582309395e-07   6.682642769812136e-08   -9.32373519175805e-07
-5.000405582309395e-07   6.682642769812136e-08   -9.32373519175805e-07
-1.1014484064615269e-06   -2.7901048761192013e-07   -2.1591505013207743e-06
-1.1014484064615269e-06   -2.7901048761192013e-07   -2.1591505013207743e-06
-1.1014484064615269e-06   -2.7901048761192013e-07   -2.1591505013207743e-06
-1.1014484064615269e-06   -2.7901048761192013e-07   -2.1591505013207743e-06
1.437519917795848e-07   3.231420923547621e-07   2.774750437275781e-07
1.437519917795848e-07   3.231420923547621e-07   2.774750437275781e-07
1.437519917795848e-07   3.231420923547621e-07   2.774750437275781e-07
1.437519917795848e-07   3.231420923547621e-07   2.774750437275781e-07
3.29821896435001e-07   -3.741071659230338e-07   -1.4791993306450656e-06
3.29821896435001e-07   -3.741071659230338e-07   -1.4791993306450656e-06
3.29821896435001e-07   -3.741071659230338e-07   -1.4791993306450656e-06
3.29821896435001e-07   -3.741071659230338e-07   -1.4791993306450656e-06
-8.555187765155788e-07   2.719543044587534e-07   1.0873157537663256e-07
-8.555187765155788e-07   2.719543044587534e-07   1.0873157537663256e-07
-8.555187765155788e-07   2.719543044587534e-07   1.0873157537663256e-07
-8.555187765155788e-07   2.719543044587534e-07   1.0873157537663256e-07
-3.0764843935720426e-07   2.2942660862204558e-08   -6.549786670624266e-07
-3.0764843935720426e-07   2.2942660862204558e-08   -6.549786670624266e-07
-3.0764843935720426e-07   2.2942660862204558e-08   -6.549786670624266e-07
-3.0764843935720426e-07   2.2942660862204558e-08   -6.549786670624266e-07
              </DataArray>   
             <DataArray type="Float64" NumberOfComponents="3" Name="Stress" format="ascii">   
-2.3771219531901586   -0.5942804882975397   -0.5942804882975397
-2.3771219531901586   -0.5942804882975397   -0.5942804882975397
-2.3771219531901586   -0.5942804882975397   -0.5942804882975397
-2.3771219531901586   -0.5942804882975397   -0.5942804882975397
-1.3755014091423579   -0.04382676782568423   -0.02767523786182234
-1.3755014091423579   -0.04382676782568423   -0.02767523786182234
-1.3755014091423579   -0.04382676782568423   -0.02767523786182234
-1.3755014091423579   -0.04382676782568423   -0.02767523786182234
-1.4824257224739623   -0.3706064306184906   -0.3706064306184906
-1.4824257224739623   -0.3706064306184906   -0.3706064306184906
-1.4824257224739623   -0.3706064306184906   -0.3706064306184906
-1.4824257224739623   -0.3706064306184906   -0.3706064306184906
-2.290956135952617   -0.188331909866021   -0.07208508265232774
-2.290956135952617   -0.188331909866021   -0.07208508265232774
-2.290956135952617   -0.188331909866021   -0.07208508265232774
-2.290956135952617   -0.188331909866021   -0.07208508265232774
-1.7967270972933345   -0.29467838418510056   -0.00497483203731364
-1.7967270972933345   -0.29467838418510056   -0.00497483203731364
-1.7967270972933345   -0.29467838418510056   -0.00497483203731364
-1.7967270972933345   -0.29467838418510056   -0.00497483203731364
-2.4876363749432793   -0.6219090937358198   -0.6219090937358198
-2.4876363749432793   -0.6219090937358198   -0.6219090937358198
-2.4876363749432793   -0.6219090937358198   -0.6219090937358198
-2.4876363749432793   -0.6219090937358198   -0.6219090937358198
-1.3324086234541574   0.016307613280454547   -0.007434979418411786
-1.3324086234541574   0.016307613280454547   -0.007434979418411786
-1.3324086234541574   0.016307613280454547   -0.007434979418411786
-1.3324086234541574   0.016307613280454547   -0.007434979418411786
-1.4864890328713478   -0.37162225821783695   -0.37162225821783695
-1.4864890328713478   -0.37162225821783695   -0.37162225821783695
-1.4864890328713478   -0.37162225821783695   -0.37162225821783695
-1.4864890328713478   -0.37162225821783695   -0.37162225821783695
-2.3678189509279344   -0.1901014937854471   -0.10561271011258293
-2.3678189509279344   -0.1901014937854471   -0.10561271011258293
-2.3678189509279344   -0.1901014937854471   -0.10561271011258293
-2.3678189509279344   -0.1901014937854471   -0.10561271011258293
-1.8636149619069717   -0.2774018849011727   -0.09889075705079126
-1.8636149619069717   -0.2774018849011727   -0.09889075705079126
-1.8636149619069717   -0.2774018849011727   -0.09889075705079126
-1.8636149619069717   -0.2774018849011727   -0.09889075705079126
-2.5651956779425915   -0.6412989194856479   -0.6412989194856479
-2.5651956779425915   -0.6412989194856479   -0.6412989194856479
-2.5651956779425915   -0.6412989194856479   -0.6412989194856479
-2.5651956779425915   -0.6412989194856479   -0.6412989194856479
-1.3284265101179713   0.04026096322108469   0.006807134110113036
-1.3284265101179713   0.04026096322108469   0.006807134110113036
-1.3284265101179713   0.04026096322108469   0.006807134110113036
-1.3284265101179713   0.04026096322108469   0.006807134110113036
-1.4855753673110954   -0.37139384182777385   -0.37139384182777385
-1.4855753673110954   -0.37139384182777385   -0.37139384182777385
-1.4855753673110954   -0.37139384182777385   -0.37139384182777385
-1.4855753673110954   -0.37139384182777385   -0.37139384182777385
-2.5051728385536944   -0.16665523203848032   -0.06342568805086143
-2.5051728385536944   -0.16665523203848032   -0.06342568805086143
-2.5051728385536944   -0.16665523203848032   -0.06342568805086143
-2.5051728385536944   -0.16665523203848032   -0.06342568805086143
-1.9131972839600433   -0.27304929652330373   -0.1787022714561332
-1.9131972839600433   -0.27304929652330373   -0.1787022714561332
-1.9131972839600433   -0.27304929652330373   -0.1787022714561332
-1.9131972839600433   -0.27304929652330373   -0.1787022714561332
-1.5124455644498431   -0.3781113911124608   -0.3781113911124608
-1.5124455644498431   -0.3781113911124608   -0.3781113911124608
-1.5124455644498431   -0.3781113911124608   -0.3781113911124608
-1.5124455644498431   -0.3781113911124608   -0.3781113911124608
-0.6311901986611597   -0.04216141828687314   -0.013687174530530033
-0.6311901986611597   -0.04216141828687314   -0.013687174530530033
-0.6311901986611597   -0.04216141828687314   -0.013687174530530033
-0.6311901986611597   -0.04216141828687314   -0.013687174530530033
-0.6624710583305512   -0.1656177645826378   -0.1656177645826378
-0.6624710583305512   -0.1656177645826378   -0.1656177645826378
-0.6624710583305512   -0.1656177645826378   -0.1656177645826378
-0.6624710583305512   -0.1656177645826378   -0.1656177645826378
-1.3769113827078967   -0.16204106949738362   -0.05160009290926959
-1.3769113827078967   -0.16204106949738362   -0.05160009290926959
-1.3769113827078967   -0.16204106949738362   -0.05160009290926959
-1.3769113827078967   -0.16204106949738362   -0.05160009290926959
-1.015619670586765   -0.19245232562205342   0.007916373944109458
-1.015619670586765   -0.19245232562205342   0.007916373944109458
-1.015619670586765   -0.19245232562205342   0.007916373944109458
-1.015619670586765   -0.19245232562205342   0.007916373944109458
-1.482425722473961   -0.37060643061849025   -0.37060643061849025
-1.482425722473961   -0.37060643061849025   -0.37060643061849025
-1.482425722473961   -0.37060643061849025   -0.37060643061849025
-1.482425722473961   -0.37060643061849025   -0.37060643061849025
-0.5954017903741936   0.0045025247287608094   -0.0003917141122485243
-0.5954017903741936   0.0045025247287608094   -0.0003917141122485243
-0.5954017903741936   0.0045025247287608094   -0.0003917141122485243
-0.5954017903741936   0.0045025247287608094   -0.0003917141122485243
-0.6475732239254057   -0.16189330598135143   -0.16189330598135143
-0.6475732239254057   -0.16189330598135143   -0.16189330598135143
-0.6475732239254057   -0.16189330598135143   -0.16189330598135143
-0.6475732239254057   -0.16189330598135143   -0.16189330598135143
-1.373334866952055   -0.13215994672094084   -0.04531374011827041
-1.373334866952055   -0.13215994672094084   -0.04531374011827041
-1.373334866952055   -0.13215994672094084   -0.04531374011827041
-1.373334866952055   -0.13215994672094084   -0.04531374011827041
-1.0013673556336111   -0.16199610130930092   -0.05234304746018323
-1.0013673556336111   -0.16199610130930092   -0.05234304746018323
-1.0013673556336111   -0.16199610130930092   -0.05234304746018323
-1.0013673556336111   -0.16199610130930092   -0.05234304746018323
-1.4864890328713478   -0.37162225821783695   -0.37162225821783695
-1.4864890328713478   -0.37162225821783695   -0.37162225821783695
-1.4864890328713478   -0.37162225821783695   -0.37162225821783695
-1.4864890328713478   -0.37162225821783695   -0.37162225821783695
-0.5716553889221306   0.04033267459952819   0.015469888454150066
-0.5716553889221306   0.04033267459952819   0.015469888454150066
-0.5716553889221306   0.04033267459952819   0.015469888454150066
-0.5716553889221306   0.04033267459952819   0.015469888454150066
-0.6339881862042674   -0.15849704655106686   -0.15849704655106686
-0.6339881862042674   -0.15849704655106686   -0.15849704655106686
-0.6339881862042674   -0.15849704655106686   -0.15849704655106686
-0.6339881862042674   -0.15849704655106686   -0.15849704655106686
-1.3631213598300165   -0.10194468147803884   -0.028572964772120214
-1.3631213598300165   -0.10194468147803884   -0.028572964772120214
-1.3631213598300165   -0.10194468147803884   -0.028572964772120214
-1.3631213598300165   -0.10194468147803884   -0.028572964772120214
-1.0061998497185383   -0.14332482000701813   -0.11660068566554072
-1.0061998497185383   -0.14332482000701813   -0.11660068566554072
-1.0061998497185383   -0.14332482000701813   -0.11660068566554072
-1.0061998497185383   -0.14332482000701813   -0.11660068566554072
-0.6889116445529779   -0.17222791113824448   -0.17222791113824448
-0.6889116445529779   -0.17222791113824448   -0.17222791113824448
-0.6889116445529779   -0.17222791113824448   -0.17222791113824448
-0.6889116445529779   -0.17222791113824448   -0.17222791113824448
0.0813507433566218   0.00525378061269253   0.0006719908599181778
0.0813507433566218   0.00525378061269253   0.0006719908599181778
0.0813507433566218   0.00525378061269253   0.0006719908599181778
0.0813507433566218   0.00525378061269253   0.0006719908599181778
0.10600427729024449   0.026501069322561122   0.026501069322561122
0.10600427729024449   0.026501069322561122   0.026501069322561122
0.10600427729024449   0.026501069322561122   0.026501069322561122
0.10600427729024449   0.026501069322561122   0.026501069322561122
-0.6227713141720589   -0.10763807866456623   -0.025098729708248127
-0.6227713141720589   -0.10763807866456623   -0.025098729708248127
-0.6227713141720589   -0.10763807866456623   -0.025098729708248127
-0.6227713141720589   -0.10763807866456623   -0.025098729708248127
-0.2668055241320834   -0.06767420258648148   0.04518815826721144
-0.2668055241320834   -0.06767420258648148   0.04518815826721144
-0.2668055241320834   -0.06767420258648148   0.04518815826721144
-0.2668055241320834   -0.06767420258648148   0.04518815826721144
-0.6624710583305524   -0.1656177645826381   -0.1656177645826381
-0.6624710583305524   -0.1656177645826381   -0.1656177645826381
-0.6624710583305524   -0.1656177645826381   -0.1656177645826381
-0.6624710583305524   -0.1656177645826381   -0.1656177645826381
0.10791160598241191   0.04668833977430771   0.015850442331650727
0.10791160598241191   0.04668833977430771   0.015850442331650727
0.10791160598241191   0.04668833977430771   0.015850442331650727
0.10791160598241191   0.04668833977430771   0.015850442331650727
0.11938312812848365   0.02984578203212091   0.02984578203212091
0.11938312812848365   0.02984578203212091   0.02984578203212091
0.11938312812848365   0.02984578203212091   0.02984578203212091
0.11938312812848365   0.02984578203212091   0.02984578203212091
-0.6006670630943746   -0.07242544517126209   -0.016830362636289287
-0.6006670630943746   -0.07242544517126209   -0.016830362636289287
-0.6006670630943746   -0.07242544517126209   -0.016830362636289287
-0.6006670630943746   -0.07242544517126209   -0.016830362636289287
-0.2558467033634204   -0.04181174080108771   -0.01547393306136225
-0.2558467033634204   -0.04181174080108771   -0.01547393306136225
-0.2558467033634204   -0.04181174080108771   -0.01547393306136225
-0.2558467033634204   -0.04181174080108771   -0.01547393306136225
-0.647573223925407   -0.16189330598135174   -0.16189330598135174
-0.647573223925407   -0.16189330598135174   -0.16189330598135174
-0.647573223925407   -0.16189330598135174   -0.16189330598135174
-0.647573223925407   -0.16189330598135174   -0.16189330598135174
0.12925780138587128   0.08228215526856729   0.02678277508261173
0.12925780138587128   0.08228215526856729   0.02678277508261173
0.12925780138587128   0.08228215526856729   0.02678277508261173
0.12925780138587128   0.08228215526856729   0.02678277508261173
0.13734546670734318   0.034336366676835796   0.034336366676835796
0.13734546670734318   0.034336366676835796   0.034336366676835796
0.13734546670734318   0.034336366676835796   0.034336366676835796
0.13734546670734318   0.034336366676835796   0.034336366676835796
-0.5766127565058412   -0.030440687189589963   0.0003237425795843095
-0.5766127565058412   -0.030440687189589963   0.0003237425795843095
-0.5766127565058412   -0.030440687189589963   0.0003237425795843095
-0.5766127565058412   -0.030440687189589963   0.0003237425795843095
-0.24809720203679558   -0.016879328479133426   -0.07559422796420363
-0.24809720203679558   -0.016879328479133426   -0.07559422796420363
-0.24809720203679558   -0.016879328479133426   -0.07559422796420363
-0.24809720203679558   -0.016879328479133426   -0.07559422796420363
0.08907287673566644   0.02226821918391661   0.02226821918391661
0.08907287673566644   0.02226821918391661   0.02226821918391661
0.08907287673566644   0.02226821918391661   0.02226821918391661
0.08907287673566644   0.02226821918391661   0.02226821918391661
0.8614325263236452   0.07905281348568508   0.02662551857097311
0.8614325263236452   0.07905281348568508   0.02662551857097311
0.8614325263236452   0.07905281348568508   0.02662551857097311
0.8614325263236452   0.07905281348568508   0.02662551857097311
0.9354565865514306   0.23386414663785765   0.23386414663785765
0.9354565865514306   0.23386414663785765   0.23386414663785765
0.9354565865514306   0.23386414663785765   0.23386414663785765
0.9354565865514306   0.23386414663785765   0.23386414663785765
0.08074888210855768   -0.06064641645923353   -0.012628420804079856
0.08074888210855768   -0.06064641645923353   -0.012628420804079856
0.08074888210855768   -0.06064641645923353   -0.012628420804079856
0.08074888210855768   -0.06064641645923353   -0.012628420804079856
0.4911063404614672   0.06114895784691922   0.0891914520644484
0.4911063404614672   0.06114895784691922   0.0891914520644484
0.4911063404614672   0.06114895784691922   0.0891914520644484
0.4911063404614672   0.06114895784691922   0.0891914520644484
0.10600427729024485   0.026501069322561212   0.026501069322561212
0.10600427729024485   0.026501069322561212   0.026501069322561212
0.10600427729024485   0.026501069322561212   0.026501069322561212
0.10600427729024485   0.026501069322561212   0.026501069322561212
0.87178339706418   0.10829886655049942   0.04106347928896261
0.87178339706418   0.10829886655049942   0.04106347928896261
0.87178339706418   0.10829886655049942   0.04106347928896261
0.87178339706418   0.10829886655049942   0.04106347928896261
0.9315649497309977   0.23289123743274942   0.23289123743274942
0.9315649497309977   0.23289123743274942   0.23289123743274942
0.9315649497309977   0.23289123743274942   0.23289123743274942
0.9315649497309977   0.23289123743274942   0.23289123743274942
0.1022297644195526   -0.02620971712052645   0.00013446264011203642
0.1022297644195526   -0.02620971712052645   0.00013446264011203642
0.1022297644195526   -0.02620971712052645   0.00013446264011203642
0.1022297644195526   -0.02620971712052645   0.00013446264011203642
0.48759891984802356   0.08029640984996726   0.023167428592354992
0.48759891984802356   0.08029640984996726   0.023167428592354992
0.48759891984802356   0.08029640984996726   0.023167428592354992
0.48759891984802356   0.08029640984996726   0.023167428592354992
0.11938312812848376   0.02984578203212094   0.02984578203212094
0.11938312812848376   0.02984578203212094   0.02984578203212094
0.11938312812848376   0.02984578203212094   0.02984578203212094
0.11938312812848376   0.02984578203212094   0.02984578203212094
0.8763636507613427   0.13878780301937832   0.0509881769978458
0.8763636507613427   0.13878780301937832   0.0509881769978458
0.8763636507613427   0.13878780301937832   0.0509881769978458
0.8763636507613427   0.13878780301937832   0.0509881769978458
0.9497168557869495   0.23742921394673738   0.23742921394673738
0.9497168557869495   0.23742921394673738   0.23742921394673738
0.9497168557869495   0.23742921394673738   0.23742921394673738
0.9497168557869495   0.23742921394673738   0.23742921394673738
0.13036156824103337   0.019338453018492505   0.014414788003629
0.13036156824103337   0.019338453018492505   0.014414788003629
0.13036156824103337   0.019338453018492505   0.014414788003629
0.13036156824103337   0.019338453018492505   0.014414788003629
0.49527654962490103   0.10895866267195642   -0.03805087835717438
0.49527654962490103   0.10895866267195642   -0.03805087835717438
0.49527654962490103   0.10895866267195642   -0.03805087835717438
0.49527654962490103   0.10895866267195642   -0.03805087835717438
0.9336631776803485   0.2334157944200871   0.2334157944200871
0.9336631776803485   0.2334157944200871   0.2334157944200871
0.9336631776803485   0.2334157944200871   0.2334157944200871
0.9336631776803485   0.2334157944200871   0.2334157944200871
1.9374285300673155   0.14771958168360377   0.05080307182439617
1.9374285300673155   0.14771958168360377   0.05080307182439617
1.9374285300673155   0.14771958168360377   0.05080307182439617
1.9374285300673155   0.14771958168360377   0.05080307182439617
1.98047200133925   0.4951180003348125   0.4951180003348125
1.98047200133925   0.4951180003348125   0.4951180003348125
1.98047200133925   0.4951180003348125   0.4951180003348125
1.98047200133925   0.4951180003348125   0.4951180003348125
0.8315521095797509   -0.04719413675645023   -0.004599954826232919
0.8315521095797509   -0.04719413675645023   -0.004599954826232919
0.8315521095797509   -0.04719413675645023   -0.004599954826232919
0.8315521095797509   -0.04719413675645023   -0.004599954826232919
1.3816639306774228   0.1955936662407221   0.15592183435229506
1.3816639306774228   0.1955936662407221   0.15592183435229506
1.3816639306774228   0.1955936662407221   0.15592183435229506
1.3816639306774228   0.1955936662407221   0.15592183435229506
0.9354565865514297   0.23386414663785743   0.23386414663785743
0.9354565865514297   0.23386414663785743   0.23386414663785743
0.9354565865514297   0.23386414663785743   0.23386414663785743
0.9354565865514297   0.23386414663785743   0.23386414663785743
1.8353842437677406   0.17287643634068064   0.09192077647142788
1.8353842437677406   0.17287643634068064   0.09192077647142788
1.8353842437677406   0.17287643634068064   0.09192077647142788
1.8353842437677406   0.17287643634068064   0.09192077647142788
1.9214471049999429   0.4803617762499857   0.4803617762499857
1.9214471049999429   0.4803617762499857   0.4803617762499857
1.9214471049999429   0.4803617762499857   0.4803617762499857
1.9214471049999429   0.4803617762499857   0.4803617762499857
0.8345691311683241   -0.02596455895630026   0.006767941008431519
0.8345691311683241   -0.02596455895630026   0.006767941008431519
0.8345691311683241   -0.02596455895630026   0.006767941008431519
0.8345691311683241   -0.02596455895630026   0.006767941008431519
1.3408137395854396   0.20127686177545057   0.07475853016116193
1.3408137395854396   0.20127686177545057   0.07475853016116193
1.3408137395854396   0.20127686177545057   0.07475853016116193
1.3408137395854396   0.20127686177545057   0.07475853016116193
0.9315649497309977   0.23289123743274942   0.23289123743274942
0.9315649497309977   0.23289123743274942   0.23289123743274942
0.9315649497309977   0.23289123743274942   0.23289123743274942
0.9315649497309977   0.23289123743274942   0.23289123743274942
1.7764239703713693   0.1734786637950414   0.06212921556209276
1.7764239703713693   0.1734786637950414   0.06212921556209276
1.7764239703713693   0.1734786637950414   0.06212921556209276
1.7764239703713693   0.1734786637950414   0.06212921556209276
1.8334954065099813   0.45837385162749533   0.45837385162749533
1.8334954065099813   0.45837385162749533   0.45837385162749533
1.8334954065099813   0.45837385162749533   0.45837385162749533
1.8334954065099813   0.45837385162749533   0.45837385162749533
0.8655697830850675   0.027542684604464324   0.02658037977960815
0.8655697830850675   0.027542684604464324   0.02658037977960815
0.8655697830850675   0.027542684604464324   0.02658037977960815
0.8655697830850675   0.027542684604464324   0.02658037977960815
1.2840030605290396   0.21828137335567682   -0.019651872252681543
1.2840030605290396   0.21828137335567682   -0.019651872252681543
1.2840030605290396   0.21828137335567682   -0.019651872252681543
1.2840030605290396   0.21828137335567682   -0.019651872252681543
-1.8777750725157616   -0.13448224013161653   0.021321063981923696
-1.8777750725157616   -0.13448224013161653   0.021321063981923696
-1.8777750725157616   -0.13448224013161653   0.021321063981923696
-1.8777750725157616   -0.13448224013161653   0.021321063981923696
-1.1954116186840884   -0.027749940592632943   -0.007794724236047289
-1.1954116186840884   -0.027749940592632943   -0.007794724236047289
-1.1954116186840884   -0.027749940592632943   -0.007794724236047289
-1.1954116186840884   -0.027749940592632943   -0.007794724236047289
-1.2033682882615842   0.048652108519317394   0.025247161583332553
-1.2033682882615842   0.048652108519317394   0.025247161583332553
-1.2033682882615842   0.048652108519317394   0.025247161583332553
-1.2033682882615842   0.048652108519317394   0.025247161583332553
-1.9056601561710285   -0.13008262293655198   -0.02264567519498338
-1.9056601561710285   -0.13008262293655198   -0.02264567519498338
-1.9056601561710285   -0.13008262293655198   -0.02264567519498338
-1.9056601561710285   -0.13008262293655198   -0.02264567519498338
-1.4847529206221455   -0.05076007275000993   -0.00597917483111593
-1.4847529206221455   -0.05076007275000993   -0.00597917483111593
-1.4847529206221455   -0.05076007275000993   -0.00597917483111593
-1.4847529206221455   -0.05076007275000993   -0.00597917483111593
-1.891725075970507   -0.09223271730409943   0.009179820175171535
-1.891725075970507   -0.09223271730409943   0.009179820175171535
-1.891725075970507   -0.09223271730409943   0.009179820175171535
-1.891725075970507   -0.09223271730409943   0.009179820175171535
-1.2192941727167512   0.008811398632223855   -0.01454155080538927
-1.2192941727167512   0.008811398632223855   -0.01454155080538927
-1.2192941727167512   0.008811398632223855   -0.01454155080538927
-1.2192941727167512   0.008811398632223855   -0.01454155080538927
-1.2047250322420666   0.0693832033414849   0.028716856836211682
-1.2047250322420666   0.0693832033414849   0.028716856836211682
-1.2047250322420666   0.0693832033414849   0.028716856836211682
-1.2047250322420666   0.0693832033414849   0.028716856836211682
-1.9171031772367721   -0.1145512191298867   -0.02988690592884169
-1.9171031772367721   -0.1145512191298867   -0.02988690592884169
-1.9171031772367721   -0.1145512191298867   -0.02988690592884169
-1.9171031772367721   -0.1145512191298867   -0.02988690592884169
-1.5263505798361943   -0.03394990891433014   -0.014520121565145191
-1.5263505798361943   -0.03394990891433014   -0.014520121565145191
-1.5263505798361943   -0.03394990891433014   -0.014520121565145191
-1.5263505798361943   -0.03394990891433014   -0.014520121565145191
-1.8825937345582993   -0.05526007568523056   0.08336916401886664
-1.8825937345582993   -0.05526007568523056   0.08336916401886664
-1.8825937345582993   -0.05526007568523056   0.08336916401886664
-1.8825937345582993   -0.05526007568523056   0.08336916401886664
-1.22488064228037   0.02444589253700047   -0.027123882550808054
-1.22488064228037   0.02444589253700047   -0.027123882550808054
-1.22488064228037   0.02444589253700047   -0.027123882550808054
-1.22488064228037   0.02444589253700047   -0.027123882550808054
-1.1827245389508276   0.12093607565846898   0.05208255083101829
-1.1827245389508276   0.12093607565846898   0.05208255083101829
-1.1827245389508276   0.12093607565846898   0.05208255083101829
-1.1827245389508276   0.12093607565846898   0.05208255083101829
-1.8639585124037084   -0.09236089273162168   -0.04885021999998257
-1.8639585124037084   -0.09236089273162168   -0.04885021999998257
-1.8639585124037084   -0.09236089273162168   -0.04885021999998257
-1.8639585124037084   -0.09236089273162168   -0.04885021999998257
-1.467856206909372   0.013763137169019224   0.03255826098919927
-1.467856206909372   0.013763137169019224   0.03255826098919927
-1.467856206909372   0.013763137169019224   0.03255826098919927
-1.467856206909372   0.013763137169019224   0.03255826098919927
-1.2250573024972664   -0.16246001743908534   -0.021313066455484447
-1.2250573024972664   -0.16246001743908534   -0.021313066455484447
-1.2250573024972664   -0.16246001743908534   -0.021313066455484447
-1.2250573024972664   -0.16246001743908534   -0.021313066455484447
-0.5646010242290984   -0.012663300638535074   0.005966008995387309
-0.5646010242290984   -0.012663300638535074   0.005966008995387309
-0.5646010242290984   -0.012663300638535074   0.005966008995387309
-0.5646010242290984   -0.012663300638535074   0.005966008995387309
-0.5727796495314754   0.010823686989906767   0.00859195635076316
-0.5727796495314754   0.010823686989906767   0.00859195635076316
-0.5727796495314754   0.010823686989906767   0.00859195635076316
-0.5727796495314754   0.010823686989906767   0.00859195635076316
-1.249288621338697   -0.11890188219539355   -0.036800513087520706
-1.249288621338697   -0.11890188219539355   -0.036800513087520706
-1.249288621338697   -0.11890188219539355   -0.036800513087520706
-1.249288621338697   -0.11890188219539355   -0.036800513087520706
-0.9029149696040798   -0.07336420878228368   -0.020743653997930652
-0.9029149696040798   -0.07336420878228368   -0.020743653997930652
-0.9029149696040798   -0.07336420878228368   -0.020743653997930652
-0.9029149696040798   -0.07336420878228368   -0.020743653997930652
-1.248096144690576   -0.1299216714337748   -0.019818340608542137
-1.248096144690576   -0.1299216714337748   -0.019818340608542137
-1.248096144690576   -0.1299216714337748   -0.019818340608542137
-1.248096144690576   -0.1299216714337748   -0.019818340608542137
-0.5717474952828883   0.024068107124993937   0.0005083074586081648
-0.5717474952828883   0.024068107124993937   0.0005083074586081648
-0.5717474952828883   0.024068107124993937   0.0005083074586081648
-0.5717474952828883   0.024068107124993937   0.0005083074586081648
-0.57055376477728   0.03978593640619202   0.011634573342620635
-0.57055376477728   0.03978593640619202   0.011634573342620635
-0.57055376477728   0.03978593640619202   0.011634573342620635
-0.57055376477728   0.03978593640619202   0.011634573342620635
-1.2497254651093248   -0.08709334595686952   -0.03980875820172343
-1.2497254651093248   -0.08709334595686952   -0.03980875820172343
-1.2497254651093248   -0.08709334595686952   -0.03980875820172343
-1.2497254651093248   -0.08709334595686952   -0.03980875820172343
-0.9010959826189908   -0.04081232262280857   -0.00986514375494743
-0.9010959826189908   -0.04081232262280857   -0.00986514375494743
-0.9010959826189908   -0.04081232262280857   -0.00986514375494743
-0.9010959826189908   -0.04081232262280857   -0.00986514375494743
-1.244825044146614   -0.09822936167100571   -0.004170637674033889
-1.244825044146614   -0.09822936167100571   -0.004170637674033889
-1.244825044146614   -0.09822936167100571   -0.004170637674033889
-1.244825044146614   -0.09822936167100571   -0.004170637674033889
-0.5713223518289956   0.05505378603132477   -0.007476211541084833
-0.5713223518289956   0.05505378603132477   -0.007476211541084833
-0.5713223518289956   0.05505378603132477   -0.007476211541084833
-0.5713223518289956   0.05505378603132477   -0.007476211541084833
-0.560934472806506   0.06887166274225118   0.02332186930581958
-0.560934472806506   0.06887166274225118   0.02332186930581958
-0.560934472806506   0.06887166274225118   0.02332186930581958
-0.560934472806506   0.06887166274225118   0.02332186930581958
-1.2362678869577108   -0.05033966962603903   -0.04435844391888412
-1.2362678869577108   -0.05033966962603903   -0.04435844391888412
-1.2362678869577108   -0.05033966962603903   -0.04435844391888412
-1.2362678869577108   -0.05033966962603903   -0.04435844391888412
-0.8972581617175641   -0.010006686004324639   0.004500848788827623
-0.8972581617175641   -0.010006686004324639   0.004500848788827623
-0.8972581617175641   -0.010006686004324639   0.004500848788827623
-0.8972581617175641   -0.010006686004324639   0.004500848788827623
-0.5953371891592818   -0.13524485610107062   -0.025133260192993945
-0.5953371891592818   -0.13524485610107062   -0.025133260192993945
-0.5953371891592818   -0.13524485610107062   -0.025133260192993945
-0.5953371891592818   -0.13524485610107062   -0.025133260192993945
0.06131029563318972   0.013932253786894788   0.02319185270487835
0.06131029563318972   0.013932253786894788   0.02319185270487835
0.06131029563318972   0.013932253786894788   0.02319185270487835
0.06131029563318972   0.013932253786894788   0.02319185270487835
0.05857088100999651   0.0340241237157348   0.0018700870112015738
0.05857088100999651   0.0340241237157348   0.0018700870112015738
0.05857088100999651   0.0340241237157348   0.0018700870112015738
0.05857088100999651   0.0340241237157348   0.0018700870112015738
-0.5977866108460386   -0.08956726252654632   -0.016051900705602966
-0.5977866108460386   -0.08956726252654632   -0.016051900705602966
-0.5977866108460386   -0.08956726252654632   -0.016051900705602966
-0.5977866108460386   -0.08956726252654632   -0.016051900705602966
-0.2709067976016644   -0.04487030946330206   -0.008594193202715192
-0.2709067976016644   -0.04487030946330206   -0.008594193202715192
-0.2709067976016644   -0.04487030946330206   -0.008594193202715192
-0.2709067976016644   -0.04487030946330206   -0.008594193202715192
-0.6019241787972505   -0.1030919218713306   -0.023215081116878353
-0.6019241787972505   -0.1030919218713306   -0.023215081116878353
-0.6019241787972505   -0.1030919218713306   -0.023215081116878353
-0.6019241787972505   -0.1030919218713306   -0.023215081116878353
0.06500110611312591   0.049841440212436486   0.018203896030146584
0.06500110611312591   0.049841440212436486   0.018203896030146584
0.06500110611312591   0.049841440212436486   0.018203896030146584
0.06500110611312591   0.049841440212436486   0.018203896030146584
0.0633187655213382   0.06589232743338876   0.010772671771252197
0.0633187655213382   0.06589232743338876   0.010772671771252197
0.0633187655213382   0.06589232743338876   0.010772671771252197
0.0633187655213382   0.06589232743338876   0.010772671771252197
-0.595768163684759   -0.054618364284852366   -0.020033120503734868
-0.595768163684759   -0.054618364284852366   -0.020033120503734868
-0.595768163684759   -0.054618364284852366   -0.020033120503734868
-0.595768163684759   -0.054618364284852366   -0.020033120503734868
-0.26659006391178813   -0.011008394613980246   0.003168319378575847
-0.26659006391178813   -0.011008394613980246   0.003168319378575847
-0.26659006391178813   -0.011008394613980246   0.003168319378575847
-0.26659006391178813   -0.011008394613980246   0.003168319378575847
-0.5973730543373961   -0.07077979875246909   -0.011896139299302748
-0.5973730543373961   -0.07077979875246909   -0.011896139299302748
-0.5973730543373961   -0.07077979875246909   -0.011896139299302748
-0.5973730543373961   -0.07077979875246909   -0.011896139299302748
0.06739138580583429   0.08452149153286521   0.012506609094255758
0.06739138580583429   0.08452149153286521   0.012506609094255758
0.06739138580583429   0.08452149153286521   0.012506609094255758
0.06739138580583429   0.08452149153286521   0.012506609094255758
0.06488050994219617   0.10133686951263926   0.017718259642691102
0.06488050994219617   0.10133686951263926   0.017718259642691102
0.06488050994219617   0.10133686951263926   0.017718259642691102
0.06488050994219617   0.10133686951263926   0.017718259642691102
-0.5878759361519963   -0.017263415889527622   -0.025250368789855628
-0.5878759361519963   -0.017263415889527622   -0.025250368789855628
-0.5878759361519963   -0.017263415889527622   -0.025250368789855628
-0.5878759361519963   -0.017263415889527622   -0.025250368789855628
-0.2598246725617876   0.02440306407687607   0.01604560272409346
-0.2598246725617876   0.02440306407687607   0.01604560272409346
-0.2598246725617876   0.02440306407687607   0.01604560272409346
-0.2598246725617876   0.02440306407687607   0.01604560272409346
0.027870607753377078   -0.09916628377001735   -0.03090804913727274
0.027870607753377078   -0.09916628377001735   -0.03090804913727274
0.027870607753377078   -0.09916628377001735   -0.03090804913727274
0.027870607753377078   -0.09916628377001735   -0.03090804913727274
0.7081456133129982   0.04882438540525651   0.0425923757488076
0.7081456133129982   0.04882438540525651   0.0425923757488076
0.7081456133129982   0.04882438540525651   0.0425923757488076
0.7081456133129982   0.04882438540525651   0.0425923757488076
0.7073742699700004   0.06583854811926336   -0.0068289857730400964
0.7073742699700004   0.06583854811926336   -0.0068289857730400964
0.7073742699700004   0.06583854811926336   -0.0068289857730400964
0.7073742699700004   0.06583854811926336   -0.0068289857730400964
0.040351053883389776   -0.05951539875303087   0.004310473846933227
0.040351053883389776   -0.05951539875303087   0.004310473846933227
0.040351053883389776   -0.05951539875303087   0.004310473846933227
0.040351053883389776   -0.05951539875303087   0.004310473846933227
0.366358917150797   -0.008536131161039268   0.0007466186139134662
0.366358917150797   -0.008536131161039268   0.0007466186139134662
0.366358917150797   -0.008536131161039268   0.0007466186139134662
0.366358917150797   -0.008536131161039268   0.0007466186139134662
0.032285583310726396   -0.07243320634322188   -0.02309907142619229
0.032285583310726396   -0.07243320634322188   -0.02309907142619229
0.032285583310726396   -0.07243320634322188   -0.02309907142619229
0.032285583310726396   -0.07243320634322188   -0.02309907142619229
0.7195657366383799   0.08288235180517052   0.037084543882950086
0.7195657366383799   0.08288235180517052   0.037084543882950086
0.7195657366383799   0.08288235180517052   0.037084543882950086
0.7195657366383799   0.08288235180517052   0.037084543882950086
0.7130923228820898   0.09736354195046618   0.007138199532537944
0.7130923228820898   0.09736354195046618   0.007138199532537944
0.7130923228820898   0.09736354195046618   0.007138199532537944
0.7130923228820898   0.09736354195046618   0.007138199532537944
0.04192387829483056   -0.028274666126581173   -0.0020347708013160187
0.04192387829483056   -0.028274666126581173   -0.0020347708013160187
0.04192387829483056   -0.028274666126581173   -0.0020347708013160187
0.04192387829483056   -0.028274666126581173   -0.0020347708013160187
0.3713797832620742   0.02159389073039262   0.0152035891867444
0.3713797832620742   0.02159389073039262   0.0152035891867444
0.3713797832620742   0.02159389073039262   0.0152035891867444
0.3713797832620742   0.02159389073039262   0.0152035891867444
0.036037578872473455   -0.042852694638250984   -0.01688823940143149
0.036037578872473455   -0.042852694638250984   -0.01688823940143149
0.036037578872473455   -0.042852694638250984   -0.01688823940143149
0.036037578872473455   -0.042852694638250984   -0.01688823940143149
0.7219652639657828   0.11492821212347284   0.03393823477800188
0.7219652639657828   0.11492821212347284   0.03393823477800188
0.7219652639657828   0.11492821212347284   0.03393823477800188
0.7219652639657828   0.11492821212347284   0.03393823477800188
0.7017518706389262   0.13374500830337777   0.015057262030162577
0.7017518706389262   0.13374500830337777   0.015057262030162577
0.7017518706389262   0.13374500830337777   0.015057262030162577
0.7017518706389262   0.13374500830337777   0.015057262030162577
0.04165584798307346   0.010397180113821878   -0.007465360754105074
0.04165584798307346   0.010397180113821878   -0.007465360754105074
0.04165584798307346   0.010397180113821878   -0.007465360754105074
0.04165584798307346   0.010397180113821878   -0.007465360754105074
0.3769994526057294   0.056035900561512954   0.028591880012106503
0.3769994526057294   0.056035900561512954   0.028591880012106503
0.3769994526057294   0.056035900561512954   0.028591880012106503
0.3769994526057294   0.056035900561512954   0.028591880012106503
0.6522363211786417   -0.1309211786354615   -0.05720852088225664
0.6522363211786417   -0.1309211786354615   -0.05720852088225664
0.6522363211786417   -0.1309211786354615   -0.05720852088225664
0.6522363211786417   -0.1309211786354615   -0.05720852088225664
1.3434928971642799   0.08874560604556431   0.04158102104800096
1.3434928971642799   0.08874560604556431   0.04158102104800096
1.3434928971642799   0.08874560604556431   0.04158102104800096
1.3434928971642799   0.08874560604556431   0.04158102104800096
1.35882964018211   0.041967953991036755   -0.08606703169115924
1.35882964018211   0.041967953991036755   -0.08606703169115924
1.35882964018211   0.041967953991036755   -0.08606703169115924
1.35882964018211   0.041967953991036755   -0.08606703169115924
0.6952072470398255   -0.026721148098149045   0.024895595793491952
0.6952072470398255   -0.026721148098149045   0.024895595793491952
0.6952072470398255   -0.026721148098149045   0.024895595793491952
0.6952072470398255   -0.026721148098149045   0.024895595793491952
0.9620896341380893   -0.01690522482867307   -0.024142731130756802
0.9620896341380893   -0.01690522482867307   -0.024142731130756802
0.9620896341380893   -0.01690522482867307   -0.024142731130756802
0.9620896341380893   -0.01690522482867307   -0.024142731130756802
0.6707644135727483   -0.08603302410050875   -0.03800669553952497
0.6707644135727483   -0.08603302410050875   -0.03800669553952497
0.6707644135727483   -0.08603302410050875   -0.03800669553952497
0.6707644135727483   -0.08603302410050875   -0.03800669553952497
1.3956307935191559   0.1136381498633666   0.026268539121739716
1.3956307935191559   0.1136381498633666   0.026268539121739716
1.3956307935191559   0.1136381498633666   0.026268539121739716
1.3956307935191559   0.1136381498633666   0.026268539121739716
1.373993429191041   0.07664601844181984   -0.01960347002368497
1.373993429191041   0.07664601844181984   -0.01960347002368497
1.373993429191041   0.07664601844181984   -0.01960347002368497
1.373993429191041   0.07664601844181984   -0.01960347002368497
0.6925408615452548   -0.011132219753717587   0.012876654552547065
0.6925408615452548   -0.011132219753717587   0.012876654552547065
0.6925408615452548   -0.011132219753717587   0.012876654552547065
0.6925408615452548   -0.011132219753717587   0.012876654552547065
1.0126617372144056   0.025306347710738475   0.016658979758335662
1.0126617372144056   0.025306347710738475   0.016658979758335662
1.0126617372144056   0.025306347710738475   0.016658979758335662
1.0126617372144056   0.025306347710738475   0.016658979758335662
0.6729149475533339   -0.06577167576094844   -0.030613459399821116
0.6729149475533339   -0.06577167576094844   -0.030613459399821116
0.6729149475533339   -0.06577167576094844   -0.030613459399821116
0.6729149475533339   -0.06577167576094844   -0.030613459399821116
1.391994330682303   0.12966046194839356   0.017386593926050804
1.391994330682303   0.12966046194839356   0.017386593926050804
1.391994330682303   0.12966046194839356   0.017386593926050804
1.391994330682303   0.12966046194839356   0.017386593926050804
1.3719152479800298   0.1175021346796857   -0.029967834739247377
1.3719152479800298   0.1175021346796857   -0.029967834739247377
1.3719152479800298   0.1175021346796857   -0.029967834739247377
1.3719152479800298   0.1175021346796857   -0.029967834739247377
0.6783810091842403   0.024760184719255035   0.007187778340849819
0.6783810091842403   0.024760184719255035   0.007187778340849819
0.6783810091842403   0.024760184719255035   0.007187778340849819
0.6783810091842403   0.024760184719255035   0.007187778340849819
0.9869205808670675   0.04442554306210564   0.012409565057956894
0.9869205808670675   0.04442554306210564   0.012409565057956894
0.9869205808670675   0.04442554306210564   0.012409565057956894
0.9869205808670675   0.04442554306210564   0.012409565057956894
-1.475040673039345   -0.06689360147160711   0.0761160257243426
-1.475040673039345   -0.06689360147160711   0.0761160257243426
-1.475040673039345   -0.06689360147160711   0.0761160257243426
-1.475040673039345   -0.06689360147160711   0.0761160257243426
-0.979881781072591   -0.03734569500388185   -0.01980556691490467
-0.979881781072591   -0.03734569500388185   -0.01980556691490467
-0.979881781072591   -0.03734569500388185   -0.01980556691490467
-0.979881781072591   -0.03734569500388185   -0.01980556691490467
-0.9444465303885461   0.07945718079922792   0.06383971770143372
-0.9444465303885461   0.07945718079922792   0.06383971770143372
-0.9444465303885461   0.07945718079922792   0.06383971770143372
-0.9444465303885461   0.07945718079922792   0.06383971770143372
-1.4817968608311562   -0.10583179751403671   -0.031022453504210984
-1.4817968608311562   -0.10583179751403671   -0.031022453504210984
-1.4817968608311562   -0.10583179751403671   -0.031022453504210984
-1.4817968608311562   -0.10583179751403671   -0.031022453504210984
-1.1707603575274108   -0.018099908678911508   -0.0022418091397971643
-1.1707603575274108   -0.018099908678911508   -0.0022418091397971643
-1.1707603575274108   -0.018099908678911508   -0.0022418091397971643
-1.1707603575274108   -0.018099908678911508   -0.0022418091397971643
-1.440467090508024   -0.015463295537893051   0.08525789613530667
-1.440467090508024   -0.015463295537893051   0.08525789613530667
-1.440467090508024   -0.015463295537893051   0.08525789613530667
-1.440467090508024   -0.015463295537893051   0.08525789613530667
-0.9792686837853319   -0.004403704250569185   -0.026410164232697736
-0.9792686837853319   -0.004403704250569185   -0.026410164232697736
-0.9792686837853319   -0.004403704250569185   -0.026410164232697736
-0.9792686837853319   -0.004403704250569185   -0.026410164232697736
-0.9405449086560411   0.09856981273759302   0.05915998482782581
-0.9405449086560411   0.09856981273759302   0.05915998482782581
-0.9405449086560411   0.09856981273759302   0.05915998482782581
-0.9405449086560411   0.09856981273759302   0.05915998482782581
-1.4587426277450872   -0.08850150790613118   -0.042461861949133865
-1.4587426277450872   -0.08850150790613118   -0.042461861949133865
-1.4587426277450872   -0.08850150790613118   -0.042461861949133865
-1.4587426277450872   -0.08850150790613118   -0.042461861949133865
-1.173165962285461   0.0043543799050910215   0.013481638092816634
-1.173165962285461   0.0043543799050910215   0.013481638092816634
-1.173165962285461   0.0043543799050910215   0.013481638092816634
-1.173165962285461   0.0043543799050910215   0.013481638092816634
-1.4202609323793938   0.002569693684998209   0.05887541328820434
-1.4202609323793938   0.002569693684998209   0.05887541328820434
-1.4202609323793938   0.002569693684998209   0.05887541328820434
-1.4202609323793938   0.002569693684998209   0.05887541328820434
-0.9768824480471845   0.009642767121015083   -0.03360066651130502
-0.9768824480471845   0.009642767121015083   -0.03360066651130502
-0.9768824480471845   0.009642767121015083   -0.03360066651130502
-0.9768824480471845   0.009642767121015083   -0.03360066651130502
-0.9414100428120955   0.11130735099352776   0.046942529034151886
-0.9414100428120955   0.11130735099352776   0.046942529034151886
-0.9414100428120955   0.11130735099352776   0.046942529034151886
-0.9414100428120955   0.11130735099352776   0.046942529034151886
-1.428845788695865   -0.0700605519537722   -0.05413636814755805
-1.428845788695865   -0.0700605519537722   -0.05413636814755805
-1.428845788695865   -0.0700605519537722   -0.05413636814755805
-1.428845788695865   -0.0700605519537722   -0.05413636814755805
-1.1393751832127266   0.024474761752151047   0.028123351030968732
-1.1393751832127266   0.024474761752151047   0.028123351030968732
-1.1393751832127266   0.024474761752151047   0.028123351030968732
-1.1393751832127266   0.024474761752151047   0.028123351030968732
-0.9827513402021748   -0.09315531428797351   0.0216562567212677
-0.9827513402021748   -0.09315531428797351   0.0216562567212677
-0.9827513402021748   -0.09315531428797351   0.0216562567212677
-0.9827513402021748   -0.09315531428797351   0.0216562567212677
-0.49656087868065435   -0.01802130143035452   0.0009390413775444174
-0.49656087868065435   -0.01802130143035452   0.0009390413775444174
-0.49656087868065435   -0.01802130143035452   0.0009390413775444174
-0.49656087868065435   -0.01802130143035452   0.0009390413775444174
-0.4824209704980492   0.04876946517093847   0.03468857290349185
-0.4824209704980492   0.04876946517093847   0.03468857290349185
-0.4824209704980492   0.04876946517093847   0.03468857290349185
-0.4824209704980492   0.04876946517093847   0.03468857290349185
-0.9983604416142003   -0.09186708133763247   -0.03440557628997666
-0.9983604416142003   -0.09186708133763247   -0.03440557628997666
-0.9983604416142003   -0.09186708133763247   -0.03440557628997666
-0.9983604416142003   -0.09186708133763247   -0.03440557628997666
-0.7374043055035487   -0.0361869101929401   -0.014981635536659939
-0.7374043055035487   -0.0361869101929401   -0.014981635536659939
-0.7374043055035487   -0.0361869101929401   -0.014981635536659939
-0.7374043055035487   -0.0361869101929401   -0.014981635536659939
-0.9795979699037068   -0.053413090921600626   0.02095279184645392
-0.9795979699037068   -0.053413090921600626   0.02095279184645392
-0.9795979699037068   -0.053413090921600626   0.02095279184645392
-0.9795979699037068   -0.053413090921600626   0.02095279184645392
-0.49738439178022015   0.01411452518323042   -0.005473593519650294
-0.49738439178022015   0.01411452518323042   -0.005473593519650294
-0.49738439178022015   0.01411452518323042   -0.005473593519650294
-0.49738439178022015   0.01411452518323042   -0.005473593519650294
-0.4808455394186425   0.08064521485719094   0.03000412017789672
-0.4808455394186425   0.08064521485719094   0.03000412017789672
-0.4808455394186425   0.08064521485719094   0.03000412017789672
-0.4808455394186425   0.08064521485719094   0.03000412017789672
-0.9926410302879807   -0.062122431592637584   -0.04062837900164115
-0.9926410302879807   -0.062122431592637584   -0.04062837900164115
-0.9926410302879807   -0.062122431592637584   -0.04062837900164115
-0.9926410302879807   -0.062122431592637584   -0.04062837900164115
-0.7293023711892588   -0.003950081893383306   -7.559224291119743e-05
-0.7293023711892588   -0.003950081893383306   -7.559224291119743e-05
-0.7293023711892588   -0.003950081893383306   -7.559224291119743e-05
-0.7293023711892588   -0.003950081893383306   -7.559224291119743e-05
-0.973496362937026   -0.02107605720830527   0.014048583368799175
-0.973496362937026   -0.02107605720830527   0.014048583368799175
-0.973496362937026   -0.02107605720830527   0.014048583368799175
-0.973496362937026   -0.02107605720830527   0.014048583368799175
-0.4968970016195444   0.04269204562291189   -0.012300021592330027
-0.4968970016195444   0.04269204562291189   -0.012300021592330027
-0.4968970016195444   0.04269204562291189   -0.012300021592330027
-0.4968970016195444   0.04269204562291189   -0.012300021592330027
-0.48065671768098484   0.11414946315576399   0.022476050713405166
-0.48065671768098484   0.11414946315576399   0.022476050713405166
-0.48065671768098484   0.11414946315576399   0.022476050713405166
-0.48065671768098484   0.11414946315576399   0.022476050713405166
-0.9878064533071109   -0.03001512621658972   -0.043717046230812004
-0.9878064533071109   -0.03001512621658972   -0.043717046230812004
-0.9878064533071109   -0.03001512621658972   -0.043717046230812004
-0.9878064533071109   -0.03001512621658972   -0.043717046230812004
-0.7297199672929828   0.025627379035606412   0.011324149992238151
-0.7297199672929828   0.025627379035606412   0.011324149992238151
-0.7297199672929828   0.025627379035606412   0.011324149992238151
-0.7297199672929828   0.025627379035606412   0.011324149992238151
-0.515035280164492   -0.10655507117334803   -0.002899196298654005
-0.515035280164492   -0.10655507117334803   -0.002899196298654005
-0.515035280164492   -0.10655507117334803   -0.002899196298654005
-0.515035280164492   -0.10655507117334803   -0.002899196298654005
-0.017696736459326762   0.0051826548494501405   0.021991102187564573
-0.017696736459326762   0.0051826548494501405   0.021991102187564573
-0.017696736459326762   0.0051826548494501405   0.021991102187564573
-0.017696736459326762   0.0051826548494501405   0.021991102187564573
-0.019534975610487226   0.031396577293164696   0.01051566315739694
-0.019534975610487226   0.031396577293164696   0.01051566315739694
-0.019534975610487226   0.031396577293164696   0.01051566315739694
-0.019534975610487226   0.031396577293164696   0.01051566315739694
-0.5153346100483127   -0.06824892922248074   -0.012861230454412512
-0.5153346100483127   -0.06824892922248074   -0.012861230454412512
-0.5153346100483127   -0.06824892922248074   -0.012861230454412512
-0.5153346100483127   -0.06824892922248074   -0.012861230454412512
-0.26772127687334996   -0.03343129814407192   -0.00839423461557847
-0.26772127687334996   -0.03343129814407192   -0.00839423461557847
-0.26772127687334996   -0.03343129814407192   -0.00839423461557847
-0.26772127687334996   -0.03343129814407192   -0.00839423461557847
-0.5147793576604921   -0.07118517607989369   -0.007148721657890118
-0.5147793576604921   -0.07118517607989369   -0.007148721657890118
-0.5147793576604921   -0.07118517607989369   -0.007148721657890118
-0.5147793576604921   -0.07118517607989369   -0.007148721657890118
-0.01725887311855982   0.03716417903032673   0.01612857387987194
-0.01725887311855982   0.03716417903032673   0.01612857387987194
-0.01725887311855982   0.03716417903032673   0.01612857387987194
-0.01725887311855982   0.03716417903032673   0.01612857387987194
-0.01713764995763756   0.06612076449585522   0.0050320096726776346
-0.01713764995763756   0.06612076449585522   0.0050320096726776346
-0.01713764995763756   0.06612076449585522   0.0050320096726776346
-0.01713764995763756   0.06612076449585522   0.0050320096726776346
-0.5139894972736475   -0.03621077882079615   -0.01885967541914109
-0.5139894972736475   -0.03621077882079615   -0.01885967541914109
-0.5139894972736475   -0.03621077882079615   -0.01885967541914109
-0.5139894972736475   -0.03621077882079615   -0.01885967541914109
-0.2650749828615319   -0.0013291708155456217   0.003651888436039561
-0.2650749828615319   -0.0013291708155456217   0.003651888436039561
-0.2650749828615319   -0.0013291708155456217   0.003651888436039561
-0.2650749828615319   -0.0013291708155456217   0.003651888436039561
-0.5132172865364844   -0.03695287072106164   -0.01425652983305985
-0.5132172865364844   -0.03695287072106164   -0.01425652983305985
-0.5132172865364844   -0.03695287072106164   -0.01425652983305985
-0.5132172865364844   -0.03695287072106164   -0.01425652983305985
-0.015572298329984406   0.06920041876093701   0.00977911354586162
-0.015572298329984406   0.06920041876093701   0.00977911354586162
-0.015572298329984406   0.06920041876093701   0.00977911354586162
-0.015572298329984406   0.06920041876093701   0.00977911354586162
-0.016589814284615735   0.10188030874566475   -0.0008178674812743363
-0.016589814284615735   0.10188030874566475   -0.0008178674812743363
-0.016589814284615735   0.10188030874566475   -0.0008178674812743363
-0.016589814284615735   0.10188030874566475   -0.0008178674812743363
-0.5136925001613839   -0.0036298900896195863   -0.024923508443204224
-0.5136925001613839   -0.0036298900896195863   -0.024923508443204224
-0.5136925001613839   -0.0036298900896195863   -0.024923508443204224
-0.5136925001613839   -0.0036298900896195863   -0.024923508443204224
-0.26300896164837373   0.03080368403183347   0.014699275904816182
-0.26300896164837373   0.03080368403183347   0.014699275904816182
-0.26300896164837373   0.03080368403183347   0.014699275904816182
-0.26300896164837373   0.03080368403183347   0.014699275904816182
-0.05158495029254538   -0.11674472074285842   -0.025522591386219696
-0.05158495029254538   -0.11674472074285842   -0.025522591386219696
-0.05158495029254538   -0.11674472074285842   -0.025522591386219696
-0.05158495029254538   -0.11674472074285842   -0.025522591386219696
0.45928648285605905   0.03233196937141429   0.04181368652675092
0.45928648285605905   0.03233196937141429   0.04181368652675092
0.45928648285605905   0.03233196937141429   0.04181368652675092
0.45928648285605905   0.03233196937141429   0.04181368652675092
0.4442503533087076   0.017095891350026787   -0.016532375063096256
0.4442503533087076   0.017095891350026787   -0.016532375063096256
0.4442503533087076   0.017095891350026787   -0.016532375063096256
0.4442503533087076   0.017095891350026787   -0.016532375063096256
-0.03465040875752953   -0.042690635035569906   0.00902570975092001
-0.03465040875752953   -0.042690635035569906   0.00902570975092001
-0.03465040875752953   -0.042690635035569906   0.00902570975092001
-0.03465040875752953   -0.042690635035569906   0.00902570975092001
0.20142793275714144   -0.027078326567755703   -0.004745763542140017
0.20142793275714144   -0.027078326567755703   -0.004745763542140017
0.20142793275714144   -0.027078326567755703   -0.004745763542140017
0.20142793275714144   -0.027078326567755703   -0.004745763542140017
-0.05135611453790534   -0.08513134836998527   -0.03206210581654363
-0.05135611453790534   -0.08513134836998527   -0.03206210581654363
-0.05135611453790534   -0.08513134836998527   -0.03206210581654363
-0.05135611453790534   -0.08513134836998527   -0.03206210581654363
0.4641765811602284   0.0627571267555866   0.03743752878894453
0.4641765811602284   0.0627571267555866   0.03743752878894453
0.4641765811602284   0.0627571267555866   0.03743752878894453
0.4641765811602284   0.0627571267555866   0.03743752878894453
0.4515072641525519   0.04940441771893292   -0.023222737431463043
0.4515072641525519   0.04940441771893292   -0.023222737431463043
0.4515072641525519   0.04940441771893292   -0.023222737431463043
0.4515072641525519   0.04940441771893292   -0.023222737431463043
-0.033640650487600246   -0.013984675901065363   0.00262244741978505
-0.033640650487600246   -0.013984675901065363   0.00262244741978505
-0.033640650487600246   -0.013984675901065363   0.00262244741978505
-0.033640650487600246   -0.013984675901065363   0.00262244741978505
0.20325782751389188   0.001972023076813309   0.007227225066183687
0.20325782751389188   0.001972023076813309   0.007227225066183687
0.20325782751389188   0.001972023076813309   0.007227225066183687
0.20325782751389188   0.001972023076813309   0.007227225066183687
-0.049889242545595916   -0.05395947824054656   -0.03864571053071264
-0.049889242545595916   -0.05395947824054656   -0.03864571053071264
-0.049889242545595916   -0.05395947824054656   -0.03864571053071264
-0.049889242545595916   -0.05395947824054656   -0.03864571053071264
0.47126577576865153   0.09288913961651865   0.03208509875144565
0.47126577576865153   0.09288913961651865   0.03208509875144565
0.47126577576865153   0.09288913961651865   0.03208509875144565
0.47126577576865153   0.09288913961651865   0.03208509875144565
0.4559987550123187   0.08990697060730793   -0.024259315315923912
0.4559987550123187   0.08990697060730793   -0.024259315315923912
0.4559987550123187   0.08990697060730793   -0.024259315315923912
0.4559987550123187   0.08990697060730793   -0.024259315315923912
-0.03364533680458679   0.019550338804818046   -0.003765510140282648
-0.03364533680458679   0.019550338804818046   -0.003765510140282648
-0.03364533680458679   0.019550338804818046   -0.003765510140282648
-0.03364533680458679   0.019550338804818046   -0.003765510140282648
0.2103524994736951   0.034353753084071105   0.021440360664180553
0.2103524994736951   0.034353753084071105   0.021440360664180553
0.2103524994736951   0.034353753084071105   0.021440360664180553
0.2103524994736951   0.034353753084071105   0.021440360664180553
0.4113218347538795   -0.11595027297388481   -0.049727311638844196
0.4113218347538795   -0.11595027297388481   -0.049727311638844196
0.4113218347538795   -0.11595027297388481   -0.049727311638844196
0.4113218347538795   -0.11595027297388481   -0.049727311638844196
0.9048343217173959   0.06723393383712314   0.04655564441444925
0.9048343217173959   0.06723393383712314   0.04655564441444925
0.9048343217173959   0.06723393383712314   0.04655564441444925
0.9048343217173959   0.06723393383712314   0.04655564441444925
0.8977945652585294   -0.00442120512662314   -0.06619200756758625
0.8977945652585294   -0.00442120512662314   -0.06619200756758625
0.8977945652585294   -0.00442120512662314   -0.06619200756758625
0.8977945652585294   -0.00442120512662314   -0.06619200756758625
0.4484695632459606   -0.009603618964377184   0.03126318493757294
0.4484695632459606   -0.009603618964377184   0.03126318493757294
0.4484695632459606   -0.009603618964377184   0.03126318493757294
0.4484695632459606   -0.009603618964377184   0.03126318493757294
0.6332927990456559   -0.02265977558045379   -0.020808931409823032
0.6332927990456559   -0.02265977558045379   -0.020808931409823032
0.6332927990456559   -0.02265977558045379   -0.020808931409823032
0.6332927990456559   -0.02265977558045379   -0.020808931409823032
0.41177883603742016   -0.10062063622602387   -0.06117343384348074
0.41177883603742016   -0.10062063622602387   -0.06117343384348074
0.41177883603742016   -0.10062063622602387   -0.06117343384348074
0.41177883603742016   -0.10062063622602387   -0.06117343384348074
0.9371200705165885   0.08923059018454263   0.036783723411544046
0.9371200705165885   0.08923059018454263   0.036783723411544046
0.9371200705165885   0.08923059018454263   0.036783723411544046
0.9371200705165885   0.08923059018454263   0.036783723411544046
0.9199148544364295   0.014007075188034318   -0.088800863629872
0.9199148544364295   0.014007075188034318   -0.088800863629872
0.9199148544364295   0.014007075188034318   -0.088800863629872
0.9199148544364295   0.014007075188034318   -0.088800863629872
0.45182338355929513   0.004455677836291513   0.023306599484898865
0.45182338355929513   0.004455677836291513   0.023306599484898865
0.45182338355929513   0.004455677836291513   0.023306599484898865
0.45182338355929513   0.004455677836291513   0.023306599484898865
0.662041528132641   -0.0027297230198199685   -0.006330574591164512
0.662041528132641   -0.0027297230198199685   -0.006330574591164512
0.662041528132641   -0.0027297230198199685   -0.006330574591164512
0.662041528132641   -0.0027297230198199685   -0.006330574591164512
0.41650764693530695   -0.08223122895497227   -0.06658517684378229
0.41650764693530695   -0.08223122895497227   -0.06658517684378229
0.41650764693530695   -0.08223122895497227   -0.06658517684378229
0.41650764693530695   -0.08223122895497227   -0.06658517684378229
0.96105196587059   0.10651535678947109   0.024376411939501793
0.96105196587059   0.10651535678947109   0.024376411939501793
0.96105196587059   0.10651535678947109   0.024376411939501793
0.96105196587059   0.10651535678947109   0.024376411939501793
0.9550329713048366   0.06194319521602096   -0.08354913129591698
0.9550329713048366   0.06194319521602096   -0.08354913129591698
0.9550329713048366   0.06194319521602096   -0.08354913129591698
0.9550329713048366   0.06194319521602096   -0.08354913129591698
0.45337242357993635   0.035489498115897425   0.017026500013578364
0.45337242357993635   0.035489498115897425   0.017026500013578364
0.45337242357993635   0.035489498115897425   0.017026500013578364
0.45337242357993635   0.035489498115897425   0.017026500013578364
0.667027897129854   0.02004891218570165   0.009700900907693988
0.667027897129854   0.02004891218570165   0.009700900907693988
0.667027897129854   0.02004891218570165   0.009700900907693988
0.667027897129854   0.02004891218570165   0.009700900907693988
-1.053595476184457   -0.03434425422675716   0.06891533208258477
-1.053595476184457   -0.03434425422675716   0.06891533208258477
-1.053595476184457   -0.03434425422675716   0.06891533208258477
-1.053595476184457   -0.03434425422675716   0.06891533208258477
-0.7374867272729664   -0.04934539065486036   -0.02600893802604894
-0.7374867272729664   -0.04934539065486036   -0.02600893802604894
-0.7374867272729664   -0.04934539065486036   -0.02600893802604894
-0.7374867272729664   -0.04934539065486036   -0.02600893802604894
-0.6940966354915101   0.06966339426578363   0.058753280055244606
-0.6940966354915101   0.06966339426578363   0.058753280055244606
-0.6940966354915101   0.06966339426578363   0.058753280055244606
-0.6940966354915101   0.06966339426578363   0.058753280055244606
-1.0536738020772054   -0.08674918882561725   -0.03804906401270235
-1.0536738020772054   -0.08674918882561725   -0.03804906401270235
-1.0536738020772054   -0.08674918882561725   -0.03804906401270235
-1.0536738020772054   -0.08674918882561725   -0.03804906401270235
-0.8484861749319949   -0.013504133467177132   -0.0019363643869703406
-0.8484861749319949   -0.013504133467177132   -0.0019363643869703406
-0.8484861749319949   -0.013504133467177132   -0.0019363643869703406
-0.8484861749319949   -0.013504133467177132   -0.0019363643869703406
-1.0142048820844498   0.007000298634365382   0.06554604849109294
-1.0142048820844498   0.007000298634365382   0.06554604849109294
-1.0142048820844498   0.007000298634365382   0.06554604849109294
-1.0142048820844498   0.007000298634365382   0.06554604849109294
-0.7303528764669539   -0.020873414176886596   -0.0319911163793004
-0.7303528764669539   -0.020873414176886596   -0.0319911163793004
-0.7303528764669539   -0.020873414176886596   -0.0319911163793004
-0.7303528764669539   -0.020873414176886596   -0.0319911163793004
-0.6875568579621221   0.08415688207989605   0.04964431819803728
-0.6875568579621221   0.08415688207989605   0.04964431819803728
-0.6875568579621221   0.08415688207989605   0.04964431819803728
-0.6875568579621221   0.08415688207989605   0.04964431819803728
-1.0286961165494735   -0.07059184867810783   -0.04809029872063551
-1.0286961165494735   -0.07059184867810783   -0.04809029872063551
-1.0286961165494735   -0.07059184867810783   -0.04809029872063551
-1.0286961165494735   -0.07059184867810783   -0.04809029872063551
-0.8425270570241338   0.00560825028891257   0.00886075817698296
-0.8425270570241338   0.00560825028891257   0.00886075817698296
-0.8425270570241338   0.00560825028891257   0.00886075817698296
-0.8425270570241338   0.00560825028891257   0.00886075817698296
-0.98957068285106   0.02434521473430465   0.05259980635901829
-0.98957068285106   0.02434521473430465   0.05259980635901829
-0.98957068285106   0.02434521473430465   0.05259980635901829
-0.98957068285106   0.02434521473430465   0.05259980635901829
-0.7237792914719158   -0.007877181143895629   -0.03943378612713208
-0.7237792914719158   -0.007877181143895629   -0.03943378612713208
-0.7237792914719158   -0.007877181143895629   -0.03943378612713208
-0.7237792914719158   -0.007877181143895629   -0.03943378612713208
-0.6839370655915987   0.09829212250803415   0.04271828105721523
-0.6839370655915987   0.09829212250803415   0.04271828105721523
-0.6839370655915987   0.09829212250803415   0.04271828105721523
-0.6839370655915987   0.09829212250803415   0.04271828105721523
-0.99525317236706   -0.04922068731434792   -0.05757167122184159
-0.99525317236706   -0.04922068731434792   -0.05757167122184159
-0.99525317236706   -0.04922068731434792   -0.05757167122184159
-0.99525317236706   -0.04922068731434792   -0.05757167122184159
-0.8108912933165381   0.023524835323290333   0.023996628264895258
-0.8108912933165381   0.023524835323290333   0.023996628264895258
-0.8108912933165381   0.023524835323290333   0.023996628264895258
-0.8108912933165381   0.023524835323290333   0.023996628264895258
-0.7291445699490215   -0.059545463643145544   0.025901921581956495
-0.7291445699490215   -0.059545463643145544   0.025901921581956495
-0.7291445699490215   -0.059545463643145544   0.025901921581956495
-0.7291445699490215   -0.059545463643145544   0.025901921581956495
-0.42310042795037817   -0.0319729732096444   -0.004199008303207866
-0.42310042795037817   -0.0319729732096444   -0.004199008303207866
-0.42310042795037817   -0.0319729732096444   -0.004199008303207866
-0.42310042795037817   -0.0319729732096444   -0.004199008303207866
-0.401595239530428   0.04070245857901146   0.031676921209462874
-0.401595239530428   0.04070245857901146   0.031676921209462874
-0.401595239530428   0.04070245857901146   0.031676921209462874
-0.401595239530428   0.04070245857901146   0.031676921209462874
-0.7401255705033396   -0.07088364349747231   -0.03084435724064636
-0.7401255705033396   -0.07088364349747231   -0.03084435724064636
-0.7401255705033396   -0.07088364349747231   -0.03084435724064636
-0.7401255705033396   -0.07088364349747231   -0.03084435724064636
-0.5711935263748128   -0.02783261716721118   -0.01169043225336645
-0.5711935263748128   -0.02783261716721118   -0.01169043225336645
-0.5711935263748128   -0.02783261716721118   -0.01169043225336645
-0.5711935263748128   -0.02783261716721118   -0.01169043225336645
-0.720585957168104   -0.025197546669005755   0.02116761260706053
-0.720585957168104   -0.025197546669005755   0.02116761260706053
-0.720585957168104   -0.025197546669005755   0.02116761260706053
-0.720585957168104   -0.025197546669005755   0.02116761260706053
-0.4186280314041873   -0.0024768167879808123   -0.010307762792341059
-0.4186280314041873   -0.0024768167879808123   -0.010307762792341059
-0.4186280314041873   -0.0024768167879808123   -0.010307762792341059
-0.4186280314041873   -0.0024768167879808123   -0.010307762792341059
-0.3964885147450008   0.07042737779837087   0.025968152410421275
-0.3964885147450008   0.07042737779837087   0.025968152410421275
-0.3964885147450008   0.07042737779837087   0.025968152410421275
-0.3964885147450008   0.07042737779837087   0.025968152410421275
-0.7301541825017768   -0.042840606391210775   -0.03634481602912981
-0.7301541825017768   -0.042840606391210775   -0.03634481602912981
-0.7301541825017768   -0.042840606391210775   -0.03634481602912981
-0.7301541825017768   -0.042840606391210775   -0.03634481602912981
-0.5602231609606214   0.0013735802202979042   0.0008571589376298872
-0.5602231609606214   0.0013735802202979042   0.0008571589376298872
-0.5602231609606214   0.0013735802202979042   0.0008571589376298872
-0.5602231609606214   0.0013735802202979042   0.0008571589376298872
-0.7091360200365612   0.006571103532601791   0.019334286373136278
-0.7091360200365612   0.006571103532601791   0.019334286373136278
-0.7091360200365612   0.006571103532601791   0.019334286373136278
-0.7091360200365612   0.006571103532601791   0.019334286373136278
-0.4143936686887347   0.024128676396043477   -0.017258915905916095
-0.4143936686887347   0.024128676396043477   -0.017258915905916095
-0.4143936686887347   0.024128676396043477   -0.017258915905916095
-0.4143936686887347   0.024128676396043477   -0.017258915905916095
-0.39155413854370213   0.10210913996032002   0.020651969890320046
-0.39155413854370213   0.10210913996032002   0.020651969890320046
-0.39155413854370213   0.10210913996032002   0.020651969890320046
-0.39155413854370213   0.10210913996032002   0.020651969890320046
-0.7226940673935686   -0.012611083634932574   -0.0401635218096704
-0.7226940673935686   -0.012611083634932574   -0.0401635218096704
-0.7226940673935686   -0.012611083634932574   -0.0401635218096704
-0.7226940673935686   -0.012611083634932574   -0.0401635218096704
-0.5559687819090647   0.028867337604587054   0.012810201563466517
-0.5559687819090647   0.028867337604587054   0.012810201563466517
-0.5559687819090647   0.028867337604587054   0.012810201563466517
-0.5559687819090647   0.028867337604587054   0.012810201563466517
-0.43202357430213245   -0.08186539650912336   0.0010776832374950285
-0.43202357430213245   -0.08186539650912336   0.0010776832374950285
-0.43202357430213245   -0.08186539650912336   0.0010776832374950285
-0.43202357430213245   -0.08186539650912336   0.0010776832374950285
-0.11193030506200986   -0.009623102542829148   0.01760770898934907
-0.11193030506200986   -0.009623102542829148   0.01760770898934907
-0.11193030506200986   -0.009623102542829148   0.01760770898934907
-0.11193030506200986   -0.009623102542829148   0.01760770898934907
-0.1091965668088311   0.016751923485263363   0.00600498984482635
-0.1091965668088311   0.016751923485263363   0.00600498984482635
-0.1091965668088311   0.016751923485263363   0.00600498984482635
-0.1091965668088311   0.016751923485263363   0.00600498984482635
-0.4272861291003206   -0.047861261808103295   -0.008213806252888128
-0.4272861291003206   -0.047861261808103295   -0.008213806252888128
-0.4272861291003206   -0.047861261808103295   -0.008213806252888128
-0.4272861291003206   -0.047861261808103295   -0.008213806252888128
-0.27057113264685106   -0.029337767819876556   -0.008312255949802849
-0.27057113264685106   -0.029337767819876556   -0.008312255949802849
-0.27057113264685106   -0.029337767819876556   -0.008312255949802849
-0.27057113264685106   -0.029337767819876556   -0.008312255949802849
-0.4265871786874105   -0.048702716715588276   -0.003877599280852493
-0.4265871786874105   -0.048702716715588276   -0.003877599280852493
-0.4265871786874105   -0.048702716715588276   -0.003877599280852493
-0.4265871786874105   -0.048702716715588276   -0.003877599280852493
-0.107382318298772   0.020106577315717578   0.011721578564667646
-0.107382318298772   0.020106577315717578   0.011721578564667646
-0.107382318298772   0.020106577315717578   0.011721578564667646
-0.107382318298772   0.020106577315717578   0.011721578564667646
-0.10302920646326139   0.050064113235502646   0.0015544940519668093
-0.10302920646326139   0.050064113235502646   0.0015544940519668093
-0.10302920646326139   0.050064113235502646   0.0015544940519668093
-0.10302920646326139   0.050064113235502646   0.0015544940519668093
-0.42217365427172704   -0.01792386951382198   -0.014106297911017245
-0.42217365427172704   -0.01792386951382198   -0.014106297911017245
-0.42217365427172704   -0.01792386951382198   -0.014106297911017245
-0.42217365427172704   -0.01792386951382198   -0.014106297911017245
-0.26398338487107864   0.0005934462905280435   0.003515294488777375
-0.26398338487107864   0.0005934462905280435   0.003515294488777375
-0.26398338487107864   0.0005934462905280435   0.003515294488777375
-0.26398338487107864   0.0005934462905280435   0.003515294488777375
-0.420602904950633   -0.015497341196865688   -0.008679079622503263
-0.420602904950633   -0.015497341196865688   -0.008679079622503263
-0.420602904950633   -0.015497341196865688   -0.008679079622503263
-0.420602904950633   -0.015497341196865688   -0.008679079622503263
-0.10227946426973167   0.049958076433170115   0.0054092418219478765
-0.10227946426973167   0.049958076433170115   0.0054092418219478765
-0.10227946426973167   0.049958076433170115   0.0054092418219478765
-0.10227946426973167   0.049958076433170115   0.0054092418219478765
-0.09749535448307534   0.0838595046325981   -0.0036736805104243438
-0.09749535448307534   0.0838595046325981   -0.0036736805104243438
-0.09749535448307534   0.0838595046325981   -0.0036736805104243438
-0.09749535448307534   0.0838595046325981   -0.0036736805104243438
-0.41768880463272673   0.012359548149534563   -0.020271768744016285
-0.41768880463272673   0.012359548149534563   -0.020271768744016285
-0.41768880463272673   0.012359548149534563   -0.020271768744016285
-0.41768880463272673   0.012359548149534563   -0.020271768744016285
-0.2579689577404912   0.03066824267767919   0.014910023918647864
-0.2579689577404912   0.03066824267767919   0.014910023918647864
-0.2579689577404912   0.03066824267767919   0.014910023918647864
-0.2579689577404912   0.03066824267767919   0.014910023918647864
-0.13819529205579512   -0.10016265718399017   -0.02317767133841716
-0.13819529205579512   -0.10016265718399017   -0.02317767133841716
-0.13819529205579512   -0.10016265718399017   -0.02317767133841716
-0.13819529205579512   -0.10016265718399017   -0.02317767133841716
0.19505797707075928   0.01543355528245259   0.038179119652411504
0.19505797707075928   0.01543355528245259   0.038179119652411504
0.19505797707075928   0.01543355528245259   0.038179119652411504
0.19505797707075928   0.01543355528245259   0.038179119652411504
0.1813842390901215   -0.005557790246216249   -0.0213447141499627
0.1813842390901215   -0.005557790246216249   -0.0213447141499627
0.1813842390901215   -0.005557790246216249   -0.0213447141499627
0.1813842390901215   -0.005557790246216249   -0.0213447141499627
-0.11556129528464722   -0.023227383751982557   0.014160654702990536
-0.11556129528464722   -0.023227383751982557   0.014160654702990536
-0.11556129528464722   -0.023227383751982557   0.014160654702990536
-0.11556129528464722   -0.023227383751982557   0.014160654702990536
0.02943957163577514   -0.02759052965260559   -0.005919330169666296
0.02943957163577514   -0.02759052965260559   -0.005919330169666296
0.02943957163577514   -0.02759052965260559   -0.005919330169666296
0.02943957163577514   -0.02759052965260559   -0.005919330169666296
-0.13344721678781268   -0.06996200492064514   -0.028534331644173006
-0.13344721678781268   -0.06996200492064514   -0.028534331644173006
-0.13344721678781268   -0.06996200492064514   -0.028534331644173006
-0.13344721678781268   -0.06996200492064514   -0.028534331644173006
0.2022607787105584   0.04416744903972055   0.03331274466628513
0.2022607787105584   0.04416744903972055   0.03331274466628513
0.2022607787105584   0.04416744903972055   0.03331274466628513
0.2022607787105584   0.04416744903972055   0.03331274466628513
0.19286329196451527   0.025954491901185046   -0.024185656021078413
0.19286329196451527   0.025954491901185046   -0.024185656021078413
0.19286329196451527   0.025954491901185046   -0.024185656021078413
0.19286329196451527   0.025954491901185046   -0.024185656021078413
-0.1111111120420205   0.0035454792006650478   0.007663600193007827
-0.1111111120420205   0.0035454792006650478   0.007663600193007827
-0.1111111120420205   0.0035454792006650478   0.007663600193007827
-0.1111111120420205   0.0035454792006650478   0.007663600193007827
0.03554804520506632   -0.00044464301758342754   0.006114654482283756
0.03554804520506632   -0.00044464301758342754   0.006114654482283756
0.03554804520506632   -0.00044464301758342754   0.006114654482283756
0.03554804520506632   -0.00044464301758342754   0.006114654482283756
-0.12837201597523676   -0.040395438780859376   -0.03470000149154851
-0.12837201597523676   -0.040395438780859376   -0.03470000149154851
-0.12837201597523676   -0.040395438780859376   -0.03470000149154851
-0.12837201597523676   -0.040395438780859376   -0.03470000149154851
0.21271798063858233   0.07248919462356036   0.02855308462688159
0.21271798063858233   0.07248919462356036   0.02855308462688159
0.21271798063858233   0.07248919462356036   0.02855308462688159
0.21271798063858233   0.07248919462356036   0.02855308462688159
0.20210855410687056   0.06186394199408665   -0.027951385105396943
0.20210855410687056   0.06186394199408665   -0.027951385105396943
0.20210855410687056   0.06186394199408665   -0.027951385105396943
0.20210855410687056   0.06186394199408665   -0.027951385105396943
-0.10635541485778113   0.03440257152578399   0.0014829507228607576
-0.10635541485778113   0.03440257152578399   0.0014829507228607576
-0.10635541485778113   0.03440257152578399   0.0014829507228607576
-0.10635541485778113   0.03440257152578399   0.0014829507228607576
0.044975499909386325   0.029075005199567495   0.0185728876001098
0.044975499909386325   0.029075005199567495   0.0185728876001098
0.044975499909386325   0.029075005199567495   0.0185728876001098
0.044975499909386325   0.029075005199567495   0.0185728876001098
0.15494102917420965   -0.10120855538665033   -0.04576350916123188
0.15494102917420965   -0.10120855538665033   -0.04576350916123188
0.15494102917420965   -0.10120855538665033   -0.04576350916123188
0.15494102917420965   -0.10120855538665033   -0.04576350916123188
0.46771866470816437   0.04615258518941388   0.049484892136671274
0.46771866470816437   0.04615258518941388   0.049484892136671274
0.46771866470816437   0.04615258518941388   0.049484892136671274
0.46771866470816437   0.04615258518941388   0.049484892136671274
0.46303234487583905   -0.02499375746893065   -0.060250289215072854
0.46303234487583905   -0.02499375746893065   -0.060250289215072854
0.46303234487583905   -0.02499375746893065   -0.060250289215072854
0.46303234487583905   -0.02499375746893065   -0.060250289215072854
0.19583692241316702   0.00842726212887155   0.03693365009017724
0.19583692241316702   0.00842726212887155   0.03693365009017724
0.19583692241316702   0.00842726212887155   0.03693365009017724
0.19583692241316702   0.00842726212887155   0.03693365009017724
0.30367742181647406   -0.02097096544257057   -0.016080978138675255
0.30367742181647406   -0.02097096544257057   -0.016080978138675255
0.30367742181647406   -0.02097096544257057   -0.016080978138675255
0.30367742181647406   -0.02097096544257057   -0.016080978138675255
0.15932210513392375   -0.08427365200811023   -0.052939522169055384
0.15932210513392375   -0.08427365200811023   -0.052939522169055384
0.15932210513392375   -0.08427365200811023   -0.052939522169055384
0.15932210513392375   -0.08427365200811023   -0.052939522169055384
0.502596267138695   0.070756261651664   0.04181930297861158
0.502596267138695   0.070756261651664   0.04181930297861158
0.502596267138695   0.070756261651664   0.04181930297861158
0.502596267138695   0.070756261651664   0.04181930297861158
0.4884092296591499   -0.0073431097917580485   -0.0722731847552038
0.4884092296591499   -0.0073431097917580485   -0.0722731847552038
0.4884092296591499   -0.0073431097917580485   -0.0722731847552038
0.4884092296591499   -0.0073431097917580485   -0.0722731847552038
0.2025424158555573   0.021357394206646754   0.02880706112867015
0.2025424158555573   0.021357394206646754   0.02880706112867015
0.2025424158555573   0.021357394206646754   0.02880706112867015
0.2025424158555573   0.021357394206646754   0.02880706112867015
0.32929285641061584   -0.003167565561626548   -0.001908822273154729
0.32929285641061584   -0.003167565561626548   -0.001908822273154729
0.32929285641061584   -0.003167565561626548   -0.001908822273154729
0.32929285641061584   -0.003167565561626548   -0.001908822273154729
0.16631163779328903   -0.06958823184091201   -0.06140120313511259
0.16631163779328903   -0.06958823184091201   -0.06140120313511259
0.16631163779328903   -0.06958823184091201   -0.06140120313511259
0.16631163779328903   -0.06958823184091201   -0.06140120313511259
0.5278184354968904   0.08678094403127283   0.030648790610467432
0.5278184354968904   0.08678094403127283   0.030648790610467432
0.5278184354968904   0.08678094403127283   0.030648790610467432
0.5278184354968904   0.08678094403127283   0.030648790610467432
0.5273864294944037   0.03141150620557202   -0.07737746545251603
0.5273864294944037   0.03141150620557202   -0.07737746545251603
0.5273864294944037   0.03141150620557202   -0.07737746545251603
0.5273864294944037   0.03141150620557202   -0.07737746545251603
0.20940396371674955   0.04749763551689981   0.022891969421182923
0.20940396371674955   0.04749763551689981   0.022891969421182923
0.20940396371674955   0.04749763551689981   0.022891969421182923
0.20940396371674955   0.04749763551689981   0.022891969421182923
0.3420992487717812   0.0164447140517981   0.01029608211761311
0.3420992487717812   0.0164447140517981   0.01029608211761311
0.3420992487717812   0.0164447140517981   0.01029608211761311
0.3420992487717812   0.0164447140517981   0.01029608211761311
-0.6309603861325738   -0.01048921190969028   0.06174561455940898
-0.6309603861325738   -0.01048921190969028   0.06174561455940898
-0.6309603861325738   -0.01048921190969028   0.06174561455940898
-0.6309603861325738   -0.01048921190969028   0.06174561455940898
-0.49254368360359924   -0.06258067064331158   -0.030518508130204798
-0.49254368360359924   -0.06258067064331158   -0.030518508130204798
-0.49254368360359924   -0.06258067064331158   -0.030518508130204798
-0.49254368360359924   -0.06258067064331158   -0.030518508130204798
-0.44582342198652486   0.05298881273698075   0.05279056370960718
-0.44582342198652486   0.05298881273698075   0.05279056370960718
-0.44582342198652486   0.05298881273698075   0.05279056370960718
-0.44582342198652486   0.05298881273698075   0.05279056370960718
-0.6283143271657277   -0.06845803725369992   -0.04155107063387117
-0.6283143271657277   -0.06845803725369992   -0.04155107063387117
-0.6283143271657277   -0.06845803725369992   -0.04155107063387117
-0.6283143271657277   -0.06845803725369992   -0.04155107063387117
-0.5284009140716336   -0.01452377126448881   -0.007838045057762956
-0.5284009140716336   -0.01452377126448881   -0.007838045057762956
-0.5284009140716336   -0.01452377126448881   -0.007838045057762956
-0.5284009140716336   -0.01452377126448881   -0.007838045057762956
-0.5894131510098914   0.025510090640590094   0.05898668225102045
-0.5894131510098914   0.025510090640590094   0.05898668225102045
-0.5894131510098914   0.025510090640590094   0.05898668225102045
-0.5894131510098914   0.025510090640590094   0.05898668225102045
-0.4820183915579869   -0.03827310857293502   -0.036922362837787506
-0.4820183915579869   -0.03827310857293502   -0.036922362837787506
-0.4820183915579869   -0.03827310857293502   -0.036922362837787506
-0.4820183915579869   -0.03827310857293502   -0.036922362837787506
-0.4347832663609181   0.06673779041581673   0.04464504656044745
-0.4347832663609181   0.06673779041581673   0.04464504656044745
-0.4347832663609181   0.06673779041581673   0.04464504656044745
-0.4347832663609181   0.06673779041581673   0.04464504656044745
-0.5994543232105499   -0.05287703952590517   -0.051904733221123586
-0.5994543232105499   -0.05287703952590517   -0.051904733221123586
-0.5994543232105499   -0.05287703952590517   -0.051904733221123586
-0.5994543232105499   -0.05287703952590517   -0.051904733221123586
-0.5133136933280387   0.0034685054566661877   0.0036490262870608227
-0.5133136933280387   0.0034685054566661877   0.0036490262870608227
-0.5133136933280387   0.0034685054566661877   0.0036490262870608227
-0.5133136933280387   0.0034685054566661877   0.0036490262870608227
-0.5605287054317285   0.04219079709915001   0.047655519047924276
-0.5605287054317285   0.04219079709915001   0.047655519047924276
-0.5605287054317285   0.04219079709915001   0.047655519047924276
-0.5605287054317285   0.04219079709915001   0.047655519047924276
-0.47114857675743027   -0.02576973882692926   -0.04467397617936372
-0.47114857675743027   -0.02576973882692926   -0.04467397617936372
-0.47114857675743027   -0.02576973882692926   -0.04467397617936372
-0.47114857675743027   -0.02576973882692926   -0.04467397617936372
-0.42584700295029215   0.08387552330683873   0.03850321246733913
-0.42584700295029215   0.08387552330683873   0.03850321246733913
-0.42584700295029215   0.08387552330683873   0.03850321246733913
-0.42584700295029215   0.08387552330683873   0.03850321246733913
-0.5606845575697217   -0.027929633218291658   -0.060064017999004696
-0.5606845575697217   -0.027929633218291658   -0.060064017999004696
-0.5606845575697217   -0.027929633218291658   -0.060064017999004696
-0.5606845575697217   -0.027929633218291658   -0.060064017999004696
-0.48287768269079545   0.021217280272849318   0.017894536665902627
-0.48287768269079545   0.021217280272849318   0.017894536665902627
-0.48287768269079545   0.021217280272849318   0.017894536665902627
-0.48287768269079545   0.021217280272849318   0.017894536665902627
-0.4752363866097208   -0.03572741836808019   0.0291647245639558
-0.4752363866097208   -0.03572741836808019   0.0291647245639558
-0.4752363866097208   -0.03572741836808019   0.0291647245639558
-0.4752363866097208   -0.03572741836808019   0.0291647245639558
-0.3492378668596139   -0.04744327178202143   -0.009033496018371133
-0.3492378668596139   -0.04744327178202143   -0.009033496018371133
-0.3492378668596139   -0.04744327178202143   -0.009033496018371133
-0.3492378668596139   -0.04744327178202143   -0.009033496018371133
-0.3232021342504952   0.024067671059338894   0.02698877929056539
-0.3232021342504952   0.024067671059338894   0.02698877929056539
-0.3232021342504952   0.024067671059338894   0.02698877929056539
-0.3232021342504952   0.024067671059338894   0.02698877929056539
-0.48229569822752405   -0.05052435652672786   -0.02605764823167263
-0.48229569822752405   -0.05052435652672786   -0.02605764823167263
-0.48229569822752405   -0.05052435652672786   -0.02605764823167263
-0.48229569822752405   -0.05052435652672786   -0.02605764823167263
-0.40637594443709923   -0.025241269861934854   -0.010965694455454561
-0.40637594443709923   -0.025241269861934854   -0.010965694455454561
-0.40637594443709923   -0.025241269861934854   -0.010965694455454561
-0.40637594443709923   -0.025241269861934854   -0.010965694455454561
-0.46287575147293725   -0.004301052033631819   0.024818781048153903
-0.46287575147293725   -0.004301052033631819   0.024818781048153903
-0.46287575147293725   -0.004301052033631819   0.024818781048153903
-0.46287575147293725   -0.004301052033631819   0.024818781048153903
-0.3404395225816708   -0.019973075010344683   -0.015157416295625335
-0.3404395225816708   -0.019973075010344683   -0.015157416295625335
-0.3404395225816708   -0.019973075010344683   -0.015157416295625335
-0.3404395225816708   -0.019973075010344683   -0.015157416295625335
-0.3136843388347683   0.05203915975400486   0.02158417102993986
-0.3136843388347683   0.05203915975400486   0.02158417102993986
-0.3136843388347683   0.05203915975400486   0.02158417102993986
-0.3136843388347683   0.05203915975400486   0.02158417102993986
-0.4680275136533436   -0.02364069495298675   -0.031197704532869172
-0.4680275136533436   -0.02364069495298675   -0.031197704532869172
-0.4680275136533436   -0.02364069495298675   -0.031197704532869172
-0.4680275136533436   -0.02364069495298675   -0.031197704532869172
-0.3926034758983022   0.0017197733221837458   0.0011096130512642972
-0.3926034758983022   0.0017197733221837458   0.0011096130512642972
-0.3926034758983022   0.0017197733221837458   0.0011096130512642972
-0.3926034758983022   0.0017197733221837458   0.0011096130512642972
-0.44746739814268893   0.025465124416598192   0.022497053650811668
-0.44746739814268893   0.025465124416598192   0.022497053650811668
-0.44746739814268893   0.025465124416598192   0.022497053650811668
-0.44746739814268893   0.025465124416598192   0.022497053650811668
-0.3317248426038876   0.005452952125953814   -0.022032140187606984
-0.3317248426038876   0.005452952125953814   -0.022032140187606984
-0.3317248426038876   0.005452952125953814   -0.022032140187606984
-0.3317248426038876   0.005452952125953814   -0.022032140187606984
-0.3041965048464079   0.08240842661781111   0.01643646690690278
-0.3041965048464079   0.08240842661781111   0.01643646690690278
-0.3041965048464079   0.08240842661781111   0.01643646690690278
-0.3041965048464079   0.08240842661781111   0.01643646690690278
-0.4562558377696548   0.005730035244826168   -0.035395473567457536
-0.4562558377696548   0.005730035244826168   -0.035395473567457536
-0.4562558377696548   0.005730035244826168   -0.035395473567457536
-0.4562558377696548   0.005730035244826168   -0.035395473567457536
-0.382646798997827   0.02815961196903921   0.012924217295490509
-0.382646798997827   0.02815961196903921   0.012924217295490509
-0.382646798997827   0.02815961196903921   0.012924217295490509
-0.382646798997827   0.02815961196903921   0.012924217295490509
-0.34880915683267705   -0.05948921518997931   0.005155997524265386
-0.34880915683267705   -0.05948921518997931   0.005155997524265386
-0.34880915683267705   -0.05948921518997931   0.005155997524265386
-0.34880915683267705   -0.05948921518997931   0.005155997524265386
-0.20784085466596605   -0.02507858153297957   0.012804114439505014
-0.20784085466596605   -0.02507858153297957   0.012804114439505014
-0.20784085466596605   -0.02507858153297957   0.012804114439505014
-0.20784085466596605   -0.02507858153297957   0.012804114439505014
-0.20076340580403587   -0.0005841812795487414   0.0016488730935999459
-0.20076340580403587   -0.0005841812795487414   0.0016488730935999459
-0.20076340580403587   -0.0005841812795487414   0.0016488730935999459
-0.20076340580403587   -0.0005841812795487414   0.0016488730935999459
-0.3394372623400939   -0.027112057783355438   -0.0030071323147339447
-0.3394372623400939   -0.027112057783355438   -0.0030071323147339447
-0.3394372623400939   -0.027112057783355438   -0.0030071323147339447
-0.3394372623400939   -0.027112057783355438   -0.0030071323147339447
-0.27464956497392434   -0.026752155715448978   -0.007988740622231861
-0.27464956497392434   -0.026752155715448978   -0.007988740622231861
-0.27464956497392434   -0.026752155715448978   -0.007988740622231861
-0.27464956497392434   -0.026752155715448978   -0.007988740622231861
-0.3390282681036866   -0.028484810117841472   0.00041059120178695355
-0.3390282681036866   -0.028484810117841472   0.00041059120178695355
-0.3390282681036866   -0.028484810117841472   0.00041059120178695355
-0.3390282681036866   -0.028484810117841472   0.00041059120178695355
-0.19900164012175778   0.0029593309736224635   0.006914189251819433
-0.19900164012175778   0.0029593309736224635   0.006914189251819433
-0.19900164012175778   0.0029593309736224635   0.006914189251819433
-0.19900164012175778   0.0029593309736224635   0.006914189251819433
-0.19042226322318434   0.030693878230644102   -0.00276895023722952
-0.19042226322318434   0.030693878230644102   -0.00276895023722952
-0.19042226322318434   0.030693878230644102   -0.00276895023722952
-0.19042226322318434   0.030693878230644102   -0.00276895023722952
-0.3299017282264887   0.0013263552065523737   -0.008789971381209509
-0.3299017282264887   0.0013263552065523737   -0.008789971381209509
-0.3299017282264887   0.0013263552065523737   -0.008789971381209509
-0.3299017282264887   0.0013263552065523737   -0.008789971381209509
-0.26374007318141524   0.001364249747055582   0.0037238066824038032
-0.26374007318141524   0.001364249747055582   0.0037238066824038032
-0.26374007318141524   0.001364249747055582   0.0037238066824038032
-0.26374007318141524   0.001364249747055582   0.0037238066824038032
-0.32875272680302114   0.002698211458881425   -0.00441682051620617
-0.32875272680302114   0.002698211458881425   -0.00441682051620617
-0.32875272680302114   0.002698211458881425   -0.00441682051620617
-0.32875272680302114   0.002698211458881425   -0.00441682051620617
-0.18960795999074467   0.03128532663422141   0.000711117521391573
-0.18960795999074467   0.03128532663422141   0.000711117521391573
-0.18960795999074467   0.03128532663422141   0.000711117521391573
-0.18960795999074467   0.03128532663422141   0.000711117521391573
-0.18065432231200598   0.06225971807068101   -0.007805401459004806
-0.18065432231200598   0.06225971807068101   -0.007805401459004806
-0.18065432231200598   0.06225971807068101   -0.007805401459004806
-0.18065432231200598   0.06225971807068101   -0.007805401459004806
-0.32096348132269203   0.029983724583211566   -0.014973713439916315
-0.32096348132269203   0.029983724583211566   -0.014973713439916315
-0.32096348132269203   0.029983724583211566   -0.014973713439916315
-0.32096348132269203   0.029983724583211566   -0.014973713439916315
-0.2534227638272196   0.02958177054708623   0.014964721093880088
-0.2534227638272196   0.02958177054708623   0.014964721093880088
-0.2534227638272196   0.02958177054708623   0.014964721093880088
-0.2534227638272196   0.02958177054708623   0.014964721093880088
-0.22523314403915176   -0.0800897297182444   -0.019146184241162365
-0.22523314403915176   -0.0800897297182444   -0.019146184241162365
-0.22523314403915176   -0.0800897297182444   -0.019146184241162365
-0.22523314403915176   -0.0800897297182444   -0.019146184241162365
-0.07048248529590478   -0.0013341351053093855   0.03356612557379017
-0.07048248529590478   -0.0013341351053093855   0.03356612557379017
-0.07048248529590478   -0.0013341351053093855   0.03356612557379017
-0.07048248529590478   -0.0013341351053093855   0.03356612557379017
-0.08004202994176086   -0.023897062693038467   -0.02470700534519073
-0.08004202994176086   -0.023897062693038467   -0.02470700534519073
-0.08004202994176086   -0.023897062693038467   -0.02470700534519073
-0.08004202994176086   -0.023897062693038467   -0.02470700534519073
-0.19774153533426625   -0.00305470870795254   0.01922875287084999
-0.19774153533426625   -0.00305470870795254   0.01922875287084999
-0.19774153533426625   -0.00305470870795254   0.01922875287084999
-0.19774153533426625   -0.00305470870795254   0.01922875287084999
-0.1433415799166494   -0.025912794189509578   -0.005766147919077903
-0.1433415799166494   -0.025912794189509578   -0.005766147919077903
-0.1433415799166494   -0.025912794189509578   -0.005766147919077903
-0.1433415799166494   -0.025912794189509578   -0.005766147919077903
-0.2160210848727087   -0.05099684443004431   -0.024226859099272073
-0.2160210848727087   -0.05099684443004431   -0.024226859099272073
-0.2160210848727087   -0.05099684443004431   -0.024226859099272073
-0.2160210848727087   -0.05099684443004431   -0.024226859099272073
-0.05933063336863117   0.02647692006373771   0.0284759947636815
-0.05933063336863117   0.02647692006373771   0.0284759947636815
-0.05933063336863117   0.02647692006373771   0.0284759947636815
-0.05933063336863117   0.02647692006373771   0.0284759947636815
-0.06490465023054634   0.005690922227481587   -0.02781564648438362
-0.06490465023054634   0.005690922227481587   -0.02781564648438362
-0.06490465023054634   0.005690922227481587   -0.02781564648438362
-0.06490465023054634   0.005690922227481587   -0.02781564648438362
-0.18894551524920028   0.022479266526438807   0.012829401336894579
-0.18894551524920028   0.022479266526438807   0.012829401336894579
-0.18894551524920028   0.022479266526438807   0.012829401336894579
-0.18894551524920028   0.022479266526438807   0.012829401336894579
-0.13172968086883763   0.0002790997424089135   0.006171935339305877
-0.13172968086883763   0.0002790997424089135   0.006171935339305877
-0.13172968086883763   0.0002790997424089135   0.006171935339305877
-0.13172968086883763   0.0002790997424089135   0.006171935339305877
-0.20664458175770498   -0.023109389764093307   -0.030077274915099473
-0.20664458175770498   -0.023109389764093307   -0.030077274915099473
-0.20664458175770498   -0.023109389764093307   -0.030077274915099473
-0.20664458175770498   -0.023109389764093307   -0.030077274915099473
-0.044941645763487366   0.053543516476567216   0.024146781601823732
-0.044941645763487366   0.053543516476567216   0.024146781601823732
-0.044941645763487366   0.053543516476567216   0.024146781601823732
-0.044941645763487366   0.053543516476567216   0.024146781601823732
-0.052101625402736024   0.03872396267812392   -0.03116388297046937
-0.052101625402736024   0.03872396267812392   -0.03116388297046937
-0.052101625402736024   0.03872396267812392   -0.03116388297046937
-0.052101625402736024   0.03872396267812392   -0.03116388297046937
-0.17994056696944077   0.0513629687714134   0.006660124553090365
-0.17994056696944077   0.0513629687714134   0.006660124553090365
-0.17994056696944077   0.0513629687714134   0.006660124553090365
-0.17994056696944077   0.0513629687714134   0.006660124553090365
-0.11971742957683403   0.027570275426457715   0.01810770905991223
-0.11971742957683403   0.027570275426457715   0.01810770905991223
-0.11971742957683403   0.027570275426457715   0.01810770905991223
-0.11971742957683403   0.027570275426457715   0.01810770905991223
-0.10247856848782912   -0.08611127081278681   -0.04163715467835405
-0.10247856848782912   -0.08611127081278681   -0.04163715467835405
-0.10247856848782912   -0.08611127081278681   -0.04163715467835405
-0.10247856848782912   -0.08611127081278681   -0.04163715467835405
0.033002635948084946   0.02533971243814635   0.051221888093810036
0.033002635948084946   0.02533971243814635   0.051221888093810036
0.033002635948084946   0.02533971243814635   0.051221888093810036
0.033002635948084946   0.02533971243814635   0.051221888093810036
0.03322531287245503   -0.04251109255310101   -0.05514651377897356
0.03322531287245503   -0.04251109255310101   -0.05514651377897356
0.03322531287245503   -0.04251109255310101   -0.05514651377897356
0.03322531287245503   -0.04251109255310101   -0.05514651377897356
-0.05661775286100987   0.02659284856974559   0.04192446879578014
-0.05661775286100987   0.02659284856974559   0.04192446879578014
-0.05661775286100987   0.02659284856974559   0.04192446879578014
-0.05661775286100987   0.02659284856974559   0.04192446879578014
-0.024282433759899694   -0.018319376196305005   -0.009711949109221667
-0.024282433759899694   -0.018319376196305005   -0.009711949109221667
-0.024282433759899694   -0.018319376196305005   -0.009711949109221667
-0.024282433759899694   -0.018319376196305005   -0.009711949109221667
-0.09316239405334144   -0.06633375741807955   -0.04787213117805447
-0.09316239405334144   -0.06633375741807955   -0.04787213117805447
-0.09316239405334144   -0.06633375741807955   -0.04787213117805447
-0.09316239405334144   -0.06633375741807955   -0.04787213117805447
0.07236925985471393   0.05301481922464922   0.04504730935457449
0.07236925985471393   0.05301481922464922   0.04504730935457449
0.07236925985471393   0.05301481922464922   0.04504730935457449
0.07236925985471393   0.05301481922464922   0.04504730935457449
0.06223218360011407   -0.025569810085482713   -0.06551872807653392
0.06223218360011407   -0.025569810085482713   -0.06551872807653392
0.06223218360011407   -0.025569810085482713   -0.06551872807653392
0.06223218360011407   -0.025569810085482713   -0.06551872807653392
-0.045976774285116574   0.03888606075217498   0.03362859471807188
-0.045976774285116574   0.03888606075217498   0.03362859471807188
-0.045976774285116574   0.03888606075217498   0.03362859471807188
-0.045976774285116574   0.03888606075217498   0.03362859471807188
-0.000455736853797978   -0.000883633194294174   0.003219289294272314
-0.000455736853797978   -0.000883633194294174   0.003219289294272314
-0.000455736853797978   -0.000883633194294174   0.003219289294272314
-0.000455736853797978   -0.000883633194294174   0.003219289294272314
-0.08203324253677997   -0.052393905712640965   -0.05537378007543114
-0.08203324253677997   -0.052393905712640965   -0.05537378007543114
-0.08203324253677997   -0.052393905712640965   -0.05537378007543114
-0.08203324253677997   -0.052393905712640965   -0.05537378007543114
0.10089132562890496   0.06831283015646039   0.03389434182547743
0.10089132562890496   0.06831283015646039   0.03389434182547743
0.10089132562890496   0.06831283015646039   0.03389434182547743
0.10089132562890496   0.06831283015646039   0.03389434182547743
0.1029034634681612   0.007584440690245719   -0.07017350446348383
0.1029034634681612   0.007584440690245719   -0.07017350446348383
0.1029034634681612   0.007584440690245719   -0.07017350446348383
0.1029034634681612   0.007584440690245719   -0.07017350446348383
-0.036037647590190056   0.060550909024345505   0.02732905974603885
-0.036037647590190056   0.060550909024345505   0.02732905974603885
-0.036037647590190056   0.060550909024345505   0.02732905974603885
-0.036037647590190056   0.060550909024345505   0.02732905974603885
0.021051366318539814   0.0174262797265489   0.015867505311737192
0.021051366318539814   0.0174262797265489   0.015867505311737192
0.021051366318539814   0.0174262797265489   0.015867505311737192
0.021051366318539814   0.0174262797265489   0.015867505311737192
-0.20844099399791155   0.012048551660368043   0.05852491378250566
-0.20844099399791155   0.012048551660368043   0.05852491378250566
-0.20844099399791155   0.012048551660368043   0.05852491378250566
-0.20844099399791155   0.012048551660368043   0.05852491378250566
-0.2484902337836283   -0.07626023782959859   -0.034459251378124944
-0.2484902337836283   -0.07626023782959859   -0.034459251378124944
-0.2484902337836283   -0.07626023782959859   -0.034459251378124944
-0.2484902337836283   -0.07626023782959859   -0.034459251378124944
-0.19838910335282078   0.03541971879726594   0.047912485808066396
-0.19838910335282078   0.03541971879726594   0.047912485808066396
-0.19838910335282078   0.03541971879726594   0.047912485808066396
-0.19838910335282078   0.03541971879726594   0.047912485808066396
-0.2024312508680492   -0.050059359581834176   -0.04442051432103459
-0.2024312508680492   -0.050059359581834176   -0.04442051432103459
-0.2024312508680492   -0.050059359581834176   -0.04442051432103459
-0.2024312508680492   -0.050059359581834176   -0.04442051432103459
-0.20903905453389166   -0.01607525631006467   -0.016040067515313464
-0.20903905453389166   -0.01607525631006467   -0.016040067515313464
-0.20903905453389166   -0.01607525631006467   -0.016040067515313464
-0.20903905453389166   -0.01607525631006467   -0.016040067515313464
-0.1639068118659755   0.043635120128766774   0.0545072009787253
-0.1639068118659755   0.043635120128766774   0.0545072009787253
-0.1639068118659755   0.043635120128766774   0.0545072009787253
-0.1639068118659755   0.043635120128766774   0.0545072009787253
-0.23449445102453134   -0.05585566958297253   -0.041338864170244176
-0.23449445102453134   -0.05585566958297253   -0.041338864170244176
-0.23449445102453134   -0.05585566958297253   -0.041338864170244176
-0.23449445102453134   -0.05585566958297253   -0.041338864170244176
-0.18296724688263594   0.048864395777371145   0.04031536696734393
-0.18296724688263594   0.048864395777371145   0.04031536696734393
-0.18296724688263594   0.048864395777371145   0.04031536696734393
-0.18296724688263594   0.048864395777371145   0.04031536696734393
-0.16933183015980827   -0.034865127329528484   -0.055321476892953136
-0.16933183015980827   -0.034865127329528484   -0.055321476892953136
-0.16933183015980827   -0.034865127329528484   -0.055321476892953136
-0.16933183015980827   -0.034865127329528484   -0.055321476892953136
-0.18462190346947416   0.0010972721979051678   -0.0033677672061838988
-0.18462190346947416   0.0010972721979051678   -0.0033677672061838988
-0.18462190346947416   0.0010972721979051678   -0.0033677672061838988
-0.18462190346947416   0.0010972721979051678   -0.0033677672061838988
-0.1305901237061723   0.05998427719027894   0.043537650855419295
-0.1305901237061723   0.05998427719027894   0.043537650855419295
-0.1305901237061723   0.05998427719027894   0.043537650855419295
-0.1305901237061723   0.05998427719027894   0.043537650855419295
-0.21942915111386038   -0.04370520652002413   -0.04942455189137925
-0.21942915111386038   -0.04370520652002413   -0.04942455189137925
-0.21942915111386038   -0.04370520652002413   -0.04942455189137925
-0.21942915111386038   -0.04370520652002413   -0.04942455189137925
-0.16886320994939716   0.06941130093239258   0.03481930513410727
-0.16886320994939716   0.06941130093239258   0.03481930513410727
-0.16886320994939716   0.06941130093239258   0.03481930513410727
-0.16886320994939716   0.06941130093239258   0.03481930513410727
-0.12514777946793731   -0.005984174021887022   -0.06231731959731242
-0.12514777946793731   -0.005984174021887022   -0.06231731959731242
-0.12514777946793731   -0.005984174021887022   -0.06231731959731242
-0.12514777946793731   -0.005984174021887022   -0.06231731959731242
-0.15528080767602093   0.01904749915691322   0.010194141344650605
-0.15528080767602093   0.01904749915691322   0.010194141344650605
-0.15528080767602093   0.01904749915691322   0.010194141344650605
-0.15528080767602093   0.01904749915691322   0.010194141344650605
-0.22240777229321618   -0.013609991680170734   0.03330280992449998
-0.22240777229321618   -0.013609991680170734   0.03330280992449998
-0.22240777229321618   -0.013609991680170734   0.03330280992449998
-0.22240777229321618   -0.013609991680170734   0.03330280992449998
-0.2765501599674397   -0.062207880270812914   -0.013462240646993771
-0.2765501599674397   -0.062207880270812914   -0.013462240646993771
-0.2765501599674397   -0.062207880270812914   -0.013462240646993771
-0.2765501599674397   -0.062207880270812914   -0.013462240646993771
-0.24661026459833849   0.006271245420313917   0.02223492787435063
-0.24661026459833849   0.006271245420313917   0.02223492787435063
-0.24661026459833849   0.006271245420313917   0.02223492787435063
-0.24661026459833849   0.006271245420313917   0.02223492787435063
-0.22499333488727746   -0.02931760752834344   -0.020371345538603744
-0.22499333488727746   -0.02931760752834344   -0.020371345538603744
-0.22499333488727746   -0.02931760752834344   -0.020371345538603744
-0.22499333488727746   -0.02931760752834344   -0.020371345538603744
-0.24282079496276288   -0.022817506707676943   -0.011273648678087052
-0.24282079496276288   -0.022817506707676943   -0.011273648678087052
-0.24282079496276288   -0.022817506707676943   -0.011273648678087052
-0.24282079496276288   -0.022817506707676943   -0.011273648678087052
-0.20609442420612153   0.01574045665971329   0.029065143679115245
-0.20609442420612153   0.01574045665971329   0.029065143679115245
-0.20609442420612153   0.01574045665971329   0.029065143679115245
-0.20609442420612153   0.01574045665971329   0.029065143679115245
-0.2636139118921626   -0.03689155538040948   -0.019620507794048746
-0.2636139118921626   -0.03689155538040948   -0.019620507794048746
-0.2636139118921626   -0.03689155538040948   -0.019620507794048746
-0.2636139118921626   -0.03689155538040948   -0.019620507794048746
-0.23284256148505042   0.03302828601291588   0.016962248128350857
-0.23284256148505042   0.03302828601291588   0.016962248128350857
-0.23284256148505042   0.03302828601291588   0.016962248128350857
-0.23284256148505042   0.03302828601291588   0.016962248128350857
-0.2065683979477965   -0.003536227452317721   -0.025289765128766246
-0.2065683979477965   -0.003536227452317721   -0.025289765128766246
-0.2065683979477965   -0.003536227452317721   -0.025289765128766246
-0.2065683979477965   -0.003536227452317721   -0.025289765128766246
-0.22636795924193553   0.002143718355692034   0.00042063757594570234
-0.22636795924193553   0.002143718355692034   0.00042063757594570234
-0.22636795924193553   0.002143718355692034   0.00042063757594570234
-0.22636795924193553   0.002143718355692034   0.00042063757594570234
-0.1867496561401533   0.044089967289709   0.02617774916741933
-0.1867496561401533   0.044089967289709   0.02617774916741933
-0.1867496561401533   0.044089967289709   0.02617774916741933
-0.1867496561401533   0.044089967289709   0.02617774916741933
-0.25064093337224613   -0.012577538808664641   -0.026423786486051225
-0.25064093337224613   -0.012577538808664641   -0.026423786486051225
-0.25064093337224613   -0.012577538808664641   -0.026423786486051225
-0.25064093337224613   -0.012577538808664641   -0.026423786486051225
-0.2190072763089584   0.06264895706218185   0.011950574058624468
-0.2190072763089584   0.06264895706218185   0.011950574058624468
-0.2190072763089584   0.06264895706218185   0.011950574058624468
-0.2190072763089584   0.06264895706218185   0.011950574058624468
-0.19067585747299157   0.02508351692311029   -0.029916148474578606
-0.19067585747299157   0.02508351692311029   -0.029916148474578606
-0.19067585747299157   0.02508351692311029   -0.029916148474578606
-0.19067585747299157   0.02508351692311029   -0.029916148474578606
-0.2108122788043262   0.027927751294115954   0.012325246107955112
-0.2108122788043262   0.027927751294115954   0.012325246107955112
-0.2108122788043262   0.027927751294115954   0.012325246107955112
-0.2108122788043262   0.027927751294115954   0.012325246107955112
-0.2670647346981225   -0.03761064945129754   0.009367654880071546
-0.2670647346981225   -0.03761064945129754   0.009367654880071546
-0.2670647346981225   -0.03761064945129754   0.009367654880071546
-0.2670647346981225   -0.03761064945129754   0.009367654880071546
-0.3044978541843085   -0.039324526524191133   0.00813746634369596
-0.3044978541843085   -0.039324526524191133   0.00813746634369596
-0.3044978541843085   -0.039324526524191133   0.00813746634369596
-0.3044978541843085   -0.039324526524191133   0.00813746634369596
-0.2934731465036207   -0.01789493091395842   -0.0028856138042220748
-0.2934731465036207   -0.01789493091395842   -0.0028856138042220748
-0.2934731465036207   -0.01789493091395842   -0.0028856138042220748
-0.2934731465036207   -0.01789493091395842   -0.0028856138042220748
-0.25284143794378516   -0.005308977703724051   0.0026592842711553027
-0.25284143794378516   -0.005308977703724051   0.0026592842711553027
-0.25284143794378516   -0.005308977703724051   0.0026592842711553027
-0.25284143794378516   -0.005308977703724051   0.0026592842711553027
-0.2798885922061297   -0.0236158296412093   -0.007485733417212889
-0.2798885922061297   -0.0236158296412093   -0.007485733417212889
-0.2798885922061297   -0.0236158296412093   -0.007485733417212889
-0.2798885922061297   -0.0236158296412093   -0.007485733417212889
-0.25304002018297067   -0.00829975317890342   0.0046571485504029436
-0.25304002018297067   -0.00829975317890342   0.0046571485504029436
-0.25304002018297067   -0.00829975317890342   0.0046571485504029436
-0.25304002018297067   -0.00829975317890342   0.0046571485504029436
-0.2914870268206535   -0.013116617995002765   0.0022666716916607977
-0.2914870268206535   -0.013116617995002765   0.0022666716916607977
-0.2914870268206535   -0.013116617995002765   0.0022666716916607977
-0.2914870268206535   -0.013116617995002765   0.0022666716916607977
-0.27900805720368566   0.011799262099475863   -0.007319107939395095
-0.27900805720368566   0.011799262099475863   -0.007319107939395095
-0.27900805720368566   0.011799262099475863   -0.007319107939395095
-0.27900805720368566   0.011799262099475863   -0.007319107939395095
-0.23912008115984024   0.021621971949016272   -0.0030190361816987317
-0.23912008115984024   0.021621971949016272   -0.0030190361816987317
-0.23912008115984024   0.021621971949016272   -0.0030190361816987317
-0.23912008115984024   0.021621971949016272   -0.0030190361816987317
-0.26477551206569255   0.0029240345054771383   0.004062422839021867
-0.26477551206569255   0.0029240345054771383   0.004062422839021867
-0.26477551206569255   0.0029240345054771383   0.004062422839021867
-0.26477551206569255   0.0029240345054771383   0.004062422839021867
-0.23863215006031754   0.02128898614084241   -0.00024639487591525053
-0.23863215006031754   0.02128898614084241   -0.00024639487591525053
-0.23863215006031754   0.02128898614084241   -0.00024639487591525053
-0.23863215006031754   0.02128898614084241   -0.00024639487591525053
-0.2779363405682995   0.013691895642555421   -0.003853158305543735
-0.2779363405682995   0.013691895642555421   -0.003853158305543735
-0.2779363405682995   0.013691895642555421   -0.003853158305543735
-0.2779363405682995   0.013691895642555421   -0.003853158305543735
-0.26515710719582525   0.04167561109091078   -0.012320655028287057
-0.26515710719582525   0.04167561109091078   -0.012320655028287057
-0.26515710719582525   0.04167561109091078   -0.012320655028287057
-0.26515710719582525   0.04167561109091078   -0.012320655028287057
-0.22604586652879535   0.048663204481041306   -0.009256624459419879
-0.22604586652879535   0.048663204481041306   -0.009256624459419879
-0.22604586652879535   0.048663204481041306   -0.009256624459419879
-0.22604586652879535   0.048663204481041306   -0.009256624459419879
-0.250363535457073   0.02951278515025249   0.015069934212536992
-0.250363535457073   0.02951278515025249   0.015069934212536992
-0.250363535457073   0.02951278515025249   0.015069934212536992
-0.250363535457073   0.02951278515025249   0.015069934212536992
-0.31322350835400636   -0.059632192531235514   -0.015183138497754236
-0.31322350835400636   -0.059632192531235514   -0.015183138497754236
-0.31322350835400636   -0.059632192531235514   -0.015183138497754236
-0.31322350835400636   -0.059632192531235514   -0.015183138497754236
-0.3348531222346517   -0.016910894578166913   0.028774376884803034
-0.3348531222346517   -0.016910894578166913   0.028774376884803034
-0.3348531222346517   -0.016910894578166913   0.028774376884803034
-0.3348531222346517   -0.016910894578166913   0.028774376884803034
-0.340274859540179   -0.04107523809802992   -0.028340569873608785
-0.340274859540179   -0.04107523809802992   -0.028340569873608785
-0.340274859540179   -0.04107523809802992   -0.028340569873608785
-0.340274859540179   -0.04107523809802992   -0.028340569873608785
-0.28088614544690216   0.01785812264116428   0.024296337924247933
-0.28088614544690216   0.01785812264116428   0.024296337924247933
-0.28088614544690216   0.01785812264116428   0.024296337924247933
-0.28088614544690216   0.01785812264116428   0.024296337924247933
-0.3159863728896675   -0.023329116519814008   -0.004706509109828144
-0.3159863728896675   -0.023329116519814008   -0.004706509109828144
-0.3159863728896675   -0.023329116519814008   -0.004706509109828144
-0.3159863728896675   -0.023329116519814008   -0.004706509109828144
-0.29958268093715523   -0.031278609816559624   -0.020049607069296482
-0.29958268093715523   -0.031278609816559624   -0.020049607069296482
-0.29958268093715523   -0.031278609816559624   -0.020049607069296482
-0.29958268093715523   -0.031278609816559624   -0.020049607069296482
-0.31970412070162735   0.009935697707994656   0.023502188513125025
-0.31970412070162735   0.009935697707994656   0.023502188513125025
-0.31970412070162735   0.009935697707994656   0.023502188513125025
-0.31970412070162735   0.009935697707994656   0.023502188513125025
-0.32130439013517265   -0.012917934206884835   -0.0317977274437513
-0.32130439013517265   -0.012917934206884835   -0.0317977274437513
-0.32130439013517265   -0.012917934206884835   -0.0317977274437513
-0.32130439013517265   -0.012917934206884835   -0.0317977274437513
-0.2678661198661785   0.042146386805050555   0.01804345404256647
-0.2678661198661785   0.042146386805050555   0.01804345404256647
-0.2678661198661785   0.042146386805050555   0.01804345404256647
-0.2678661198661785   0.042146386805050555   0.01804345404256647
-0.29880530416977763   0.0022320001121547   0.007215493987478155
-0.29880530416977763   0.0022320001121547   0.007215493987478155
-0.29880530416977763   0.0022320001121547   0.007215493987478155
-0.29880530416977763   0.0022320001121547   0.007215493987478155
-0.28598283851144546   -0.004644024057609095   -0.02574972832111508
-0.28598283851144546   -0.004644024057609095   -0.02574972832111508
-0.28598283851144546   -0.004644024057609095   -0.02574972832111508
-0.28598283851144546   -0.004644024057609095   -0.02574972832111508
-0.30129360346140094   0.03576654468428102   0.01957172703394127
-0.30129360346140094   0.03576654468428102   0.01957172703394127
-0.30129360346140094   0.03576654468428102   0.01957172703394127
-0.30129360346140094   0.03576654468428102   0.01957172703394127
-0.30470570118098383   0.018098927565717612   -0.0348949472638455
-0.30470570118098383   0.018098927565717612   -0.0348949472638455
-0.30470570118098383   0.018098927565717612   -0.0348949472638455
-0.30470570118098383   0.018098927565717612   -0.0348949472638455
-0.25481038917286525   0.06921241111032655   0.011876135067097351
-0.25481038917286525   0.06921241111032655   0.011876135067097351
-0.25481038917286525   0.06921241111032655   0.011876135067097351
-0.25481038917286525   0.06921241111032655   0.011876135067097351
-0.2842255876751142   0.027589224948804197   0.018612204705045175
-0.2842255876751142   0.027589224948804197   0.018612204705045175
-0.2842255876751142   0.027589224948804197   0.018612204705045175
-0.2842255876751142   0.027589224948804197   0.018612204705045175
-0.3590219493055863   -0.07092142736746537   -0.03805922568057733
-0.3590219493055863   -0.07092142736746537   -0.03805922568057733
-0.3590219493055863   -0.07092142736746537   -0.03805922568057733
-0.3590219493055863   -0.07092142736746537   -0.03805922568057733
-0.3975292538912137   0.005364926278922974   0.05181153627066891
-0.3975292538912137   0.005364926278922974   0.05181153627066891
-0.3975292538912137   0.005364926278922974   0.05181153627066891
-0.3975292538912137   0.005364926278922974   0.05181153627066891
-0.3922490724433138   -0.05905998783363329   -0.050708393638825636
-0.3922490724433138   -0.05905998783363329   -0.050708393638825636
-0.3922490724433138   -0.05905998783363329   -0.050708393638825636
-0.3922490724433138   -0.05905998783363329   -0.050708393638825636
-0.30815838353001157   0.044725890448193625   0.046440681631003164
-0.30815838353001157   0.044725890448193625   0.046440681631003164
-0.30815838353001157   0.044725890448193625   0.046440681631003164
-0.30815838353001157   0.044725890448193625   0.046440681631003164
-0.3496339370666473   -0.01527014219523691   -0.0022929137630817373
-0.3496339370666473   -0.01527014219523691   -0.0022929137630817373
-0.3496339370666473   -0.01527014219523691   -0.0022929137630817373
-0.3496339370666473   -0.01527014219523691   -0.0022929137630817373
-0.344719041382208   -0.04811637194167327   -0.04352034524011606
-0.344719041382208   -0.04811637194167327   -0.04352034524011606
-0.344719041382208   -0.04811637194167327   -0.04352034524011606
-0.344719041382208   -0.04811637194167327   -0.04352034524011606
-0.3537074415898403   0.03576324755750618   0.04717652523739467
-0.3537074415898403   0.03576324755750618   0.04717652523739467
-0.3537074415898403   0.03576324755750618   0.04717652523739467
-0.3537074415898403   0.03576324755750618   0.04717652523739467
-0.35945769472229705   -0.04262505350002805   -0.06044605610576277
-0.35945769472229705   -0.04262505350002805   -0.06044605610576277
-0.35945769472229705   -0.04262505350002805   -0.06044605610576277
-0.35945769472229705   -0.04262505350002805   -0.06044605610576277
-0.2934974685790611   0.05630213894489873   0.03801680718501871
-0.2934974685790611   0.05630213894489873   0.03801680718501871
-0.2934974685790611   0.05630213894489873   0.03801680718501871
-0.2934974685790611   0.05630213894489873   0.03801680718501871
-0.3274685705812232   0.0019102473785338886   0.009141988851052815
-0.3274685705812232   0.0019102473785338886   0.009141988851052815
-0.3274685705812232   0.0019102473785338886   0.009141988851052815
-0.3274685705812232   0.0019102473785338886   0.009141988851052815
-0.3293508130820524   -0.034586684356531505   -0.0503610920285094
-0.3293508130820524   -0.034586684356531505   -0.0503610920285094
-0.3293508130820524   -0.034586684356531505   -0.0503610920285094
-0.3293508130820524   -0.034586684356531505   -0.0503610920285094
-0.3215278411017027   0.0503402789190069   0.036237879578170415
-0.3215278411017027   0.0503402789190069   0.036237879578170415
-0.3215278411017027   0.0503402789190069   0.036237879578170415
-0.3215278411017027   0.0503402789190069   0.036237879578170415
-0.3163972890892604   -0.014200021515172787   -0.06606595145248227
-0.3163972890892604   -0.014200021515172787   -0.06606595145248227
-0.3163972890892604   -0.014200021515172787   -0.06606595145248227
-0.3163972890892604   -0.014200021515172787   -0.06606595145248227
-0.2803726151054611   0.07355566242601086   0.03131374825347521
-0.2803726151054611   0.07355566242601086   0.03131374825347521
-0.2803726151054611   0.07355566242601086   0.03131374825347521
-0.2803726151054611   0.07355566242601086   0.03131374825347521
-0.2970869216860175   0.019068637434992763   0.022387713053067873
-0.2970869216860175   0.019068637434992763   0.022387713053067873
-0.2970869216860175   0.019068637434992763   0.022387713053067873
-0.2970869216860175   0.019068637434992763   0.022387713053067873
0.21733854225778612   0.035110865519169795   0.05656748932433327
0.21733854225778612   0.035110865519169795   0.05656748932433327
0.21733854225778612   0.035110865519169795   0.05656748932433327
0.21733854225778612   0.035110865519169795   0.05656748932433327
-0.005077344212964869   -0.09088080922559856   -0.037335234159686884
-0.005077344212964869   -0.09088080922559856   -0.037335234159686884
-0.005077344212964869   -0.09088080922559856   -0.037335234159686884
-0.005077344212964869   -0.09088080922559856   -0.037335234159686884
0.04831622884673853   0.01771360100844158   0.043696808915556454
0.04831622884673853   0.01771360100844158   0.043696808915556454
0.04831622884673853   0.01771360100844158   0.043696808915556454
0.04831622884673853   0.01771360100844158   0.043696808915556454
0.22666922183721178   -0.03174790886131801   -0.046741973181652366
0.22666922183721178   -0.03174790886131801   -0.046741973181652366
0.22666922183721178   -0.03174790886131801   -0.046741973181652366
0.22666922183721178   -0.03174790886131801   -0.046741973181652366
0.11092602485216699   -0.017622714774965444   -0.026963787571576137
0.11092602485216699   -0.017622714774965444   -0.026963787571576137
0.11092602485216699   -0.017622714774965444   -0.026963787571576137
0.11092602485216699   -0.017622714774965444   -0.026963787571576137
0.2650826947344778   0.0625358574096251   0.05104162503373481
0.2650826947344778   0.0625358574096251   0.05104162503373481
0.2650826947344778   0.0625358574096251   0.05104162503373481
0.2650826947344778   0.0625358574096251   0.05104162503373481
0.012269708218323523   -0.07420321299365049   -0.044618980224426515
0.012269708218323523   -0.07420321299365049   -0.044618980224426515
0.012269708218323523   -0.07420321299365049   -0.044618980224426515
0.012269708218323523   -0.07420321299365049   -0.044618980224426515
0.06775163636566355   0.03090849874899413   0.03646318697418813
0.06775163636566355   0.03090849874899413   0.03646318697418813
0.06775163636566355   0.03090849874899413   0.03646318697418813
0.06775163636566355   0.03090849874899413   0.03646318697418813
0.26393135723239747   -0.016843171671335255   -0.05846277277510846
0.26393135723239747   -0.016843171671335255   -0.05846277277510846
0.26393135723239747   -0.016843171671335255   -0.05846277277510846
0.26393135723239747   -0.016843171671335255   -0.05846277277510846
0.1445565204601649   -0.0011767679909284803   -0.01268798500923708
0.1445565204601649   -0.0011767679909284803   -0.01268798500923708
0.1445565204601649   -0.0011767679909284803   -0.01268798500923708
0.1445565204601649   -0.0011767679909284803   -0.01268798500923708
0.30276244157456145   0.07865659820734273   0.04019287905703328
0.30276244157456145   0.07865659820734273   0.04019287905703328
0.30276244157456145   0.07865659820734273   0.04019287905703328
0.30276244157456145   0.07865659820734273   0.04019287905703328
0.031234008607051774   -0.06227781454613169   -0.05293863852374492
0.031234008607051774   -0.06227781454613169   -0.05293863852374492
0.031234008607051774   -0.06227781454613169   -0.05293863852374492
0.031234008607051774   -0.06227781454613169   -0.05293863852374492
0.0866117437408456   0.05514180022504729   0.03155302842857623
0.0866117437408456   0.05514180022504729   0.03155302842857623
0.0866117437408456   0.05514180022504729   0.03155302842857623
0.0866117437408456   0.05514180022504729   0.03155302842857623
0.313400048198166   0.01651449771165641   -0.06447067203686349
0.313400048198166   0.01651449771165641   -0.06447067203686349
0.313400048198166   0.01651449771165641   -0.06447067203686349
0.313400048198166   0.01651449771165641   -0.06447067203686349
0.17276197937471444   0.017260735636901253   0.0008048293496326839
0.17276197937471444   0.017260735636901253   0.0008048293496326839
0.17276197937471444   0.017260735636901253   0.0008048293496326839
0.17276197937471444   0.017260735636901253   0.0008048293496326839
0.030152472403601714   0.00950975189358571   0.03842328780395792
0.030152472403601714   0.00950975189358571   0.03842328780395792
0.030152472403601714   0.00950975189358571   0.03842328780395792
0.030152472403601714   0.00950975189358571   0.03842328780395792
-0.20616728261394615   -0.07717138341437185   -0.017129838115079836
-0.20616728261394615   -0.07717138341437185   -0.017129838115079836
-0.20616728261394615   -0.07717138341437185   -0.017129838115079836
-0.20616728261394615   -0.07717138341437185   -0.017129838115079836
-0.17249362411372285   -0.011234653906593055   0.01754371179659358
-0.17249362411372285   -0.011234653906593055   0.01754371179659358
-0.17249362411372285   -0.011234653906593055   0.01754371179659358
-0.17249362411372285   -0.011234653906593055   0.01754371179659358
0.03155789416171864   -0.008791032384559118   -0.013590231116542298
0.03155789416171864   -0.008791032384559118   -0.013590231116542298
0.03155789416171864   -0.008791032384559118   -0.013590231116542298
0.03155789416171864   -0.008791032384559118   -0.013590231116542298
-0.08094169121484701   -0.01994584561797441   -0.012955063103550208
-0.08094169121484701   -0.01994584561797441   -0.012955063103550208
-0.08094169121484701   -0.01994584561797441   -0.012955063103550208
-0.08094169121484701   -0.01994584561797441   -0.012955063103550208
0.05017307665440055   0.036607394733479424   0.03408725422883259
0.05017307665440055   0.036607394733479424   0.03408725422883259
0.05017307665440055   0.036607394733479424   0.03408725422883259
0.05017307665440055   0.036607394733479424   0.03408725422883259
-0.18938449748155145   -0.05490877189977733   -0.023236537049363286
-0.18938449748155145   -0.05490877189977733   -0.023236537049363286
-0.18938449748155145   -0.05490877189977733   -0.023236537049363286
-0.18938449748155145   -0.05490877189977733   -0.023236537049363286
-0.15477426447696618   0.014360102938148149   0.012397753352702073
-0.15477426447696618   0.014360102938148149   0.012397753352702073
-0.15477426447696618   0.014360102938148149   0.012397753352702073
-0.15477426447696618   0.014360102938148149   0.012397753352702073
0.053697616324636176   0.015495284602066055   -0.018393699084020675
0.053697616324636176   0.015495284602066055   -0.018393699084020675
0.053697616324636176   0.015495284602066055   -0.018393699084020675
0.053697616324636176   0.015495284602066055   -0.018393699084020675
-0.0621590970455614   0.0026306342464442   -0.001579491872071302
-0.0621590970455614   0.0026306342464442   -0.001579491872071302
-0.0621590970455614   0.0026306342464442   -0.001579491872071302
-0.0621590970455614   0.0026306342464442   -0.001579491872071302
0.07309636713402802   0.06356145541900113   0.030533884146003477
0.07309636713402802   0.06356145541900113   0.030533884146003477
0.07309636713402802   0.06356145541900113   0.030533884146003477
0.07309636713402802   0.06356145541900113   0.030533884146003477
-0.1725131425638011   -0.03204619515623512   -0.029890338987089277
-0.1725131425638011   -0.03204619515623512   -0.029890338987089277
-0.1725131425638011   -0.03204619515623512   -0.029890338987089277
-0.1725131425638011   -0.03204619515623512   -0.029890338987089277
-0.13694838452010435   0.04331071606023486   0.00749237425815703
-0.13694838452010435   0.04331071606023486   0.00749237425815703
-0.13694838452010435   0.04331071606023486   0.00749237425815703
-0.13694838452010435   0.04331071606023486   0.00749237425815703
0.0731837230849967   0.04303988174442099   -0.023485156370045786
0.0731837230849967   0.04303988174442099   -0.023485156370045786
0.0731837230849967   0.04303988174442099   -0.023485156370045786
0.0731837230849967   0.04303988174442099   -0.023485156370045786
-0.041381046462235255   0.02756304711125097   0.010550371718160806
-0.041381046462235255   0.02756304711125097   0.010550371718160806
-0.041381046462235255   0.02756304711125097   0.010550371718160806
-0.041381046462235255   0.02756304711125097   0.010550371718160806
-0.18749756521878572   -0.014785407425457947   0.013832772871808405
-0.18749756521878572   -0.014785407425457947   0.013832772871808405
-0.18749756521878572   -0.014785407425457947   0.013832772871808405
-0.18749756521878572   -0.014785407425457947   0.013832772871808405
-0.4036095574538261   -0.054872586958630606   0.0035444483901403935
-0.4036095574538261   -0.054872586958630606   0.0035444483901403935
-0.4036095574538261   -0.054872586958630606   0.0035444483901403935
-0.4036095574538261   -0.054872586958630606   0.0035444483901403935
-0.3881027629939644   -0.03441335582361497   -0.007601281278119975
-0.3881027629939644   -0.03441335582361497   -0.007601281278119975
-0.3881027629939644   -0.03441335582361497   -0.007601281278119975
-0.3881027629939644   -0.03441335582361497   -0.007601281278119975
-0.1691762253746692   0.014327834641350526   0.008568216943920032
-0.1691762253746692   0.014327834641350526   0.008568216943920032
-0.1691762253746692   0.014327834641350526   0.008568216943920032
-0.1691762253746692   0.014327834641350526   0.008568216943920032
-0.2875157322811693   -0.02060234884798022   -0.0075475833951556374
-0.2875157322811693   -0.02060234884798022   -0.0075475833951556374
-0.2875157322811693   -0.02060234884798022   -0.0075475833951556374
-0.2875157322811693   -0.02060234884798022   -0.0075475833951556374
-0.169392695576563   0.012676378358875008   0.00913732221692847
-0.169392695576563   0.012676378358875008   0.00913732221692847
-0.169392695576563   0.012676378358875008   0.00913732221692847
-0.169392695576563   0.012676378358875008   0.00913732221692847
-0.3864061406135866   -0.031281747362655626   -0.0022497778371933543
-0.3864061406135866   -0.031281747362655626   -0.0022497778371933543
-0.3864061406135866   -0.031281747362655626   -0.0022497778371933543
-0.3864061406135866   -0.031281747362655626   -0.0022497778371933543
-0.3694686687807564   -0.006234588499061514   -0.011953250801171534
-0.3694686687807564   -0.006234588499061514   -0.011953250801171534
-0.3694686687807564   -0.006234588499061514   -0.011953250801171534
-0.3694686687807564   -0.006234588499061514   -0.011953250801171534
-0.15163270174666918   0.039308411220638814   0.003157258721696393
-0.15163270174666918   0.039308411220638814   0.003157258721696393
-0.15163270174666918   0.039308411220638814   0.003157258721696393
-0.15163270174666918   0.039308411220638814   0.003157258721696393
-0.26827504458089685   0.004146311483811296   0.003914560132527896
-0.26827504458089685   0.004146311483811296   0.003914560132527896
-0.26827504458089685   0.004146311483811296   0.003914560132527896
-0.26827504458089685   0.004146311483811296   0.003914560132527896
-0.15117601099252498   0.040637014967858605   0.00411210874519766
-0.15117601099252498   0.040637014967858605   0.00411210874519766
-0.15117601099252498   0.040637014967858605   0.00411210874519766
-0.15117601099252498   0.040637014967858605   0.00411210874519766
-0.36874165219313015   -0.006379484904511373   -0.008173271457593619
-0.36874165219313015   -0.006379484904511373   -0.008173271457593619
-0.36874165219313015   -0.006379484904511373   -0.008173271457593619
-0.36874165219313015   -0.006379484904511373   -0.008173271457593619
-0.3515862339034524   0.022023075706017498   -0.016916900959881898
-0.3515862339034524   0.022023075706017498   -0.016916900959881898
-0.3515862339034524   0.022023075706017498   -0.016916900959881898
-0.3515862339034524   0.022023075706017498   -0.016916900959881898
-0.1348517711642029   0.06436248564485314   -0.0030763285469519903
-0.1348517711642029   0.06436248564485314   -0.0030763285469519903
-0.1348517711642029   0.06436248564485314   -0.0030763285469519903
-0.1348517711642029   0.06436248564485314   -0.0030763285469519903
-0.25003985623899944   0.02882765981775992   0.014628540682882846
-0.25003985623899944   0.02882765981775992   0.014628540682882846
-0.25003985623899944   0.02882765981775992   0.014628540682882846
-0.25003985623899944   0.02882765981775992   0.014628540682882846
-0.40338025610647843   -0.038672935913207244   -0.011508695918541234
-0.40338025610647843   -0.038672935913207244   -0.011508695918541234
-0.40338025610647843   -0.038672935913207244   -0.011508695918541234
-0.40338025610647843   -0.038672935913207244   -0.011508695918541234
-0.5990647533585466   -0.033913027910745144   0.023838023534390792
-0.5990647533585466   -0.033913027910745144   0.023838023534390792
-0.5990647533585466   -0.033913027910745144   0.023838023534390792
-0.5990647533585466   -0.033913027910745144   0.023838023534390792
-0.599305176655526   -0.05711637729391435   -0.032157130542521326
-0.599305176655526   -0.05711637729391435   -0.032157130542521326
-0.599305176655526   -0.05711637729391435   -0.032157130542521326
-0.599305176655526   -0.05711637729391435   -0.032157130542521326
-0.3665777095215475   0.036404412410020015   0.029206217850326236
-0.3665777095215475   0.036404412410020015   0.029206217850326236
-0.3665777095215475   0.036404412410020015   0.029206217850326236
-0.3665777095215475   0.036404412410020015   0.029206217850326236
-0.4893281010877135   -0.020933788577045476   -0.003181606611818929
-0.4893281010877135   -0.020933788577045476   -0.003181606611818929
-0.4893281010877135   -0.020933788577045476   -0.003181606611818929
-0.4893281010877135   -0.020933788577045476   -0.003181606611818929
-0.38512107152610625   -0.011057805093345793   -0.01604837466909836
-0.38512107152610625   -0.011057805093345793   -0.01604837466909836
-0.38512107152610625   -0.011057805093345793   -0.01604837466909836
-0.38512107152610625   -0.011057805093345793   -0.01604837466909836
-0.5795368198685857   -0.008429165008165582   0.017997441106436408
-0.5795368198685857   -0.008429165008165582   0.017997441106436408
-0.5795368198685857   -0.008429165008165582   0.017997441106436408
-0.5795368198685857   -0.008429165008165582   0.017997441106436408
-0.5759498883423594   -0.03023529021877394   -0.03578116260037511
-0.5759498883423594   -0.03023529021877394   -0.03578116260037511
-0.5759498883423594   -0.03023529021877394   -0.03578116260037511
-0.5759498883423594   -0.03023529021877394   -0.03578116260037511
-0.3493545531559061   0.059138208080951465   0.023244530743063783
-0.3493545531559061   0.059138208080951465   0.023244530743063783
-0.3493545531559061   0.059138208080951465   0.023244530743063783
-0.3493545531559061   0.059138208080951465   0.023244530743063783
-0.46624105664302684   0.004014832965879872   0.008630517193993575
-0.46624105664302684   0.004014832965879872   0.008630517193993575
-0.46624105664302684   0.004014832965879872   0.008630517193993575
-0.46624105664302684   0.004014832965879872   0.008630517193993575
-0.3672827091759612   0.014335641566107601   -0.021593682842365625
-0.3672827091759612   0.014335641566107601   -0.021593682842365625
-0.3672827091759612   0.014335641566107601   -0.021593682842365625
-0.3672827091759612   0.014335641566107601   -0.021593682842365625
-0.556644425222925   0.015944583395449574   0.014566279382573315
-0.556644425222925   0.015944583395449574   0.014566279382573315
-0.556644425222925   0.015944583395449574   0.014566279382573315
-0.556644425222925   0.015944583395449574   0.014566279382573315
-0.5550574311918364   -0.0009157227048828542   -0.03851749198997859
-0.5550574311918364   -0.0009157227048828542   -0.03851749198997859
-0.5550574311918364   -0.0009157227048828542   -0.03851749198997859
-0.5550574311918364   -0.0009157227048828542   -0.03851749198997859
-0.33231090766766075   0.08424502624724278   0.01723777967785109
-0.33231090766766075   0.08424502624724278   0.01723777967785109
-0.33231090766766075   0.08424502624724278   0.01723777967785109
-0.33231090766766075   0.08424502624724278   0.01723777967785109
-0.44897278834757604   0.02728033471099607   0.019216423980990396
-0.44897278834757604   0.02728033471099607   0.019216423980990396
-0.44897278834757604   0.02728033471099607   0.019216423980990396
-0.44897278834757604   0.02728033471099607   0.019216423980990396
-0.6151564888563067   -0.05552463695105031   -0.03500904491410463
-0.6151564888563067   -0.05552463695105031   -0.03500904491410463
-0.6151564888563067   -0.05552463695105031   -0.03500904491410463
-0.6151564888563067   -0.05552463695105031   -0.03500904491410463
-0.8219151779444166   -0.014536708648021507   0.051684714074400194
-0.8219151779444166   -0.014536708648021507   0.051684714074400194
-0.8219151779444166   -0.014536708648021507   0.051684714074400194
-0.8219151779444166   -0.014536708648021507   0.051684714074400194
-0.8105333182680216   -0.07438508874760874   -0.04673927960999863
-0.8105333182680216   -0.07438508874760874   -0.04673927960999863
-0.8105333182680216   -0.07438508874760874   -0.04673927960999863
-0.8105333182680216   -0.07438508874760874   -0.04673927960999863
-0.5589528035505861   0.061537782175109884   0.050950575513153865
-0.5589528035505861   0.061537782175109884   0.050950575513153865
-0.5589528035505861   0.061537782175109884   0.050950575513153865
-0.5589528035505861   0.061537782175109884   0.050950575513153865
-0.6713871561820289   -0.01192082043439685   0.005596550731152283
-0.6713871561820289   -0.01192082043439685   0.005596550731152283
-0.6713871561820289   -0.01192082043439685   0.005596550731152283
-0.6713871561820289   -0.01192082043439685   0.005596550731152283
-0.5953546101147531   -0.029921355184557408   -0.03959931994801054
-0.5953546101147531   -0.029921355184557408   -0.03959931994801054
-0.5953546101147531   -0.029921355184557408   -0.03959931994801054
-0.5953546101147531   -0.029921355184557408   -0.03959931994801054
-0.7730188047495133   0.01818675556639837   0.04826144366852357
-0.7730188047495133   0.01818675556639837   0.04826144366852357
-0.7730188047495133   0.01818675556639837   0.04826144366852357
-0.7730188047495133   0.01818675556639837   0.04826144366852357
-0.7735541562072082   -0.058439222351302486   -0.055633311667840274
-0.7735541562072082   -0.058439222351302486   -0.055633311667840274
-0.7735541562072082   -0.058439222351302486   -0.055633311667840274
-0.7735541562072082   -0.058439222351302486   -0.055633311667840274
-0.5399407456329398   0.07202230981062208   0.04200695091732272
-0.5399407456329398   0.07202230981062208   0.04200695091732272
-0.5399407456329398   0.07202230981062208   0.04200695091732272
-0.5399407456329398   0.07202230981062208   0.04200695091732272
-0.6504557273672991   0.004816879620662656   0.015133249022920736
-0.6504557273672991   0.004816879620662656   0.015133249022920736
-0.6504557273672991   0.004816879620662656   0.015133249022920736
-0.6504557273672991   0.004816879620662656   0.015133249022920736
-0.5752530503058461   -0.016798992803982102   -0.045733269832600384
-0.5752530503058461   -0.016798992803982102   -0.045733269832600384
-0.5752530503058461   -0.016798992803982102   -0.045733269832600384
-0.5752530503058461   -0.016798992803982102   -0.045733269832600384
-0.7368818653823508   0.03174206641525157   0.03754685368988124
-0.7368818653823508   0.03174206641525157   0.03754685368988124
-0.7368818653823508   0.03174206641525157   0.03754685368988124
-0.7368818653823508   0.03174206641525157   0.03754685368988124
-0.7279783973912782   -0.034637813723496697   -0.062047850208245416
-0.7279783973912782   -0.034637813723496697   -0.062047850208245416
-0.7279783973912782   -0.034637813723496697   -0.062047850208245416
-0.7279783973912782   -0.034637813723496697   -0.062047850208245416
-0.5232399067851092   0.08466345078977323   0.03499095654900082
-0.5232399067851092   0.08466345078977323   0.03499095654900082
-0.5232399067851092   0.08466345078977323   0.03499095654900082
-0.5232399067851092   0.08466345078977323   0.03499095654900082
-0.6111644255009786   0.02048954476674769   0.028574017498911107
-0.6111644255009786   0.02048954476674769   0.028574017498911107
-0.6111644255009786   0.02048954476674769   0.028574017498911107
-0.6111644255009786   0.02048954476674769   0.028574017498911107
0.6516919033255163   0.059231787595509774   0.05645850240737371
0.6516919033255163   0.059231787595509774   0.05645850240737371
0.6516919033255163   0.059231787595509774   0.05645850240737371
0.6516919033255163   0.059231787595509774   0.05645850240737371
0.238592535559418   -0.1081835555053672   -0.03715907528662678
0.238592535559418   -0.1081835555053672   -0.03715907528662678
0.238592535559418   -0.1081835555053672   -0.03715907528662678
0.238592535559418   -0.1081835555053672   -0.03715907528662678
0.29450025819688525   -0.000710434707887786   0.040614361225825284
0.29450025819688525   -0.000710434707887786   0.040614361225825284
0.29450025819688525   -0.000710434707887786   0.040614361225825284
0.29450025819688525   -0.000710434707887786   0.040614361225825284
0.6634471535655039   -0.01489664995595194   -0.04744563032848925
0.6634471535655039   -0.01489664995595194   -0.04744563032848925
0.6634471535655039   -0.01489664995595194   -0.04744563032848925
0.6634471535655039   -0.01489664995595194   -0.04744563032848925
0.43363856565759495   -0.019542086158435765   -0.04183235093180984
0.43363856565759495   -0.019542086158435765   -0.04183235093180984
0.43363856565759495   -0.019542086158435765   -0.04183235093180984
0.43363856565759495   -0.019542086158435765   -0.04183235093180984
0.7022357416693944   0.08252826815704212   0.049072392077965626
0.7022357416693944   0.08252826815704212   0.049072392077965626
0.7022357416693944   0.08252826815704212   0.049072392077965626
0.7022357416693944   0.08252826815704212   0.049072392077965626
0.25846125200608205   -0.09538577090779445   -0.044905333528279856
0.25846125200608205   -0.09538577090779445   -0.044905333528279856
0.25846125200608205   -0.09538577090779445   -0.044905333528279856
0.25846125200608205   -0.09538577090779445   -0.044905333528279856
0.31652670197328214   0.01206569172595448   0.03348619947048621
0.31652670197328214   0.01206569172595448   0.03348619947048621
0.31652670197328214   0.01206569172595448   0.03348619947048621
0.31652670197328214   0.01206569172595448   0.03348619947048621
0.7036529757771061   -0.00037849655283331285   -0.059750583388967084
0.7036529757771061   -0.00037849655283331285   -0.059750583388967084
0.7036529757771061   -0.00037849655283331285   -0.059750583388967084
0.7036529757771061   -0.00037849655283331285   -0.059750583388967084
0.4756396190775447   -0.003864904393826446   -0.02534745645134065
0.4756396190775447   -0.003864904393826446   -0.02534745645134065
0.4756396190775447   -0.003864904393826446   -0.02534745645134065
0.4756396190775447   -0.003864904393826446   -0.02534745645134065
0.7428679714667344   0.09818823785984529   0.03775766064648797
0.7428679714667344   0.09818823785984529   0.03775766064648797
0.7428679714667344   0.09818823785984529   0.03775766064648797
0.7428679714667344   0.09818823785984529   0.03775766064648797
0.2802335535555227   -0.0835791954148559   -0.052334655477496626
0.2802335535555227   -0.0835791954148559   -0.052334655477496626
0.2802335535555227   -0.0835791954148559   -0.052334655477496626
0.2802335535555227   -0.0835791954148559   -0.052334655477496626
0.33852341162202804   0.04023777687655913   0.029022360363788108
0.33852341162202804   0.04023777687655913   0.029022360363788108
0.33852341162202804   0.04023777687655913   0.029022360363788108
0.33852341162202804   0.04023777687655913   0.029022360363788108
0.7564583689657813   0.03748257966835622   -0.06444880273437956
0.7564583689657813   0.03748257966835622   -0.06444880273437956
0.7564583689657813   0.03748257966835622   -0.06444880273437956
0.7564583689657813   0.03748257966835622   -0.06444880273437956
0.5015133666259164   0.015215765065087261   -0.01109724796052116
0.5015133666259164   0.015215765065087261   -0.01109724796052116
0.5015133666259164   0.015215765065087261   -0.01109724796052116
0.5015133666259164   0.015215765065087261   -0.01109724796052116
0.2833301900363129   0.033186005880993324   0.04515963571148704
0.2833301900363129   0.033186005880993324   0.04515963571148704
0.2833301900363129   0.033186005880993324   0.04515963571148704
0.2833301900363129   0.033186005880993324   0.04515963571148704
-0.13821392972542168   -0.10094715102635765   -0.019472067399022804
-0.13821392972542168   -0.10094715102635765   -0.019472067399022804
-0.13821392972542168   -0.10094715102635765   -0.019472067399022804
-0.13821392972542168   -0.10094715102635765   -0.019472067399022804
-0.0997873156520421   -0.029610355970799723   0.013658360766015403
-0.0997873156520421   -0.029610355970799723   0.013658360766015403
-0.0997873156520421   -0.029610355970799723   0.013658360766015403
-0.0997873156520421   -0.029610355970799723   0.013658360766015403
0.28552015916761353   0.0009502256962479125   -0.005946794324664646
0.28552015916761353   0.0009502256962479125   -0.005946794324664646
0.28552015916761353   0.0009502256962479125   -0.005946794324664646
0.28552015916761353   0.0009502256962479125   -0.005946794324664646
0.07898372025705772   -0.021305228162737645   -0.017811214581383683
0.07898372025705772   -0.021305228162737645   -0.017811214581383683
0.07898372025705772   -0.021305228162737645   -0.017811214581383683
0.07898372025705772   -0.021305228162737645   -0.017811214581383683
0.30596140203062094   0.05687470379154418   0.040334941895071905
0.30596140203062094   0.05687470379154418   0.040334941895071905
0.30596140203062094   0.05687470379154418   0.040334941895071905
0.30596140203062094   0.05687470379154418   0.040334941895071905
-0.11856902451893792   -0.08387530006998511   -0.025985239469278276
-0.11856902451893792   -0.08387530006998511   -0.025985239469278276
-0.11856902451893792   -0.08387530006998511   -0.025985239469278276
-0.11856902451893792   -0.08387530006998511   -0.025985239469278276
-0.07926964381932217   -0.005693531247201946   0.008629481813597645
-0.07926964381932217   -0.005693531247201946   0.008629481813597645
-0.07926964381932217   -0.005693531247201946   0.008629481813597645
-0.07926964381932217   -0.005693531247201946   0.008629481813597645
0.3096762713235272   0.02240409452575142   -0.01110435657808166
0.3096762713235272   0.02240409452575142   -0.01110435657808166
0.3096762713235272   0.02240409452575142   -0.01110435657808166
0.3096762713235272   0.02240409452575142   -0.01110435657808166
0.09880295970259285   -0.00240946049717047   -0.007081051966164031
0.09880295970259285   -0.00240946049717047   -0.007081051966164031
0.09880295970259285   -0.00240946049717047   -0.007081051966164031
0.09880295970259285   -0.00240946049717047   -0.007081051966164031
0.3309360885427766   0.08178456972607251   0.0358142543178405
0.3309360885427766   0.08178456972607251   0.0358142543178405
0.3309360885427766   0.08178456972607251   0.0358142543178405
0.3309360885427766   0.08178456972607251   0.0358142543178405
-0.09886674437878915   -0.06341128978773614   -0.031638262443203134
-0.09886674437878915   -0.06341128978773614   -0.031638262443203134
-0.09886674437878915   -0.06341128978773614   -0.031638262443203134
-0.09886674437878915   -0.06341128978773614   -0.031638262443203134
-0.05900796120126643   0.0220235035671984   0.00362463703010436
-0.05900796120126643   0.0220235035671984   0.00362463703010436
-0.05900796120126643   0.0220235035671984   0.00362463703010436
-0.05900796120126643   0.0220235035671984   0.00362463703010436
0.3310918770851618   0.04795801353718128   -0.01585554898116137
0.3310918770851618   0.04795801353718128   -0.01585554898116137
0.3310918770851618   0.04795801353718128   -0.01585554898116137
0.3310918770851618   0.04795801353718128   -0.01585554898116137
0.12330615102420842   0.02077129794227501   0.005448627973652129
0.12330615102420842   0.02077129794227501   0.005448627973652129
0.12330615102420842   0.02077129794227501   0.005448627973652129
0.12330615102420842   0.02077129794227501   0.005448627973652129
-0.10884500394908111   0.007213763462962316   0.019211646993360008
-0.10884500394908111   0.007213763462962316   0.019211646993360008
-0.10884500394908111   0.007213763462962316   0.019211646993360008
-0.10884500394908111   0.007213763462962316   0.019211646993360008
-0.507544385760635   -0.08915637569014477   -0.0025879694279097713
-0.507544385760635   -0.08915637569014477   -0.0025879694279097713
-0.507544385760635   -0.08915637569014477   -0.0025879694279097713
-0.507544385760635   -0.08915637569014477   -0.0025879694279097713
-0.48322536717594   -0.05257966285437385   -0.01192012873343103
-0.48322536717594   -0.05257966285437385   -0.01192012873343103
-0.48322536717594   -0.05257966285437385   -0.01192012873343103
-0.48322536717594   -0.05257966285437385   -0.01192012873343103
-0.09136766158168587   0.013383048926667133   0.012763226220329695
-0.09136766158168587   0.013383048926667133   0.012763226220329695
-0.09136766158168587   0.013383048926667133   0.012763226220329695
-0.09136766158168587   0.013383048926667133   0.012763226220329695
-0.2982680204956229   -0.02739841633548718   -0.011122633312736241
-0.2982680204956229   -0.02739841633548718   -0.011122633312736241
-0.2982680204956229   -0.02739841633548718   -0.011122633312736241
-0.2982680204956229   -0.02739841633548718   -0.011122633312736241
-0.08731003146942726   0.03189526264606074   0.014539163062229164
-0.08731003146942726   0.03189526264606074   0.014539163062229164
-0.08731003146942726   0.03189526264606074   0.014539163062229164
-0.08731003146942726   0.03189526264606074   0.014539163062229164
-0.486171382287681   -0.06998026157324981   -0.00924960557325992
-0.486171382287681   -0.06998026157324981   -0.00924960557325992
-0.486171382287681   -0.06998026157324981   -0.00924960557325992
-0.486171382287681   -0.06998026157324981   -0.00924960557325992
-0.4606098187465283   -0.0263388507520025   -0.01610193414165107
-0.4606098187465283   -0.0263388507520025   -0.01610193414165107
-0.4606098187465283   -0.0263388507520025   -0.01610193414165107
-0.4606098187465283   -0.0263388507520025   -0.01610193414165107
-0.07139842511151132   0.035056753066038185   0.007235291039411701
-0.07139842511151132   0.035056753066038185   0.007235291039411701
-0.07139842511151132   0.035056753066038185   0.007235291039411701
-0.07139842511151132   0.035056753066038185   0.007235291039411701
-0.2754562748843833   -0.005444431919426181   -0.0001685803063445554
-0.2754562748843833   -0.005444431919426181   -0.0001685803063445554
-0.2754562748843833   -0.005444431919426181   -0.0001685803063445554
-0.2754562748843833   -0.005444431919426181   -0.0001685803063445554
-0.06650064092995983   0.05754963720190272   0.009231327811306542
-0.06650064092995983   0.05754963720190272   0.009231327811306542
-0.06650064092995983   0.05754963720190272   0.009231327811306542
-0.06650064092995983   0.05754963720190272   0.009231327811306542
-0.464475751385191   -0.047799883344977895   -0.013970564741989048
-0.464475751385191   -0.047799883344977895   -0.013970564741989048
-0.464475751385191   -0.047799883344977895   -0.013970564741989048
-0.464475751385191   -0.047799883344977895   -0.013970564741989048
-0.43955688959904254   -0.00018266325447828524   -0.021096954608769484
-0.43955688959904254   -0.00018266325447828524   -0.021096954608769484
-0.43955688959904254   -0.00018266325447828524   -0.021096954608769484
-0.43955688959904254   -0.00018266325447828524   -0.021096954608769484
-0.05234224657615514   0.05718984887332357   0.0017868648495356076
-0.05234224657615514   0.05718984887332357   0.0017868648495356076
-0.05234224657615514   0.05718984887332357   0.0017868648495356076
-0.05234224657615514   0.05718984887332357   0.0017868648495356076
-0.2545036860439176   0.016427613324559442   0.010253679287746353
-0.2545036860439176   0.016427613324559442   0.010253679287746353
-0.2545036860439176   0.016427613324559442   0.010253679287746353
-0.2545036860439176   0.016427613324559442   0.010253679287746353
-0.4945580198948282   -0.01928482423556921   -0.0075276915534477525
-0.4945580198948282   -0.01928482423556921   -0.0075276915534477525
-0.4945580198948282   -0.01928482423556921   -0.0075276915534477525
-0.4945580198948282   -0.01928482423556921   -0.0075276915534477525
-0.8685695682279385   -0.07227778419159683   0.016685656077098043
-0.8685695682279385   -0.07227778419159683   0.016685656077098043
-0.8685695682279385   -0.07227778419159683   0.016685656077098043
-0.8685695682279385   -0.07227778419159683   0.016685656077098043
-0.8567999451275786   -0.07465266680073411   -0.03585694259741341
-0.8567999451275786   -0.07465266680073411   -0.03585694259741341
-0.8567999451275786   -0.07465266680073411   -0.03585694259741341
-0.8567999451275786   -0.07465266680073411   -0.03585694259741341
-0.45718122459430854   0.03367081948080902   0.03205010183954664
-0.45718122459430854   0.03367081948080902   0.03205010183954664
-0.45718122459430854   0.03367081948080902   0.03205010183954664
-0.45718122459430854   0.03367081948080902   0.03205010183954664
-0.6646473159025594   -0.028970959531266216   -0.003880629911621393
-0.6646473159025594   -0.028970959531266216   -0.003880629911621393
-0.6646473159025594   -0.028970959531266216   -0.003880629911621393
-0.6646473159025594   -0.028970959531266216   -0.003880629911621393
-0.47114864581422206   0.007354787187981243   -0.011470971967193083
-0.47114864581422206   0.007354787187981243   -0.011470971967193083
-0.47114864581422206   0.007354787187981243   -0.011470971967193083
-0.47114864581422206   0.007354787187981243   -0.011470971967193083
-0.8427660551760084   -0.04827016577624971   0.00793000613595278
-0.8427660551760084   -0.04827016577624971   0.00793000613595278
-0.8427660551760084   -0.04827016577624971   0.00793000613595278
-0.8427660551760084   -0.04827016577624971   0.00793000613595278
-0.8272373912327493   -0.04901941012081518   -0.039660722188926224
-0.8272373912327493   -0.04901941012081518   -0.039660722188926224
-0.8272373912327493   -0.04901941012081518   -0.039660722188926224
-0.8272373912327493   -0.04901941012081518   -0.039660722188926224
-0.43613124020967503   0.05433136052802172   0.025620747262595576
-0.43613124020967503   0.05433136052802172   0.025620747262595576
-0.43613124020967503   0.05433136052802172   0.025620747262595576
-0.43613124020967503   0.05433136052802172   0.025620747262595576
-0.6345625908086264   -0.004707897789955923   0.007108571172409185
-0.6345625908086264   -0.004707897789955923   0.007108571172409185
-0.6345625908086264   -0.004707897789955923   0.007108571172409185
-0.6345625908086264   -0.004707897789955923   0.007108571172409185
-0.4492431884849269   0.031158373457837993   -0.01676600704348271
-0.4492431884849269   0.031158373457837993   -0.01676600704348271
-0.4492431884849269   0.031158373457837993   -0.01676600704348271
-0.4492431884849269   0.031158373457837993   -0.01676600704348271
-0.8134221744610727   -0.02514315455420721   0.005539106102848586
-0.8134221744610727   -0.02514315455420721   0.005539106102848586
-0.8134221744610727   -0.02514315455420721   0.005539106102848586
-0.8134221744610727   -0.02514315455420721   0.005539106102848586
-0.8008042498891608   -0.02124179018602107   -0.04170296026696799
-0.8008042498891608   -0.02124179018602107   -0.04170296026696799
-0.8008042498891608   -0.02124179018602107   -0.04170296026696799
-0.8008042498891608   -0.02124179018602107   -0.04170296026696799
-0.415743868148603   0.07704141734552447   0.020744072043429027
-0.415743868148603   0.07704141734552447   0.020744072043429027
-0.415743868148603   0.07704141734552447   0.020744072043429027
-0.415743868148603   0.07704141734552447   0.020744072043429027
-0.6142405920892906   0.016028786294555508   0.016586191026741838
-0.6142405920892906   0.016028786294555508   0.016586191026741838
-0.6142405920892906   0.016028786294555508   0.016586191026741838
-0.6142405920892906   0.016028786294555508   0.016586191026741838
-0.8721837795849783   -0.041383340642461075   -0.03227984425723605
-0.8721837795849783   -0.041383340642461075   -0.03227984425723605
-0.8721837795849783   -0.041383340642461075   -0.03227984425723605
-0.8721837795849783   -0.041383340642461075   -0.03227984425723605
-1.2433190344258778   -0.04486896237562915   0.055924062371910485
-1.2433190344258778   -0.04486896237562915   0.055924062371910485
-1.2433190344258778   -0.04486896237562915   0.055924062371910485
-1.2433190344258778   -0.04486896237562915   0.055924062371910485
-1.2195618002285742   -0.08933498541008739   -0.042804265734844485
-1.2195618002285742   -0.08933498541008739   -0.042804265734844485
-1.2195618002285742   -0.08933498541008739   -0.042804265734844485
-1.2195618002285742   -0.08933498541008739   -0.042804265734844485
-0.8094322793690512   0.06946670725607312   0.056862012138409114
-0.8094322793690512   0.06946670725607312   0.056862012138409114
-0.8094322793690512   0.06946670725607312   0.056862012138409114
-0.8094322793690512   0.06946670725607312   0.056862012138409114
-0.990160228228432   -0.012236837362624736   0.011521803644089196
-0.990160228228432   -0.012236837362624736   0.011521803644089196
-0.990160228228432   -0.012236837362624736   0.011521803644089196
-0.990160228228432   -0.012236837362624736   0.011521803644089196
-0.8444620075353927   -0.012931798343277318   -0.03588812309394503
-0.8444620075353927   -0.012931798343277318   -0.03588812309394503
-0.8444620075353927   -0.012931798343277318   -0.03588812309394503
-0.8444620075353927   -0.012931798343277318   -0.03588812309394503
-1.1839466533854675   -0.006351061133978514   0.05228754420456739
-1.1839466533854675   -0.006351061133978514   0.05228754420456739
-1.1839466533854675   -0.006351061133978514   0.05228754420456739
-1.1839466533854675   -0.006351061133978514   0.05228754420456739
-1.1747901466590587   -0.0734322872327075   -0.05041663327320629
-1.1747901466590587   -0.0734322872327075   -0.05041663327320629
-1.1747901466590587   -0.0734322872327075   -0.05041663327320629
-1.1747901466590587   -0.0734322872327075   -0.05041663327320629
-0.7846334079632271   0.07927434608675887   0.04506543795111076
-0.7846334079632271   0.07927434608675887   0.04506543795111076
-0.7846334079632271   0.07927434608675887   0.04506543795111076
-0.7846334079632271   0.07927434608675887   0.04506543795111076
-0.9671214908582361   0.005124164630883943   0.0206555051350059
-0.9671214908582361   0.005124164630883943   0.0206555051350059
-0.9671214908582361   0.005124164630883943   0.0206555051350059
-0.9671214908582361   0.005124164630883943   0.0206555051350059
-0.8176917062726077   -9.967833548554794e-05   -0.040852029173547535
-0.8176917062726077   -9.967833548554794e-05   -0.040852029173547535
-0.8176917062726077   -9.967833548554794e-05   -0.040852029173547535
-0.8176917062726077   -9.967833548554794e-05   -0.040852029173547535
-1.1411467583559487   0.006526827183268358   0.03784119382634911
-1.1411467583559487   0.006526827183268358   0.03784119382634911
-1.1411467583559487   0.006526827183268358   0.03784119382634911
-1.1411467583559487   0.006526827183268358   0.03784119382634911
-1.1258352127369728   -0.05434609117001893   -0.05746144729809653
-1.1258352127369728   -0.05434609117001893   -0.05746144729809653
-1.1258352127369728   -0.05434609117001893   -0.05746144729809653
-1.1258352127369728   -0.05434609117001893   -0.05746144729809653
-0.7628485162335772   0.08845954097144992   0.03837437685347911
-0.7628485162335772   0.08845954097144992   0.03837437685347911
-0.7628485162335772   0.08845954097144992   0.03837437685347911
-0.7628485162335772   0.08845954097144992   0.03837437685347911
-0.917704126093533   0.019549443789314835   0.03447719590833395
-0.917704126093533   0.019549443789314835   0.03447719590833395
-0.917704126093533   0.019549443789314835   0.03447719590833395
-0.917704126093533   0.019549443789314835   0.03447719590833395
1.0931594419902693   0.08172590865381171   0.057821339078416537
1.0931594419902693   0.08172590865381171   0.057821339078416537
1.0931594419902693   0.08172590865381171   0.057821339078416537
1.0931594419902693   0.08172590865381171   0.057821339078416537
0.48205493610569683   -0.1285702832392917   -0.026609771112777077
0.48205493610569683   -0.1285702832392917   -0.026609771112777077
0.48205493610569683   -0.1285702832392917   -0.026609771112777077
0.48205493610569683   -0.1285702832392917   -0.026609771112777077
0.5373877795504428   -0.022679231011189738   0.039700838410413664
0.5373877795504428   -0.022679231011189738   0.039700838410413664
0.5373877795504428   -0.022679231011189738   0.039700838410413664
0.5373877795504428   -0.022679231011189738   0.039700838410413664
1.1051517647854416   -0.0018566950841276686   -0.04168091639124749
1.1051517647854416   -0.0018566950841276686   -0.04168091639124749
1.1051517647854416   -0.0018566950841276686   -0.04168091639124749
1.1051517647854416   -0.0018566950841276686   -0.04168091639124749
0.7573282904904911   -0.022892232852708833   -0.05917552800857993
0.7573282904904911   -0.022892232852708833   -0.05917552800857993
0.7573282904904911   -0.022892232852708833   -0.05917552800857993
0.7573282904904911   -0.022892232852708833   -0.05917552800857993
1.143592976245803   0.10029610817590351   0.04837233765051964
1.143592976245803   0.10029610817590351   0.04837233765051964
1.143592976245803   0.10029610817590351   0.04837233765051964
1.143592976245803   0.10029610817590351   0.04837233765051964
0.5026396717863897   -0.12113893057491272   -0.0355800008461208
0.5026396717863897   -0.12113893057491272   -0.0355800008461208
0.5026396717863897   -0.12113893057491272   -0.0355800008461208
0.5026396717863897   -0.12113893057491272   -0.0355800008461208
0.5590000093869332   -0.010940686174144343   0.03209143489462
0.5590000093869332   -0.010940686174144343   0.03209143489462
0.5590000093869332   -0.010940686174144343   0.03209143489462
0.5590000093869332   -0.010940686174144343   0.03209143489462
1.1429588623683857   0.011084274479258499   -0.05206212862576663
1.1429588623683857   0.011084274479258499   -0.05206212862576663
1.1429588623683857   0.011084274479258499   -0.05206212862576663
1.1429588623683857   0.011084274479258499   -0.05206212862576663
0.8048315557069424   -0.009067534265217198   -0.04026234859443685
0.8048315557069424   -0.009067534265217198   -0.04026234859443685
0.8048315557069424   -0.009067534265217198   -0.04026234859443685
0.8048315557069424   -0.009067534265217198   -0.04026234859443685
1.1811727125830798   0.11424487239296124   0.035846524534001147
1.1811727125830798   0.11424487239296124   0.035846524534001147
1.1811727125830798   0.11424487239296124   0.035846524534001147
1.1811727125830798   0.11424487239296124   0.035846524534001147
0.5240169855044752   -0.11087045775561102   -0.04289391293620361
0.5240169855044752   -0.11087045775561102   -0.04289391293620361
0.5240169855044752   -0.11087045775561102   -0.04289391293620361
0.5240169855044752   -0.11087045775561102   -0.04289391293620361
0.5785818245207367   0.020424165506173597   0.02813567089975208
0.5785818245207367   0.020424165506173597   0.02813567089975208
0.5785818245207367   0.020424165506173597   0.02813567089975208
0.5785818245207367   0.020424165506173597   0.02813567089975208
1.1894857278260953   0.048954326514148466   -0.054513720566849645
1.1894857278260953   0.048954326514148466   -0.054513720566849645
1.1894857278260953   0.048954326514148466   -0.054513720566849645
1.1894857278260953   0.048954326514148466   -0.054513720566849645
0.8225427215890261   0.009554608563676376   -0.027180199454216722
0.8225427215890261   0.009554608563676376   -0.027180199454216722
0.8225427215890261   0.009554608563676376   -0.027180199454216722
0.8225427215890261   0.009554608563676376   -0.027180199454216722
0.5332536013904285   0.04783618590911755   0.05297708616247228
0.5332536013904285   0.04783618590911755   0.05297708616247228
0.5332536013904285   0.04783618590911755   0.05297708616247228
0.5332536013904285   0.04783618590911755   0.05297708616247228
-0.0662275418590138   -0.15834674936761306   -0.015163203737761966
-0.0662275418590138   -0.15834674936761306   -0.015163203737761966
-0.0662275418590138   -0.15834674936761306   -0.015163203737761966
-0.0662275418590138   -0.15834674936761306   -0.015163203737761966
-0.018600967426415524   -0.05599651010875914   0.013440653244298509
-0.018600967426415524   -0.05599651010875914   0.013440653244298509
-0.018600967426415524   -0.05599651010875914   0.013440653244298509
-0.018600967426415524   -0.05599651010875914   0.013440653244298509
0.5287219055277753   -0.028954535111341842   0.002646772397228596
0.5287219055277753   -0.028954535111341842   0.002646772397228596
0.5287219055277753   -0.028954535111341842   0.002646772397228596
0.5287219055277753   -0.028954535111341842   0.002646772397228596
0.23766570504836304   -0.044064838216699695   -0.028171090744984716
0.23766570504836304   -0.044064838216699695   -0.028171090744984716
0.23766570504836304   -0.044064838216699695   -0.028171090744984716
0.23766570504836304   -0.044064838216699695   -0.028171090744984716
0.5565135986839209   0.06572367756481015   0.04692702550180847
0.5565135986839209   0.06572367756481015   0.04692702550180847
0.5565135986839209   0.06572367756481015   0.04692702550180847
0.5565135986839209   0.06572367756481015   0.04692702550180847
-0.04444340908282817   -0.14872547128517755   -0.02304259386134634
-0.04444340908282817   -0.14872547128517755   -0.02304259386134634
-0.04444340908282817   -0.14872547128517755   -0.02304259386134634
-0.04444340908282817   -0.14872547128517755   -0.02304259386134634
0.003435981164225584   -0.0349842998481482   0.008193961711721804
0.003435981164225584   -0.0349842998481482   0.008193961711721804
0.003435981164225584   -0.0349842998481482   0.008193961711721804
0.003435981164225584   -0.0349842998481482   0.008193961711721804
0.5512993479982189   -0.013110232278602349   -0.004242325944493287
0.5512993479982189   -0.013110232278602349   -0.004242325944493287
0.5512993479982189   -0.013110232278602349   -0.004242325944493287
0.5512993479982189   -0.013110232278602349   -0.004242325944493287
0.25679676085438874   -0.031161247342863463   -0.018255508709490897
0.25679676085438874   -0.031161247342863463   -0.018255508709490897
0.25679676085438874   -0.031161247342863463   -0.018255508709490897
0.25679676085438874   -0.031161247342863463   -0.018255508709490897
0.5805843397339956   0.08718421634551593   0.04188818411027233
0.5805843397339956   0.08718421634551593   0.04188818411027233
0.5805843397339956   0.08718421634551593   0.04188818411027233
0.5805843397339956   0.08718421634551593   0.04188818411027233
-0.02468686177179752   -0.1341165996725128   -0.03328795314402912
-0.02468686177179752   -0.1341165996725128   -0.03328795314402912
-0.02468686177179752   -0.1341165996725128   -0.03328795314402912
-0.02468686177179752   -0.1341165996725128   -0.03328795314402912
0.020736073251613866   -0.010363672526255169   0.0028918245351736644
0.020736073251613866   -0.010363672526255169   0.0028918245351736644
0.020736073251613866   -0.010363672526255169   0.0028918245351736644
0.020736073251613866   -0.010363672526255169   0.0028918245351736644
0.5681987382086702   0.0071065630748597675   -0.010462158229270803
0.5681987382086702   0.0071065630748597675   -0.010462158229270803
0.5681987382086702   0.0071065630748597675   -0.010462158229270803
0.5681987382086702   0.0071065630748597675   -0.010462158229270803
0.28026200296739073   -0.011855710014733192   -0.007609484981708423
0.28026200296739073   -0.011855710014733192   -0.007609484981708423
0.28026200296739073   -0.011855710014733192   -0.007609484981708423
0.28026200296739073   -0.011855710014733192   -0.007609484981708423
-0.023575544681351136   0.013420827473229565   0.026329205309708746
-0.023575544681351136   0.013420827473229565   0.026329205309708746
-0.023575544681351136   0.013420827473229565   0.026329205309708746
-0.023575544681351136   0.013420827473229565   0.026329205309708746
-0.610264335477151   -0.19865571301268292   -0.012175132905294605
-0.610264335477151   -0.19865571301268292   -0.012175132905294605
-0.610264335477151   -0.19865571301268292   -0.012175132905294605
-0.610264335477151   -0.19865571301268292   -0.012175132905294605
-0.5621238462818308   -0.08589099014193532   -0.012850784422507045
-0.5621238462818308   -0.08589099014193532   -0.012850784422507045
-0.5621238462818308   -0.08589099014193532   -0.012850784422507045
-0.5621238462818308   -0.08589099014193532   -0.012850784422507045
-0.02130654255435182   -0.06797839875069596   0.011894666246553852
-0.02130654255435182   -0.06797839875069596   0.011894666246553852
-0.02130654255435182   -0.06797839875069596   0.011894666246553852
-0.02130654255435182   -0.06797839875069596   0.011894666246553852
-0.3056956065309192   -0.08023067835800554   -0.025156778319770035
-0.3056956065309192   -0.08023067835800554   -0.025156778319770035
-0.3056956065309192   -0.08023067835800554   -0.025156778319770035
-0.3056956065309192   -0.08023067835800554   -0.025156778319770035
0.0009023270092625973   0.03356377038630895   0.02139684492762102
0.0009023270092625973   0.03356377038630895   0.02139684492762102
0.0009023270092625973   0.03356377038630895   0.02139684492762102
0.0009023270092625973   0.03356377038630895   0.02139684492762102
-0.5829238644285423   -0.18602430786203733   -0.016717557435962614
-0.5829238644285423   -0.18602430786203733   -0.016717557435962614
-0.5829238644285423   -0.18602430786203733   -0.016717557435962614
-0.5829238644285423   -0.18602430786203733   -0.016717557435962614
-0.5347879839270174   -0.06256624127317398   -0.017490121841112427
-0.5347879839270174   -0.06256624127317398   -0.017490121841112427
-0.5347879839270174   -0.06256624127317398   -0.017490121841112427
-0.5347879839270174   -0.06256624127317398   -0.017490121841112427
-0.0007788571549691078   -0.05274995042805069   0.0048854206956508404
-0.0007788571549691078   -0.05274995042805069   0.0048854206956508404
-0.0007788571549691078   -0.05274995042805069   0.0048854206956508404
-0.0007788571549691078   -0.05274995042805069   0.0048854206956508404
-0.2791590804062528   -0.06345747795462485   -0.013958900463735397
-0.2791590804062528   -0.06345747795462485   -0.013958900463735397
-0.2791590804062528   -0.06345747795462485   -0.013958900463735397
-0.2791590804062528   -0.06345747795462485   -0.013958900463735397
0.023300810954610267   0.05588025352872786   0.016653557286769167
0.023300810954610267   0.05588025352872786   0.016653557286769167
0.023300810954610267   0.05588025352872786   0.016653557286769167
0.023300810954610267   0.05588025352872786   0.016653557286769167
-0.5588695573935331   -0.1711983505868837   -0.02926587985998095
-0.5588695573935331   -0.1711983505868837   -0.02926587985998095
-0.5588695573935331   -0.1711983505868837   -0.02926587985998095
-0.5588695573935331   -0.1711983505868837   -0.02926587985998095
-0.5154691420160435   -0.04032787127541693   -0.02267484045424776
-0.5154691420160435   -0.04032787127541693   -0.02267484045424776
-0.5154691420160435   -0.04032787127541693   -0.02267484045424776
-0.5154691420160435   -0.04032787127541693   -0.02267484045424776
0.01269615764641408   -0.040569497242663496   -0.007101928774416936
0.01269615764641408   -0.040569497242663496   -0.007101928774416936
0.01269615764641408   -0.040569497242663496   -0.007101928774416936
0.01269615764641408   -0.040569497242663496   -0.007101928774416936
-0.2596971241870596   -0.04780767113063035   -0.006939977497586215
-0.2596971241870596   -0.04780767113063035   -0.006939977497586215
-0.2596971241870596   -0.04780767113063035   -0.006939977497586215
-0.2596971241870596   -0.04780767113063035   -0.006939977497586215
-0.5715393011314986   -0.01637499735472127   -0.0008306768349947598
-0.5715393011314986   -0.01637499735472127   -0.0008306768349947598
-0.5715393011314986   -0.01637499735472127   -0.0008306768349947598
-0.5715393011314986   -0.01637499735472127   -0.0008306768349947598
-1.1568795502064637   -0.21357862770256572   -0.009772130232551792
-1.1568795502064637   -0.21357862770256572   -0.009772130232551792
-1.1568795502064637   -0.21357862770256572   -0.009772130232551792
-1.1568795502064637   -0.21357862770256572   -0.009772130232551792
-1.1052195991780354   -0.10998399422787489   -0.038185592120176914
-1.1052195991780354   -0.10998399422787489   -0.038185592120176914
-1.1052195991780354   -0.10998399422787489   -0.038185592120176914
-1.1052195991780354   -0.10998399422787489   -0.038185592120176914
-0.551464711186751   -0.07063502803697147   0.02518892894792766
-0.551464711186751   -0.07063502803697147   0.02518892894792766
-0.551464711186751   -0.07063502803697147   0.02518892894792766
-0.551464711186751   -0.07063502803697147   0.02518892894792766
-0.8388737250317964   -0.09648876670787299   -0.017726626534795224
-0.8388737250317964   -0.09648876670787299   -0.017726626534795224
-0.8388737250317964   -0.09648876670787299   -0.017726626534795224
-0.8388737250317964   -0.09648876670787299   -0.017726626534795224
-0.5413400550680757   0.0095537244325158   -0.004376542928183069
-0.5413400550680757   0.0095537244325158   -0.004376542928183069
-0.5413400550680757   0.0095537244325158   -0.004376542928183069
-0.5413400550680757   0.0095537244325158   -0.004376542928183069
-1.11577854694928   -0.19060703834992504   -0.01035728685434174
-1.11577854694928   -0.19060703834992504   -0.01035728685434174
-1.11577854694928   -0.19060703834992504   -0.01035728685434174
-1.11577854694928   -0.19060703834992504   -0.01035728685434174
-1.0661330263295565   -0.08563647618372414   -0.04421665017625211
-1.0661330263295565   -0.08563647618372414   -0.04421665017625211
-1.0661330263295565   -0.08563647618372414   -0.04421665017625211
-1.0661330263295565   -0.08563647618372414   -0.04421665017625211
-0.5249259073293443   -0.052360729735167984   0.021614749609250847
-0.5249259073293443   -0.052360729735167984   0.021614749609250847
-0.5249259073293443   -0.052360729735167984   0.021614749609250847
-0.5249259073293443   -0.052360729735167984   0.021614749609250847
-0.7986873491609593   -0.07312856404886753   -0.005799035803452965
-0.7986873491609593   -0.07312856404886753   -0.005799035803452965
-0.7986873491609593   -0.07312856404886753   -0.005799035803452965
-0.7986873491609593   -0.07312856404886753   -0.005799035803452965
-0.513941339970876   0.03206713538045504   -0.007890278714036796
-0.513941339970876   0.03206713538045504   -0.007890278714036796
-0.513941339970876   0.03206713538045504   -0.007890278714036796
-0.513941339970876   0.03206713538045504   -0.007890278714036796
-1.0789912327504394   -0.1719379803617613   -0.022206178102620558
-1.0789912327504394   -0.1719379803617613   -0.022206178102620558
-1.0789912327504394   -0.1719379803617613   -0.022206178102620558
-1.0789912327504394   -0.1719379803617613   -0.022206178102620558
-1.034440113559445   -0.05997272531929221   -0.04563039586984324
-1.034440113559445   -0.05997272531929221   -0.04563039586984324
-1.034440113559445   -0.05997272531929221   -0.04563039586984324
-1.034440113559445   -0.05997272531929221   -0.04563039586984324
-0.5096847039838822   -0.04074273542348229   0.00666221385462951
-0.5096847039838822   -0.04074273542348229   0.00666221385462951
-0.5096847039838822   -0.04074273542348229   0.00666221385462951
-0.5096847039838822   -0.04074273542348229   0.00666221385462951
-0.7765688789778384   -0.058891336067153494   -0.0019004464828326836
-0.7765688789778384   -0.058891336067153494   -0.0019004464828326836
-0.7765688789778384   -0.058891336067153494   -0.0019004464828326836
-0.7765688789778384   -0.058891336067153494   -0.0019004464828326836
-1.1253812321893286   -0.03803170664381972   -0.02782746120562224
-1.1253812321893286   -0.03803170664381972   -0.02782746120562224
-1.1253812321893286   -0.03803170664381972   -0.02782746120562224
-1.1253812321893286   -0.03803170664381972   -0.02782746120562224
-1.696980803894613   -0.14458418791080174   0.06396485447277248
-1.696980803894613   -0.14458418791080174   0.06396485447277248
-1.696980803894613   -0.14458418791080174   0.06396485447277248
-1.696980803894613   -0.14458418791080174   0.06396485447277248
-1.6389632496351745   -0.11526884048312272   -0.03728475629144678
-1.6389632496351745   -0.11526884048312272   -0.03728475629144678
-1.6389632496351745   -0.11526884048312272   -0.03728475629144678
-1.6389632496351745   -0.11526884048312272   -0.03728475629144678
-1.0577356227447234   0.030398262515157426   0.058852033303340504
-1.0577356227447234   0.030398262515157426   0.058852033303340504
-1.0577356227447234   0.030398262515157426   0.058852033303340504
-1.0577356227447234   0.030398262515157426   0.058852033303340504
-1.3180143459246916   -0.04531969532945765   0.006418701196162689
-1.3180143459246916   -0.04531969532945765   0.006418701196162689
-1.3180143459246916   -0.04531969532945765   0.006418701196162689
-1.3180143459246916   -0.04531969532945765   0.006418701196162689
-1.0822846435014153   -0.00264594132589252   -0.030848866639054888
-1.0822846435014153   -0.00264594132589252   -0.030848866639054888
-1.0822846435014153   -0.00264594132589252   -0.030848866639054888
-1.0822846435014153   -0.00264594132589252   -0.030848866639054888
-1.6104557308295158   -0.07826613859310588   0.06825013584681623
-1.6104557308295158   -0.07826613859310588   0.06825013584681623
-1.6104557308295158   -0.07826613859310588   0.06825013584681623
-1.6104557308295158   -0.07826613859310588   0.06825013584681623
-1.576711630919586   -0.09703482698939675   -0.04440220447333919
-1.576711630919586   -0.09703482698939675   -0.04440220447333919
-1.576711630919586   -0.09703482698939675   -0.04440220447333919
-1.576711630919586   -0.09703482698939675   -0.04440220447333919
-1.0190891625642173   0.048553495645053624   0.05681269682166655
-1.0190891625642173   0.048553495645053624   0.05681269682166655
-1.0190891625642173   0.048553495645053624   0.05681269682166655
-1.0190891625642173   0.048553495645053624   0.05681269682166655
-1.2813642730313548   -0.0182797608465734   0.026281999159546196
-1.2813642730313548   -0.0182797608465734   0.026281999159546196
-1.2813642730313548   -0.0182797608465734   0.026281999159546196
-1.2813642730313548   -0.0182797608465734   0.026281999159546196
-1.044502636731988   0.011622647556971344   -0.03332382592909648
-1.044502636731988   0.011622647556971344   -0.03332382592909648
-1.044502636731988   0.011622647556971344   -0.03332382592909648
-1.044502636731988   0.011622647556971344   -0.03332382592909648
-1.5504908715316126   -0.05929669368110818   0.048963459158252884
-1.5504908715316126   -0.05929669368110818   0.048963459158252884
-1.5504908715316126   -0.05929669368110818   0.048963459158252884
-1.5504908715316126   -0.05929669368110818   0.048963459158252884
-1.5123205078496187   -0.07984324690027278   -0.0536675708890928
-1.5123205078496187   -0.07984324690027278   -0.0536675708890928
-1.5123205078496187   -0.07984324690027278   -0.0536675708890928
-1.5123205078496187   -0.07984324690027278   -0.0536675708890928
-0.9904881918369585   0.07022871772573122   0.04392776969757414
-0.9904881918369585   0.07022871772573122   0.04392776969757414
-0.9904881918369585   0.07022871772573122   0.04392776969757414
-0.9904881918369585   0.07022871772573122   0.04392776969757414
-1.2120746116188401   0.004823268787968682   0.04621365076532925
-1.2120746116188401   0.004823268787968682   0.04621365076532925
-1.2120746116188401   0.004823268787968682   0.04621365076532925
-1.2120746116188401   0.004823268787968682   0.04621365076532925
1.4920609133642961   0.08954928844088886   0.053982110029526305
1.4920609133642961   0.08954928844088886   0.053982110029526305
1.4920609133642961   0.08954928844088886   0.053982110029526305
1.4920609133642961   0.08954928844088886   0.053982110029526305
0.7110690499205199   -0.13304560845488467   0.011968822520433187
0.7110690499205199   -0.13304560845488467   0.011968822520433187
0.7110690499205199   -0.13304560845488467   0.011968822520433187
0.7110690499205199   -0.13304560845488467   0.011968822520433187
0.7502115898970906   -0.05620981617175275   0.04149365305900908
0.7502115898970906   -0.05620981617175275   0.04149365305900908
0.7502115898970906   -0.05620981617175275   0.04149365305900908
0.7502115898970906   -0.05620981617175275   0.04149365305900908
1.499866430988722   0.012952447525522492   -0.012104471181901999
1.499866430988722   0.012952447525522492   -0.012104471181901999
1.499866430988722   0.012952447525522492   -0.012104471181901999
1.499866430988722   0.012952447525522492   -0.012104471181901999
1.0488923602616163   -0.028518567490124352   -0.06962689984860584
1.0488923602616163   -0.028518567490124352   -0.06962689984860584
1.0488923602616163   -0.028518567490124352   -0.06962689984860584
1.0488923602616163   -0.028518567490124352   -0.06962689984860584
1.528157145033812   0.09961739463133673   0.042684151937734685
1.528157145033812   0.09961739463133673   0.042684151937734685
1.528157145033812   0.09961739463133673   0.042684151937734685
1.528157145033812   0.09961739463133673   0.042684151937734685
0.7287018641951705   -0.13609377493439687   0.013828983312052678
0.7287018641951705   -0.13609377493439687   0.013828983312052678
0.7287018641951705   -0.13609377493439687   0.013828983312052678
0.7287018641951705   -0.13609377493439687   0.013828983312052678
0.7650152233786797   -0.04777859216256819   0.031567177154806086
0.7650152233786797   -0.04777859216256819   0.031567177154806086
0.7650152233786797   -0.04777859216256819   0.031567177154806086
0.7650152233786797   -0.04777859216256819   0.031567177154806086
1.5260699755084317   0.02245400670491271   -0.0037842171494507915
1.5260699755084317   0.02245400670491271   -0.0037842171494507915
1.5260699755084317   0.02245400670491271   -0.0037842171494507915
1.5260699755084317   0.02245400670491271   -0.0037842171494507915
1.0920809086121261   -0.022537123125692754   -0.04758712228791136
1.0920809086121261   -0.022537123125692754   -0.04758712228791136
1.0920809086121261   -0.022537123125692754   -0.04758712228791136
1.0920809086121261   -0.022537123125692754   -0.04758712228791136
1.550013129634776   0.10882055474593871   0.029565005441244144
1.550013129634776   0.10882055474593871   0.029565005441244144
1.550013129634776   0.10882055474593871   0.029565005441244144
1.550013129634776   0.10882055474593871   0.029565005441244144
0.7457888900547969   -0.12942831940113286   0.0170852377739565
0.7457888900547969   -0.12942831940113286   0.0170852377739565
0.7457888900547969   -0.12942831940113286   0.0170852377739565
0.7457888900547969   -0.12942831940113286   0.0170852377739565
0.7868128727283075   -0.014905863729279573   0.028858183313828785
0.7868128727283075   -0.014905863729279573   0.028858183313828785
0.7868128727283075   -0.014905863729279573   0.028858183313828785
0.7868128727283075   -0.014905863729279573   0.028858183313828785
1.5533398394955256   0.04426460508761526   -0.0007101874156369703
1.5533398394955256   0.04426460508761526   -0.0007101874156369703
1.5533398394955256   0.04426460508761526   -0.0007101874156369703
1.5533398394955256   0.04426460508761526   -0.0007101874156369703
1.0973737198552607   -0.010347618260669683   -0.03560038162184947
1.0973737198552607   -0.010347618260669683   -0.03560038162184947
1.0973737198552607   -0.010347618260669683   -0.03560038162184947
1.0973737198552607   -0.010347618260669683   -0.03560038162184947
0.7504895351375902   0.01936202900786671   0.05666361114303288
0.7504895351375902   0.01936202900786671   0.05666361114303288
0.7504895351375902   0.01936202900786671   0.05666361114303288
0.7504895351375902   0.01936202900786671   0.05666361114303288
0.0389594060655577   -0.26468574509383586   0.027067242209017836
0.0389594060655577   -0.26468574509383586   0.027067242209017836
0.0389594060655577   -0.26468574509383586   0.027067242209017836
0.0389594060655577   -0.26468574509383586   0.027067242209017836
0.089925384258453   -0.11218317455500128   0.025300096448253755
0.089925384258453   -0.11218317455500128   0.025300096448253755
0.089925384258453   -0.11218317455500128   0.025300096448253755
0.089925384258453   -0.11218317455500128   0.025300096448253755
0.7312659104626251   -0.12671823050408926   0.017273670219012535
0.7312659104626251   -0.12671823050408926   0.017273670219012535
0.7312659104626251   -0.12671823050408926   0.017273670219012535
0.7312659104626251   -0.12671823050408926   0.017273670219012535
0.38959210894843305   -0.11848634945325247   -0.044438810394465685
0.38959210894843305   -0.11848634945325247   -0.044438810394465685
0.38959210894843305   -0.11848634945325247   -0.044438810394465685
0.38959210894843305   -0.11848634945325247   -0.044438810394465685
0.7681974639704982   0.027878219623847594   0.047334987630452956
0.7681974639704982   0.027878219623847594   0.047334987630452956
0.7681974639704982   0.027878219623847594   0.047334987630452956
0.7681974639704982   0.027878219623847594   0.047334987630452956
0.06274517259518139   -0.25702828283834495   0.03424414641523926
0.06274517259518139   -0.25702828283834495   0.03424414641523926
0.06274517259518139   -0.25702828283834495   0.03424414641523926
0.06274517259518139   -0.25702828283834495   0.03424414641523926
0.11040081917318575   -0.09677833713054769   0.018315678620782413
0.11040081917318575   -0.09677833713054769   0.018315678620782413
0.11040081917318575   -0.09677833713054769   0.018315678620782413
0.11040081917318575   -0.09677833713054769   0.018315678620782413
0.748798541400874   -0.11863491553071917   0.02134009063392893
0.748798541400874   -0.11863491553071917   0.02134009063392893
0.748798541400874   -0.11863491553071917   0.02134009063392893
0.748798541400874   -0.11863491553071917   0.02134009063392893
0.40700424792838197   -0.11257741484043474   -0.022222180355618862
0.40700424792838197   -0.11257741484043474   -0.022222180355618862
0.40700424792838197   -0.11257741484043474   -0.022222180355618862
0.40700424792838197   -0.11257741484043474   -0.022222180355618862
0.7847181028737791   0.042402150315796056   0.03990083215193859
0.7847181028737791   0.042402150315796056   0.03990083215193859
0.7847181028737791   0.042402150315796056   0.03990083215193859
0.7847181028737791   0.042402150315796056   0.03990083215193859
0.08386131418702368   -0.24843534649032512   0.03727516304974951
0.08386131418702368   -0.24843534649032512   0.03727516304974951
0.08386131418702368   -0.24843534649032512   0.03727516304974951
0.08386131418702368   -0.24843534649032512   0.03727516304974951
0.14183841213853834   -0.07365102726958783   0.012110216118623049
0.14183841213853834   -0.07365102726958783   0.012110216118623049
0.14183841213853834   -0.07365102726958783   0.012110216118623049
0.14183841213853834   -0.07365102726958783   0.012110216118623049
0.7679790696107253   -0.10635469464060687   0.026137998637247
0.7679790696107253   -0.10635469464060687   0.026137998637247
0.7679790696107253   -0.10635469464060687   0.026137998637247
0.7679790696107253   -0.10635469464060687   0.026137998637247
0.4375962565446146   -0.09828347493077116   0.0036391110257004977
0.4375962565446146   -0.09828347493077116   0.0036391110257004977
0.4375962565446146   -0.09828347493077116   0.0036391110257004977
0.4375962565446146   -0.09828347493077116   0.0036391110257004977
0.0837545171504041   -0.05012125449852514   0.036478307037939195
0.0837545171504041   -0.05012125449852514   0.036478307037939195
0.0837545171504041   -0.05012125449852514   0.036478307037939195
0.0837545171504041   -0.05012125449852514   0.036478307037939195
-0.638599050791082   -0.45440049195803506   0.03929543170796275
-0.638599050791082   -0.45440049195803506   0.03929543170796275
-0.638599050791082   -0.45440049195803506   0.03929543170796275
-0.638599050791082   -0.45440049195803506   0.03929543170796275
-0.5580690434325339   -0.1771987693275105   0.002555314240663277
-0.5580690434325339   -0.1771987693275105   0.002555314240663277
-0.5580690434325339   -0.1771987693275105   0.002555314240663277
-0.5580690434325339   -0.1771987693275105   0.002555314240663277
0.04431695319058959   -0.33000094508238   0.015075711636315395
0.04431695319058959   -0.33000094508238   0.015075711636315395
0.04431695319058959   -0.33000094508238   0.015075711636315395
0.04431695319058959   -0.33000094508238   0.015075711636315395
-0.2754640712306964   -0.25473759475181257   -0.053318976860937825
-0.2754640712306964   -0.25473759475181257   -0.053318976860937825
-0.2754640712306964   -0.25473759475181257   -0.053318976860937825
-0.2754640712306964   -0.25473759475181257   -0.053318976860937825
0.10519532173398013   -0.03930303107346893   0.028769640344357042
0.10519532173398013   -0.03930303107346893   0.028769640344357042
0.10519532173398013   -0.03930303107346893   0.028769640344357042
0.10519532173398013   -0.03930303107346893   0.028769640344357042
-0.6048215634581227   -0.4537708348186293   0.045364779603842637
-0.6048215634581227   -0.4537708348186293   0.045364779603842637
-0.6048215634581227   -0.4537708348186293   0.045364779603842637
-0.6048215634581227   -0.4537708348186293   0.045364779603842637
-0.5270037482158142   -0.1589976534411935   -0.00012820330924862705
-0.5270037482158142   -0.1589976534411935   -0.00012820330924862705
-0.5270037482158142   -0.1589976534411935   -0.00012820330924862705
-0.5270037482158142   -0.1589976534411935   -0.00012820330924862705
0.06590692554215657   -0.3226785668643458   0.021746440199434516
0.06590692554215657   -0.3226785668643458   0.021746440199434516
0.06590692554215657   -0.3226785668643458   0.021746440199434516
0.06590692554215657   -0.3226785668643458   0.021746440199434516
-0.24398838124463695   -0.24597937833978048   -0.019845668249269012
-0.24398838124463695   -0.24597937833978048   -0.019845668249269012
-0.24398838124463695   -0.24597937833978048   -0.019845668249269012
-0.24398838124463695   -0.24597937833978048   -0.019845668249269012
0.12479857764144636   -0.024921934034653398   0.01844806786619116
0.12479857764144636   -0.024921934034653398   0.01844806786619116
0.12479857764144636   -0.024921934034653398   0.01844806786619116
0.12479857764144636   -0.024921934034653398   0.01844806786619116
-0.5731578691215371   -0.44401675507730753   0.054120293798258196
-0.5731578691215371   -0.44401675507730753   0.054120293798258196
-0.5731578691215371   -0.44401675507730753   0.054120293798258196
-0.5731578691215371   -0.44401675507730753   0.054120293798258196
-0.47573718635763096   -0.1380372160371603   -0.00600717874285586
-0.47573718635763096   -0.1380372160371603   -0.00600717874285586
-0.47573718635763096   -0.1380372160371603   -0.00600717874285586
-0.47573718635763096   -0.1380372160371603   -0.00600717874285586
0.09960543487504347   -0.30234729496154833   0.029641597493109212
0.09960543487504347   -0.30234729496154833   0.029641597493109212
0.09960543487504347   -0.30234729496154833   0.029641597493109212
0.09960543487504347   -0.30234729496154833   0.029641597493109212
-0.20315420763197495   -0.22646328663502674   0.01515194096263113
-0.20315420763197495   -0.22646328663502674   0.01515194096263113
-0.20315420763197495   -0.22646328663502674   0.01515194096263113
-0.20315420763197495   -0.22646328663502674   0.01515194096263113
-0.5702643249406528   -0.09082286900206116   0.017391438004129366
-0.5702643249406528   -0.09082286900206116   0.017391438004129366
-0.5702643249406528   -0.09082286900206116   0.017391438004129366
-0.5702643249406528   -0.09082286900206116   0.017391438004129366
-1.4196292263845183   -0.706972848591813   -0.033021987266536795
-1.4196292263845183   -0.706972848591813   -0.033021987266536795
-1.4196292263845183   -0.706972848591813   -0.033021987266536795
-1.4196292263845183   -0.706972848591813   -0.033021987266536795
-1.2867807897978283   -0.23056600007377992   -0.03914985262506794
-1.2867807897978283   -0.23056600007377992   -0.03914985262506794
-1.2867807897978283   -0.23056600007377992   -0.03914985262506794
-1.2867807897978283   -0.23056600007377992   -0.03914985262506794
-0.6388729762504632   -0.590653220153488   0.011990100976994794
-0.6388729762504632   -0.590653220153488   0.011990100976994794
-0.6388729762504632   -0.590653220153488   0.011990100976994794
-0.6388729762504632   -0.590653220153488   0.011990100976994794
-0.977791826289123   -0.4181914323610729   -0.056037547141366516
-0.977791826289123   -0.4181914323610729   -0.056037547141366516
-0.977791826289123   -0.4181914323610729   -0.056037547141366516
-0.977791826289123   -0.4181914323610729   -0.056037547141366516
-0.5335747789521404   -0.06877437826383728   0.01660224557895736
-0.5335747789521404   -0.06877437826383728   0.01660224557895736
-0.5335747789521404   -0.06877437826383728   0.01660224557895736
-0.5335747789521404   -0.06877437826383728   0.01660224557895736
-1.388800643365849   -0.7491664982331168   -0.03064862230582424
-1.388800643365849   -0.7491664982331168   -0.03064862230582424
-1.388800643365849   -0.7491664982331168   -0.03064862230582424
-1.388800643365849   -0.7491664982331168   -0.03064862230582424
-1.2453911136983922   -0.20875874941423933   -0.039910142417027394
-1.2453911136983922   -0.20875874941423933   -0.039910142417027394
-1.2453911136983922   -0.20875874941423933   -0.039910142417027394
-1.2453911136983922   -0.20875874941423933   -0.039910142417027394
-0.6087311138271747   -0.5859164344174981   0.018153749610257314
-0.6087311138271747   -0.5859164344174981   0.018153749610257314
-0.6087311138271747   -0.5859164344174981   0.018153749610257314
-0.6087311138271747   -0.5859164344174981   0.018153749610257314
-0.9343042769330256   -0.40676939191038786   -0.03915461046546865
-0.9343042769330256   -0.40676939191038786   -0.03915461046546865
-0.9343042769330256   -0.40676939191038786   -0.03915461046546865
-0.9343042769330256   -0.40676939191038786   -0.03915461046546865
-0.5043514177549883   -0.05145135219284598   0.005587147746535546
-0.5043514177549883   -0.05145135219284598   0.005587147746535546
-0.5043514177549883   -0.05145135219284598   0.005587147746535546
-0.5043514177549883   -0.05145135219284598   0.005587147746535546
-1.3496523219176753   -0.7431053437859869   -0.026869589141686023
-1.3496523219176753   -0.7431053437859869   -0.026869589141686023
-1.3496523219176753   -0.7431053437859869   -0.026869589141686023
-1.3496523219176753   -0.7431053437859869   -0.026869589141686023
-1.1807923677282572   -0.18534632577963517   -0.04524807418175966
-1.1807923677282572   -0.18534632577963517   -0.04524807418175966
-1.1807923677282572   -0.18534632577963517   -0.04524807418175966
-1.1807923677282572   -0.18534632577963517   -0.04524807418175966
-0.5435142098610755   -0.5264849074692056   0.04355539517197088
-0.5435142098610755   -0.5264849074692056   0.04355539517197088
-0.5435142098610755   -0.5264849074692056   0.04355539517197088
-0.5435142098610755   -0.5264849074692056   0.04355539517197088
-0.8858390775912672   -0.3684964182102005   -0.021593697721850866
-0.8858390775912672   -0.3684964182102005   -0.021593697721850866
-0.8858390775912672   -0.3684964182102005   -0.021593697721850866
-0.8858390775912672   -0.3684964182102005   -0.021593697721850866
-1.2889395915357147   -0.07756520721370241   -0.008981454400629335
-1.2889395915357147   -0.07756520721370241   -0.008981454400629335
-1.2889395915357147   -0.07756520721370241   -0.008981454400629335
-1.2889395915357147   -0.07756520721370241   -0.008981454400629335
-2.273192095652526   -0.4499954725038802   0.02321473313312461
-2.273192095652526   -0.4499954725038802   0.02321473313312461
-2.273192095652526   -0.4499954725038802   0.02321473313312461
-2.273192095652526   -0.4499954725038802   0.02321473313312461
-2.183903261864965   -0.2161523248722777   -0.047733264513592874
-2.183903261864965   -0.2161523248722777   -0.047733264513592874
-2.183903261864965   -0.2161523248722777   -0.047733264513592874
-2.183903261864965   -0.2161523248722777   -0.047733264513592874
-1.260847791473196   -0.23348310875814698   0.09343224768246089
-1.260847791473196   -0.23348310875814698   0.09343224768246089
-1.260847791473196   -0.23348310875814698   0.09343224768246089
-1.260847791473196   -0.23348310875814698   0.09343224768246089
-1.6807940865605382   -0.26088890224566924   0.023873665146144907
-1.6807940865605382   -0.26088890224566924   0.023873665146144907
-1.6807940865605382   -0.26088890224566924   0.023873665146144907
-1.6807940865605382   -0.26088890224566924   0.023873665146144907
-1.2361821295620274   -0.017004963177444432   0.0002824116576048835
-1.2361821295620274   -0.017004963177444432   0.0002824116576048835
-1.2361821295620274   -0.017004963177444432   0.0002824116576048835
-1.2361821295620274   -0.017004963177444432   0.0002824116576048835
-2.2170279829919126   -0.44108952966875625   0.011580334648131352
-2.2170279829919126   -0.44108952966875625   0.011580334648131352
-2.2170279829919126   -0.44108952966875625   0.011580334648131352
-2.2170279829919126   -0.44108952966875625   0.011580334648131352
-2.134853982975497   -0.1980804845565492   -0.06059238377506761
-2.134853982975497   -0.1980804845565492   -0.06059238377506761
-2.134853982975497   -0.1980804845565492   -0.06059238377506761
-2.134853982975497   -0.1980804845565492   -0.06059238377506761
-1.2182457042540538   -0.22186459147726983   0.10892274686770465
-1.2182457042540538   -0.22186459147726983   0.10892274686770465
-1.2182457042540538   -0.22186459147726983   0.10892274686770465
-1.2182457042540538   -0.22186459147726983   0.10892274686770465
-1.6550171315276772   -0.214906117590463   0.022999306495347864
-1.6550171315276772   -0.214906117590463   0.022999306495347864
-1.6550171315276772   -0.214906117590463   0.022999306495347864
-1.6550171315276772   -0.214906117590463   0.022999306495347864
-1.1982335800042165   -0.0010118098994627567   -0.011869413460916259
-1.1982335800042165   -0.0010118098994627567   -0.011869413460916259
-1.1982335800042165   -0.0010118098994627567   -0.011869413460916259
-1.1982335800042165   -0.0010118098994627567   -0.011869413460916259
-2.1579321312557824   -0.4219992901648072   0.04793568043174656
-2.1579321312557824   -0.4219992901648072   0.04793568043174656
-2.1579321312557824   -0.4219992901648072   0.04793568043174656
-2.1579321312557824   -0.4219992901648072   0.04793568043174656
-2.0329855572269584   -0.16061618452156534   -0.06779937614890855
-2.0329855572269584   -0.16061618452156534   -0.06779937614890855
-2.0329855572269584   -0.16061618452156534   -0.06779937614890855
-2.0329855572269584   -0.16061618452156534   -0.06779937614890855
-1.1519477797069098   -0.20638653992692602   0.12001508007227968
-1.1519477797069098   -0.20638653992692602   0.12001508007227968
-1.1519477797069098   -0.20638653992692602   0.12001508007227968
-1.1519477797069098   -0.20638653992692602   0.12001508007227968
-1.5562863531309574   -0.16432455354532907   0.0473429317289057
-1.5562863531309574   -0.16432455354532907   0.0473429317289057
-1.5562863531309574   -0.16432455354532907   0.0473429317289057
-1.5562863531309574   -0.16432455354532907   0.0473429317289057
1.634291097423097   0.05379482402241437   0.02294893740435139
1.634291097423097   0.05379482402241437   0.02294893740435139
1.634291097423097   0.05379482402241437   0.02294893740435139
1.634291097423097   0.05379482402241437   0.02294893740435139
0.8341074315656911   -0.04408213317672324   0.0167907205256857
0.8341074315656911   -0.04408213317672324   0.0167907205256857
0.8341074315656911   -0.04408213317672324   0.0167907205256857
0.8341074315656911   -0.04408213317672324   0.0167907205256857
0.8016292109501363   -0.11764177808577869   0.03316162080017765
0.8016292109501363   -0.11764177808577869   0.03316162080017765
0.8016292109501363   -0.11764177808577869   0.03316162080017765
0.8016292109501363   -0.11764177808577869   0.03316162080017765
1.6224419419150093   0.09139632746537335   0.012116389003505715
1.6224419419150093   0.09139632746537335   0.012116389003505715
1.6224419419150093   0.09139632746537335   0.012116389003505715
1.6224419419150093   0.09139632746537335   0.012116389003505715
1.1579323758126598   -0.016381668452880804   -0.04277958292461147
1.1579323758126598   -0.016381668452880804   -0.04277958292461147
1.1579323758126598   -0.016381668452880804   -0.04277958292461147
1.1579323758126598   -0.016381668452880804   -0.04277958292461147
1.613574621238048   0.04162516869048549   0.01755094439358701
1.613574621238048   0.04162516869048549   0.01755094439358701
1.613574621238048   0.04162516869048549   0.01755094439358701
1.613574621238048   0.04162516869048549   0.01755094439358701
0.8078452620559555   -0.07052188888203301   0.017121987125527913
0.8078452620559555   -0.07052188888203301   0.017121987125527913
0.8078452620559555   -0.07052188888203301   0.017121987125527913
0.8078452620559555   -0.07052188888203301   0.017121987125527913
0.7808999439922851   -0.120339255538287   0.027419503150697577
0.7808999439922851   -0.120339255538287   0.027419503150697577
0.7808999439922851   -0.120339255538287   0.027419503150697577
0.7808999439922851   -0.120339255538287   0.027419503150697577
1.603512978434099   0.08746161439734301   0.02103142342539069
1.603512978434099   0.08746161439734301   0.02103142342539069
1.603512978434099   0.08746161439734301   0.02103142342539069
1.603512978434099   0.08746161439734301   0.02103142342539069
1.1545594587217345   -0.022593757850358637   -0.04946886945034788
1.1545594587217345   -0.022593757850358637   -0.04946886945034788
1.1545594587217345   -0.022593757850358637   -0.04946886945034788
1.1545594587217345   -0.022593757850358637   -0.04946886945034788
1.590284239494185   0.037102976297147594   0.005246366826001367
1.590284239494185   0.037102976297147594   0.005246366826001367
1.590284239494185   0.037102976297147594   0.005246366826001367
1.590284239494185   0.037102976297147594   0.005246366826001367
0.789359153673141   -0.07475014669715718   0.024126442713847424
0.789359153673141   -0.07475014669715718   0.024126442713847424
0.789359153673141   -0.07475014669715718   0.024126442713847424
0.789359153673141   -0.07475014669715718   0.024126442713847424
0.7590408507504122   -0.10971760043710294   0.023677773705885544
0.7590408507504122   -0.10971760043710294   0.023677773705885544
0.7590408507504122   -0.10971760043710294   0.023677773705885544
0.7590408507504122   -0.10971760043710294   0.023677773705885544
1.5743555098436548   0.08851833688849042   0.030295830508106206
1.5743555098436548   0.08851833688849042   0.030295830508106206
1.5743555098436548   0.08851833688849042   0.030295830508106206
1.5743555098436548   0.08851833688849042   0.030295830508106206
1.111254820032345   -0.022740093562293617   -0.06674421699691997
1.111254820032345   -0.022740093562293617   -0.06674421699691997
1.111254820032345   -0.022740093562293617   -0.06674421699691997
1.111254820032345   -0.022740093562293617   -0.06674421699691997
0.826871087739486   -0.10434290296438864   0.040869771182325626
0.826871087739486   -0.10434290296438864   0.040869771182325626
0.826871087739486   -0.10434290296438864   0.040869771182325626
0.826871087739486   -0.10434290296438864   0.040869771182325626
0.1597461872960959   -0.09845081209573547   0.008646397202556971
0.1597461872960959   -0.09845081209573547   0.008646397202556971
0.1597461872960959   -0.09845081209573547   0.008646397202556971
0.1597461872960959   -0.09845081209573547   0.008646397202556971
0.10372895708677501   -0.24696739055902955   0.04356482332022257
0.10372895708677501   -0.24696739055902955   0.04356482332022257
0.10372895708677501   -0.24696739055902955   0.04356482332022257
0.10372895708677501   -0.24696739055902955   0.04356482332022257
0.8313248917157641   0.03245633945957771   0.03154190708296048
0.8313248917157641   0.03245633945957771   0.03154190708296048
0.8313248917157641   0.03245633945957771   0.03154190708296048
0.8313248917157641   0.03245633945957771   0.03154190708296048
0.47302972684337447   -0.10474626414965915   -0.0018339448940380282
0.47302972684337447   -0.10474626414965915   -0.0018339448940380282
0.47302972684337447   -0.10474626414965915   -0.0018339448940380282
0.47302972684337447   -0.10474626414965915   -0.0018339448940380282
0.8036061634579144   -0.1088533274151563   0.034257932668449564
0.8036061634579144   -0.1088533274151563   0.034257932668449564
0.8036061634579144   -0.1088533274151563   0.034257932668449564
0.8036061634579144   -0.1088533274151563   0.034257932668449564
0.12444506498436686   -0.11266034404455316   0.012838316293703425
0.12444506498436686   -0.11266034404455316   0.012838316293703425
0.12444506498436686   -0.11266034404455316   0.012838316293703425
0.12444506498436686   -0.11266034404455316   0.012838316293703425
0.07862409215354398   -0.2491382355500571   0.03899793978456935
0.07862409215354398   -0.2491382355500571   0.03899793978456935
0.07862409215354398   -0.2491382355500571   0.03899793978456935
0.07862409215354398   -0.2491382355500571   0.03899793978456935
0.8122100162992381   0.026276077830486855   0.0373545313166884
0.8122100162992381   0.026276077830486855   0.0373545313166884
0.8122100162992381   0.026276077830486855   0.0373545313166884
0.8122100162992381   0.026276077830486855   0.0373545313166884
0.43892026824118596   -0.1116274265280678   -0.022636785738620734
0.43892026824118596   -0.1116274265280678   -0.022636785738620734
0.43892026824118596   -0.1116274265280678   -0.022636785738620734
0.43892026824118596   -0.1116274265280678   -0.022636785738620734
0.7830794609957666   -0.11037598601046988   0.028353818640282677
0.7830794609957666   -0.11037598601046988   0.028353818640282677
0.7830794609957666   -0.11037598601046988   0.028353818640282677
0.7830794609957666   -0.11037598601046988   0.028353818640282677
0.1001427716345096   -0.12009804753160701   0.01755114917094748
0.1001427716345096   -0.12009804753160701   0.01755114917094748
0.1001427716345096   -0.12009804753160701   0.01755114917094748
0.1001427716345096   -0.12009804753160701   0.01755114917094748
0.050536124701906854   -0.24897025464548095   0.030503143521694975
0.050536124701906854   -0.24897025464548095   0.030503143521694975
0.050536124701906854   -0.24897025464548095   0.030503143521694975
0.050536124701906854   -0.24897025464548095   0.030503143521694975
0.7905163741294003   0.026691561682664205   0.04464622848106358
0.7905163741294003   0.026691561682664205   0.04464622848106358
0.7905163741294003   0.026691561682664205   0.04464622848106358
0.7905163741294003   0.026691561682664205   0.04464622848106358
0.41811373090392817   -0.11073101000196767   -0.040320186381365204
0.41811373090392817   -0.11073101000196767   -0.040320186381365204
0.41811373090392817   -0.11073101000196767   -0.040320186381365204
0.41811373090392817   -0.11073101000196767   -0.040320186381365204
0.12458361749227516   -0.3022887478545108   0.03667148394222673
0.12458361749227516   -0.3022887478545108   0.03667148394222673
0.12458361749227516   -0.3022887478545108   0.03667148394222673
0.12458361749227516   -0.3022887478545108   0.03667148394222673
-0.4886098286957902   -0.15264538497506297   0.0004572637382140171
-0.4886098286957902   -0.15264538497506297   0.0004572637382140171
-0.4886098286957902   -0.15264538497506297   0.0004572637382140171
-0.4886098286957902   -0.15264538497506297   0.0004572637382140171
-0.5899524405675871   -0.4498843705546218   0.049927978033344395
-0.5899524405675871   -0.4498843705546218   0.049927978033344395
-0.5899524405675871   -0.4498843705546218   0.049927978033344395
-0.5899524405675871   -0.4498843705546218   0.049927978033344395
0.14331940060931403   -0.025417959925385064   0.019967610299271053
0.14331940060931403   -0.025417959925385064   0.019967610299271053
0.14331940060931403   -0.025417959925385064   0.019967610299271053
0.14331940060931403   -0.025417959925385064   0.019967610299271053
-0.19996990753946964   -0.22928112793449276   0.008640507096214119
-0.19996990753946964   -0.22928112793449276   0.008640507096214119
-0.19996990753946964   -0.22928112793449276   0.008640507096214119
-0.19996990753946964   -0.22928112793449276   0.008640507096214119
0.08579421459840472   -0.3194465758868431   0.026370296206184696
0.08579421459840472   -0.3194465758868431   0.026370296206184696
0.08579421459840472   -0.3194465758868431   0.026370296206184696
0.08579421459840472   -0.3194465758868431   0.026370296206184696
-0.5422345508250499   -0.16566305086151578   0.004296107052920096
-0.5422345508250499   -0.16566305086151578   0.004296107052920096
-0.5422345508250499   -0.16566305086151578   0.004296107052920096
-0.5422345508250499   -0.16566305086151578   0.004296107052920096
-0.6249079201472494   -0.457052592704326   0.04069115668887793
-0.6249079201472494   -0.457052592704326   0.04069115668887793
-0.6249079201472494   -0.457052592704326   0.04069115668887793
-0.6249079201472494   -0.457052592704326   0.04069115668887793
0.11979373073935327   -0.032276850908377404   0.02798474807193624
0.11979373073935327   -0.032276850908377404   0.02798474807193624
0.11979373073935327   -0.032276850908377404   0.02798474807193624
0.11979373073935327   -0.032276850908377404   0.02798474807193624
-0.24365681466873293   -0.24318794125809653   -0.020531370277441452
-0.24365681466873293   -0.24318794125809653   -0.020531370277441452
-0.24365681466873293   -0.24318794125809653   -0.020531370277441452
-0.24365681466873293   -0.24318794125809653   -0.020531370277441452
0.05905259297897891   -0.32499856645376546   0.017000774815452493
0.05905259297897891   -0.32499856645376546   0.017000774815452493
0.05905259297897891   -0.32499856645376546   0.017000774815452493
0.05905259297897891   -0.32499856645376546   0.017000774815452493
-0.5758437281095365   -0.17600782288160038   0.0049673470547111215
-0.5758437281095365   -0.17600782288160038   0.0049673470547111215
-0.5758437281095365   -0.17600782288160038   0.0049673470547111215
-0.5758437281095365   -0.17600782288160038   0.0049673470547111215
-0.6628055241641855   -0.4539156078197687   0.034210992241236304
-0.6628055241641855   -0.4539156078197687   0.034210992241236304
-0.6628055241641855   -0.4539156078197687   0.034210992241236304
-0.6628055241641855   -0.4539156078197687   0.034210992241236304
0.09362177117793485   -0.03608786444133364   0.033048985697687584
0.09362177117793485   -0.03608786444133364   0.033048985697687584
0.09362177117793485   -0.03608786444133364   0.033048985697687584
0.09362177117793485   -0.03608786444133364   0.033048985697687584
-0.2791131796394775   -0.24845960856420146   -0.04969547903360326
-0.2791131796394775   -0.24845960856420146   -0.04969547903360326
-0.2791131796394775   -0.24845960856420146   -0.04969547903360326
-0.2791131796394775   -0.24845960856420146   -0.04969547903360326
-0.5531211342770838   -0.5183464687880677   0.043601819644755124
-0.5531211342770838   -0.5183464687880677   0.043601819644755124
-0.5531211342770838   -0.5183464687880677   0.043601819644755124
-0.5531211342770838   -0.5183464687880677   0.043601819644755124
-1.2253190145439299   -0.19000629392970475   -0.028318156878377566
-1.2253190145439299   -0.19000629392970475   -0.028318156878377566
-1.2253190145439299   -0.19000629392970475   -0.028318156878377566
-1.2253190145439299   -0.19000629392970475   -0.028318156878377566
-1.402455699797311   -0.7535482578170738   -0.03890236379414749
-1.402455699797311   -0.7535482578170738   -0.03890236379414749
-1.402455699797311   -0.7535482578170738   -0.03890236379414749
-1.402455699797311   -0.7535482578170738   -0.03890236379414749
-0.5149719095919643   -0.042306385164299035   0.01725264752113202
-0.5149719095919643   -0.042306385164299035   0.01725264752113202
-0.5149719095919643   -0.042306385164299035   0.01725264752113202
-0.5149719095919643   -0.042306385164299035   0.01725264752113202
-0.9150938800556616   -0.3613780697220571   -0.030943257874381735
-0.9150938800556616   -0.3613780697220571   -0.030943257874381735
-0.9150938800556616   -0.3613780697220571   -0.030943257874381735
-0.9150938800556616   -0.3613780697220571   -0.030943257874381735
-0.6244550094702545   -0.5872179119997966   0.014748674965182007
-0.6244550094702545   -0.5872179119997966   0.014748674965182007
-0.6244550094702545   -0.5872179119997966   0.014748674965182007
-0.6244550094702545   -0.5872179119997966   0.014748674965182007
-1.2902050479441964   -0.20586917900675272   -0.02532818333890426
-1.2902050479441964   -0.20586917900675272   -0.02532818333890426
-1.2902050479441964   -0.20586917900675272   -0.02532818333890426
-1.2902050479441964   -0.20586917900675272   -0.02532818333890426
-1.4440485728329913   -0.7656079769283737   -0.04498650393830406
-1.4440485728329913   -0.7656079769283737   -0.04498650393830406
-1.4440485728329913   -0.7656079769283737   -0.04498650393830406
-1.4440485728329913   -0.7656079769283737   -0.04498650393830406
-0.5472081582375726   -0.05358051850815726   0.025717892041087247
-0.5472081582375726   -0.05358051850815726   0.025717892041087247
-0.5472081582375726   -0.05358051850815726   0.025717892041087247
-0.5472081582375726   -0.05358051850815726   0.025717892041087247
-0.9659394510518845   -0.4004650849146829   -0.043948181557470004
-0.9659394510518845   -0.4004650849146829   -0.043948181557470004
-0.9659394510518845   -0.4004650849146829   -0.043948181557470004
-0.9659394510518845   -0.4004650849146829   -0.043948181557470004
-0.6602189651979776   -0.5986900723896083   0.005773411120509553
-0.6602189651979776   -0.5986900723896083   0.005773411120509553
-0.6602189651979776   -0.5986900723896083   0.005773411120509553
-0.6602189651979776   -0.5986900723896083   0.005773411120509553
-1.3312750500770878   -0.22073570725142672   -0.025991159835744976
-1.3312750500770878   -0.22073570725142672   -0.025991159835744976
-1.3312750500770878   -0.22073570725142672   -0.025991159835744976
-1.3312750500770878   -0.22073570725142672   -0.025991159835744976
-1.4795054090234347   -0.7325396394762498   -0.05072706570089047
-1.4795054090234347   -0.7325396394762498   -0.05072706570089047
-1.4795054090234347   -0.7325396394762498   -0.05072706570089047
-1.4795054090234347   -0.7325396394762498   -0.05072706570089047
-0.5879994410037181   -0.0695099740236621   0.023835774247462464
-0.5879994410037181   -0.0695099740236621   0.023835774247462464
-0.5879994410037181   -0.0695099740236621   0.023835774247462464
-0.5879994410037181   -0.0695099740236621   0.023835774247462464
-1.012806964957896   -0.41376552362113445   -0.0564088836480712
-1.012806964957896   -0.41376552362113445   -0.0564088836480712
-1.012806964957896   -0.41376552362113445   -0.0564088836480712
-1.012806964957896   -0.41376552362113445   -0.0564088836480712
-1.2039772416112524   -0.21926547129266127   0.10764988514794599
-1.2039772416112524   -0.21926547129266127   0.10764988514794599
-1.2039772416112524   -0.21926547129266127   0.10764988514794599
-1.2039772416112524   -0.21926547129266127   0.10764988514794599
-2.118479800233626   -0.15833463037956685   -0.037448515084213166
-2.118479800233626   -0.15833463037956685   -0.037448515084213166
-2.118479800233626   -0.15833463037956685   -0.037448515084213166
-2.118479800233626   -0.15833463037956685   -0.037448515084213166
-2.2479424515713315   -0.44368306148358166   0.029527144153423168
-2.2479424515713315   -0.44368306148358166   0.029527144153423168
-2.2479424515713315   -0.44368306148358166   0.029527144153423168
-2.2479424515713315   -0.44368306148358166   0.029527144153423168
-1.2382208682242977   0.018017337568622893   0.010706198685214025
-1.2382208682242977   0.018017337568622893   0.010706198685214025
-1.2382208682242977   0.018017337568622893   0.010706198685214025
-1.2382208682242977   0.018017337568622893   0.010706198685214025
-1.6210969409319147   -0.15584344273158096   0.032543497403120666
-1.6210969409319147   -0.15584344273158096   0.032543497403120666
-1.6210969409319147   -0.15584344273158096   0.032543497403120666
-1.6210969409319147   -0.15584344273158096   0.032543497403120666
-1.2719215266350796   -0.23528354707252644   0.0955037912724474
-1.2719215266350796   -0.23528354707252644   0.0955037912724474
-1.2719215266350796   -0.23528354707252644   0.0955037912724474
-1.2719215266350796   -0.23528354707252644   0.0955037912724474
-2.2086080782423543   -0.18474846192423477   -0.03273558876101759
-2.2086080782423543   -0.18474846192423477   -0.03273558876101759
-2.2086080782423543   -0.18474846192423477   -0.03273558876101759
-2.2086080782423543   -0.18474846192423477   -0.03273558876101759
-2.302775558218223   -0.4625264234753339   -0.009856559158446299
-2.302775558218223   -0.4625264234753339   -0.009856559158446299
-2.302775558218223   -0.4625264234753339   -0.009856559158446299
-2.302775558218223   -0.4625264234753339   -0.009856559158446299
-1.2769457232995638   0.005351874507562637   0.01956789229288533
-1.2769457232995638   0.005351874507562637   0.01956789229288533
-1.2769457232995638   0.005351874507562637   0.01956789229288533
-1.2769457232995638   0.005351874507562637   0.01956789229288533
-1.7178402841154166   -0.20568677798566265   0.013366848568360776
-1.7178402841154166   -0.20568677798566265   0.013366848568360776
-1.7178402841154166   -0.20568677798566265   0.013366848568360776
-1.7178402841154166   -0.20568677798566265   0.013366848568360776
-1.31556576739988   -0.24729103685016882   0.0791105831490359
-1.31556576739988   -0.24729103685016882   0.0791105831490359
-1.31556576739988   -0.24729103685016882   0.0791105831490359
-1.31556576739988   -0.24729103685016882   0.0791105831490359
-2.25280783468857   -0.19853583268826214   -0.02400853229723246
-2.25280783468857   -0.19853583268826214   -0.02400853229723246
-2.25280783468857   -0.19853583268826214   -0.02400853229723246
-2.25280783468857   -0.19853583268826214   -0.02400853229723246
-2.350379956199342   -0.4701112464006971   -0.00017627580414336652
-2.350379956199342   -0.4701112464006971   -0.00017627580414336652
-2.350379956199342   -0.4701112464006971   -0.00017627580414336652
-2.350379956199342   -0.4701112464006971   -0.00017627580414336652
-1.331345593837675   -0.050507918425637316   0.008040289177295872
-1.331345593837675   -0.050507918425637316   0.008040289177295872
-1.331345593837675   -0.050507918425637316   0.008040289177295872
-1.331345593837675   -0.050507918425637316   0.008040289177295872
-1.7385940198893461   -0.24845929763307495   0.021087420456906567
-1.7385940198893461   -0.24845929763307495   0.021087420456906567
-1.7385940198893461   -0.24845929763307495   0.021087420456906567
-1.7385940198893461   -0.24845929763307495   0.021087420456906567
1.4322894790218914   0.06599735249556365   -0.030993898569080136
1.4322894790218914   0.06599735249556365   -0.030993898569080136
1.4322894790218914   0.06599735249556365   -0.030993898569080136
1.4322894790218914   0.06599735249556365   -0.030993898569080136
0.7206786609695512   -0.014673222374810002   0.015203697497934626
0.7206786609695512   -0.014673222374810002   0.015203697497934626
0.7206786609695512   -0.014673222374810002   0.015203697497934626
0.7206786609695512   -0.014673222374810002   0.015203697497934626
0.6749474683023334   -0.10601126474601971   -0.027427098440845135
0.6749474683023334   -0.10601126474601971   -0.027427098440845135
0.6749474683023334   -0.10601126474601971   -0.027427098440845135
0.6749474683023334   -0.10601126474601971   -0.027427098440845135
1.4157375620875465   0.10333491151707627   0.017788121092134533
1.4157375620875465   0.10333491151707627   0.017788121092134533
1.4157375620875465   0.10333491151707627   0.017788121092134533
1.4157375620875465   0.10333491151707627   0.017788121092134533
1.0053020971725646   0.0024692311915703036   -0.038828916917465484
1.0053020971725646   0.0024692311915703036   -0.038828916917465484
1.0053020971725646   0.0024692311915703036   -0.038828916917465484
1.0053020971725646   0.0024692311915703036   -0.038828916917465484
1.3926036078898871   0.03674669598653746   -0.031293434365612785
1.3926036078898871   0.03674669598653746   -0.031293434365612785
1.3926036078898871   0.03674669598653746   -0.031293434365612785
1.3926036078898871   0.03674669598653746   -0.031293434365612785
0.6968001329319323   -0.040704338783540545   0.016529298744664543
0.6968001329319323   -0.040704338783540545   0.016529298744664543
0.6968001329319323   -0.040704338783540545   0.016529298744664543
0.6968001329319323   -0.040704338783540545   0.016529298744664543
0.6503190675188355   -0.1119158617415476   -0.02266204635379901
0.6503190675188355   -0.1119158617415476   -0.02266204635379901
0.6503190675188355   -0.1119158617415476   -0.02266204635379901
0.6503190675188355   -0.1119158617415476   -0.02266204635379901
1.3815352796043956   0.0949602150260479   0.02603038595561949
1.3815352796043956   0.0949602150260479   0.02603038595561949
1.3815352796043956   0.0949602150260479   0.02603038595561949
1.3815352796043956   0.0949602150260479   0.02603038595561949
0.9919089642416374   -0.010022806086428443   -0.04631227218175705
0.9919089642416374   -0.010022806086428443   -0.04631227218175705
0.9919089642416374   -0.010022806086428443   -0.04631227218175705
0.9919089642416374   -0.010022806086428443   -0.04631227218175705
1.3582284535609364   0.029241432408755486   -0.024784961644384457
1.3582284535609364   0.029241432408755486   -0.024784961644384457
1.3582284535609364   0.029241432408755486   -0.024784961644384457
1.3582284535609364   0.029241432408755486   -0.024784961644384457
0.6718441285523369   -0.047978844134212995   0.021026241206373544
0.6718441285523369   -0.047978844134212995   0.021026241206373544
0.6718441285523369   -0.047978844134212995   0.021026241206373544
0.6718441285523369   -0.047978844134212995   0.021026241206373544
0.6264738261534837   -0.11022633816801619   -0.015545861084255833
0.6264738261534837   -0.11022633816801619   -0.015545861084255833
0.6264738261534837   -0.11022633816801619   -0.015545861084255833
0.6264738261534837   -0.11022633816801619   -0.015545861084255833
1.3391938073749408   0.08931652431860959   0.03389529907447944
1.3391938073749408   0.08931652431860959   0.03389529907447944
1.3391938073749408   0.08931652431860959   0.03389529907447944
1.3391938073749408   0.08931652431860959   0.03389529907447944
0.9429396121874916   -0.01747810652909923   -0.06080437969904489
0.9429396121874916   -0.01747810652909923   -0.06080437969904489
0.9429396121874916   -0.01747810652909923   -0.06080437969904489
0.9429396121874916   -0.01747810652909923   -0.06080437969904489
0.724707387675592   0.014122475225264969   0.006551633428063093
0.724707387675592   0.014122475225264969   0.006551633428063093
0.724707387675592   0.014122475225264969   0.006551633428063093
0.724707387675592   0.014122475225264969   0.006551633428063093
0.06928322734146887   -0.043501667761626596   -0.001695575054602643
0.06928322734146887   -0.043501667761626596   -0.001695575054602643
0.06928322734146887   -0.043501667761626596   -0.001695575054602643
0.06928322734146887   -0.043501667761626596   -0.001695575054602643
0.026189034553136384   -0.14016061205720565   -0.02640699333832859
0.026189034553136384   -0.14016061205720565   -0.02640699333832859
0.026189034553136384   -0.14016061205720565   -0.02640699333832859
0.026189034553136384   -0.14016061205720565   -0.02640699333832859
0.7255487191542167   0.08371294788559652   0.03585494318694901
0.7255487191542167   0.08371294788559652   0.03585494318694901
0.7255487191542167   0.08371294788559652   0.03585494318694901
0.7255487191542167   0.08371294788559652   0.03585494318694901
0.37934139028770614   -0.01962412500803759   -0.015004789051951392
0.37934139028770614   -0.01962412500803759   -0.015004789051951392
0.37934139028770614   -0.01962412500803759   -0.015004789051951392
0.37934139028770614   -0.01962412500803759   -0.015004789051951392
0.7044669044303902   0.00300677006382824   0.01115204738958711
0.7044669044303902   0.00300677006382824   0.01115204738958711
0.7044669044303902   0.00300677006382824   0.01115204738958711
0.7044669044303902   0.00300677006382824   0.01115204738958711
0.048073343389599954   -0.05865194012279992   0.001505878909583494
0.048073343389599954   -0.05865194012279992   0.001505878909583494
0.048073343389599954   -0.05865194012279992   0.001505878909583494
0.048073343389599954   -0.05865194012279992   0.001505878909583494
0.0024419758432678643   -0.14682758653038125   -0.018395750031681996
0.0024419758432678643   -0.14682758653038125   -0.018395750031681996
0.0024419758432678643   -0.14682758653038125   -0.018395750031681996
0.0024419758432678643   -0.14682758653038125   -0.018395750031681996
0.6994805802564461   0.0716861663553597   0.039543489237347365
0.6994805802564461   0.0716861663553597   0.039543489237347365
0.6994805802564461   0.0716861663553597   0.039543489237347365
0.6994805802564461   0.0716861663553597   0.039543489237347365
0.3519984153837694   -0.03070037887750647   -0.021244145403885265
0.3519984153837694   -0.03070037887750647   -0.021244145403885265
0.3519984153837694   -0.03070037887750647   -0.021244145403885265
0.3519984153837694   -0.03070037887750647   -0.021244145403885265
0.6795851128271052   -0.004474454531719546   0.016226772977727795
0.6795851128271052   -0.004474454531719546   0.016226772977727795
0.6795851128271052   -0.004474454531719546   0.016226772977727795
0.6795851128271052   -0.004474454531719546   0.016226772977727795
0.02222633799566243   -0.07077807092023716   0.004476545120146738
0.02222633799566243   -0.07077807092023716   0.004476545120146738
0.02222633799566243   -0.07077807092023716   0.004476545120146738
0.02222633799566243   -0.07077807092023716   0.004476545120146738
-0.02304681830475799   -0.1474622441275883   -0.012559608136101914
-0.02304681830475799   -0.1474622441275883   -0.012559608136101914
-0.02304681830475799   -0.1474622441275883   -0.012559608136101914
-0.02304681830475799   -0.1474622441275883   -0.012559608136101914
0.6731791111619728   0.06405434936252757   0.04369987642764923
0.6731791111619728   0.06405434936252757   0.04369987642764923
0.6731791111619728   0.06405434936252757   0.04369987642764923
0.6731791111619728   0.06405434936252757   0.04369987642764923
0.33063131610194146   -0.03509489676373087   -0.026596458336003
0.33063131610194146   -0.03509489676373087   -0.026596458336003
0.33063131610194146   -0.03509489676373087   -0.026596458336003
0.33063131610194146   -0.03509489676373087   -0.026596458336003
0.07073976494383576   -0.04037485829637272   0.0024603034919778704
0.07073976494383576   -0.04037485829637272   0.0024603034919778704
0.07073976494383576   -0.04037485829637272   0.0024603034919778704
0.07073976494383576   -0.04037485829637272   0.0024603034919778704
-0.5604153358635358   -0.06473969962517395   -0.01762466912943995
-0.5604153358635358   -0.06473969962517395   -0.01762466912943995
-0.5604153358635358   -0.06473969962517395   -0.01762466912943995
-0.5604153358635358   -0.06473969962517395   -0.01762466912943995
-0.6083249348234231   -0.1857621720523403   -0.030109114902767995
-0.6083249348234231   -0.1857621720523403   -0.030109114902767995
-0.6083249348234231   -0.1857621720523403   -0.030109114902767995
-0.6083249348234231   -0.1857621720523403   -0.030109114902767995
0.07589379621106607   0.061357775518726364   0.020598427375387772
0.07589379621106607   0.061357775518726364   0.020598427375387772
0.07589379621106607   0.061357775518726364   0.020598427375387772
0.07589379621106607   0.061357775518726364   0.020598427375387772
-0.2562777062281325   -0.05463328073474632   -0.014883164512339842
-0.2562777062281325   -0.05463328073474632   -0.014883164512339842
-0.2562777062281325   -0.05463328073474632   -0.014883164512339842
-0.2562777062281325   -0.05463328073474632   -0.014883164512339842
0.05289339792433995   -0.04508820019177093   0.012042411652254486
0.05289339792433995   -0.04508820019177093   0.012042411652254486
0.05289339792433995   -0.04508820019177093   0.012042411652254486
0.05289339792433995   -0.04508820019177093   0.012042411652254486
-0.5835615387441191   -0.07755319854925502   -0.014501108009333909
-0.5835615387441191   -0.07755319854925502   -0.014501108009333909
-0.5835615387441191   -0.07755319854925502   -0.014501108009333909
-0.5835615387441191   -0.07755319854925502   -0.014501108009333909
-0.6361700696464856   -0.19306066448722176   -0.01997051943650787
-0.6361700696464856   -0.19306066448722176   -0.01997051943650787
-0.6361700696464856   -0.19306066448722176   -0.01997051943650787
-0.6361700696464856   -0.19306066448722176   -0.01997051943650787
0.04984100107076533   0.04848499258753992   0.023286796987884155
0.04984100107076533   0.04848499258753992   0.023286796987884155
0.04984100107076533   0.04848499258753992   0.023286796987884155
0.04984100107076533   0.04848499258753992   0.023286796987884155
-0.2793168896629727   -0.062290059415828304   -0.01784896090889046
-0.2793168896629727   -0.062290059415828304   -0.01784896090889046
-0.2793168896629727   -0.062290059415828304   -0.01784896090889046
-0.2793168896629727   -0.062290059415828304   -0.01784896090889046
0.028237841750681586   -0.0528614831045816   0.016617476079586954
0.028237841750681586   -0.0528614831045816   0.016617476079586954
0.028237841750681586   -0.0528614831045816   0.016617476079586954
0.028237841750681586   -0.0528614831045816   0.016617476079586954
-0.6141950795668006   -0.09134235803550919   -0.011813875489795395
-0.6141950795668006   -0.09134235803550919   -0.011813875489795395
-0.6141950795668006   -0.09134235803550919   -0.011813875489795395
-0.6141950795668006   -0.09134235803550919   -0.011813875489795395
-0.6670628795511869   -0.1983849744355911   -0.0177519135444167
-0.6670628795511869   -0.1983849744355911   -0.0177519135444167
-0.6670628795511869   -0.1983849744355911   -0.0177519135444167
-0.6670628795511869   -0.1983849744355911   -0.0177519135444167
0.021660466151005205   0.03749632089988587   0.0260182491152399
0.021660466151005205   0.03749632089988587   0.0260182491152399
0.021660466151005205   0.03749632089988587   0.0260182491152399
0.021660466151005205   0.03749632089988587   0.0260182491152399
-0.3092445886963987   -0.07145667288521987   -0.024998528042165374
-0.3092445886963987   -0.07145667288521987   -0.024998528042165374
-0.3092445886963987   -0.07145667288521987   -0.024998528042165374
-0.3092445886963987   -0.07145667288521987   -0.024998528042165374
-0.5517612226731399   -0.04787488728366661   0.008781084481022976
-0.5517612226731399   -0.04787488728366661   0.008781084481022976
-0.5517612226731399   -0.04787488728366661   0.008781084481022976
-0.5517612226731399   -0.04787488728366661   0.008781084481022976
-1.1751464402039424   -0.07577489366330661   -0.031031792621540273
-1.1751464402039424   -0.07577489366330661   -0.031031792621540273
-1.1751464402039424   -0.07577489366330661   -0.031031792621540273
-1.1751464402039424   -0.07577489366330661   -0.031031792621540273
-1.2295947443589583   -0.19470405253438822   -0.030112854562319952
-1.2295947443589583   -0.19470405253438822   -0.030112854562319952
-1.2295947443589583   -0.19470405253438822   -0.030112854562319952
-1.2295947443589583   -0.19470405253438822   -0.030112854562319952
-0.5545972203239093   0.046900326365778844   0.005866959176675499
-0.5545972203239093   0.046900326365778844   0.005866959176675499
-0.5545972203239093   0.046900326365778844   0.005866959176675499
-0.5545972203239093   0.046900326365778844   0.005866959176675499
-0.8705497858190836   -0.06472056324005164   -0.012483946657042794
-0.8705497858190836   -0.06472056324005164   -0.012483946657042794
-0.8705497858190836   -0.06472056324005164   -0.012483946657042794
-0.8705497858190836   -0.06472056324005164   -0.012483946657042794
-0.571524893080418   -0.052868105845194024   0.020997027605110834
-0.571524893080418   -0.052868105845194024   0.020997027605110834
-0.571524893080418   -0.052868105845194024   0.020997027605110834
-0.571524893080418   -0.052868105845194024   0.020997027605110834
-1.2092158029174396   -0.09148435163841154   -0.03143784825071531
-1.2092158029174396   -0.09148435163841154   -0.03143784825071531
-1.2092158029174396   -0.09148435163841154   -0.03143784825071531
-1.2092158029174396   -0.09148435163841154   -0.03143784825071531
-1.2681077726424994   -0.20713645655500296   -0.021162183788214512
-1.2681077726424994   -0.20713645655500296   -0.021162183788214512
-1.2681077726424994   -0.20713645655500296   -0.021162183788214512
-1.2681077726424994   -0.20713645655500296   -0.021162183788214512
-0.5855706820280084   0.032798375937430874   0.007167378231225395
-0.5855706820280084   0.032798375937430874   0.007167378231225395
-0.5855706820280084   0.032798375937430874   0.007167378231225395
-0.5855706820280084   0.032798375937430874   0.007167378231225395
-0.894875511336002   -0.07158924037146373   -0.012510543553690096
-0.894875511336002   -0.07158924037146373   -0.012510543553690096
-0.894875511336002   -0.07158924037146373   -0.012510543553690096
-0.894875511336002   -0.07158924037146373   -0.012510543553690096
-0.6022778165174664   -0.06537667685673375   0.021806758578098478
-0.6022778165174664   -0.06537667685673375   0.021806758578098478
-0.6022778165174664   -0.06537667685673375   0.021806758578098478
-0.6022778165174664   -0.06537667685673375   0.021806758578098478
-1.249086580152322   -0.10664734576012128   -0.026545332132221607
-1.249086580152322   -0.10664734576012128   -0.026545332132221607
-1.249086580152322   -0.10664734576012128   -0.026545332132221607
-1.249086580152322   -0.10664734576012128   -0.026545332132221607
-1.311679521610103   -0.22353971618004584   -0.02263285592807141
-1.311679521610103   -0.22353971618004584   -0.02263285592807141
-1.311679521610103   -0.22353971618004584   -0.02263285592807141
-1.311679521610103   -0.22353971618004584   -0.02263285592807141
-0.6190462037417472   0.015385099820723253   0.008561391246461776
-0.6190462037417472   0.015385099820723253   0.008561391246461776
-0.6190462037417472   0.015385099820723253   0.008561391246461776
-0.6190462037417472   0.015385099820723253   0.008561391246461776
-0.9381379741952813   -0.08842763662579778   -0.02036541097512362
-0.9381379741952813   -0.08842763662579778   -0.02036541097512362
-0.9381379741952813   -0.08842763662579778   -0.02036541097512362
-0.9381379741952813   -0.08842763662579778   -0.02036541097512362
-1.135428465079873   0.05343498127927218   0.038348208056228836
-1.135428465079873   0.05343498127927218   0.038348208056228836
-1.135428465079873   0.05343498127927218   0.038348208056228836
-1.135428465079873   0.05343498127927218   0.038348208056228836
-1.7603708214931746   -0.08769490086614606   -0.023571391547143564
-1.7603708214931746   -0.08769490086614606   -0.023571391547143564
-1.7603708214931746   -0.08769490086614606   -0.023571391547143564
-1.7603708214931746   -0.08769490086614606   -0.023571391547143564
-1.803506260890161   -0.08931078846824375   0.03935096116674444
-1.803506260890161   -0.08931078846824375   0.03935096116674444
-1.803506260890161   -0.08931078846824375   0.03935096116674444
-1.803506260890161   -0.08931078846824375   0.03935096116674444
-1.1791776797074431   0.03662623162536277   -0.009357815464506133
-1.1791776797074431   0.03662623162536277   -0.009357815464506133
-1.1791776797074431   0.03662623162536277   -0.009357815464506133
-1.1791776797074431   0.03662623162536277   -0.009357815464506133
-1.401121395144254   0.0010215486873246804   0.035582864324768745
-1.401121395144254   0.0010215486873246804   0.035582864324768745
-1.401121395144254   0.0010215486873246804   0.035582864324768745
-1.401121395144254   0.0010215486873246804   0.035582864324768745
-1.1669773661752023   0.039815662504841864   0.04845432131721386
-1.1669773661752023   0.039815662504841864   0.04845432131721386
-1.1669773661752023   0.039815662504841864   0.04845432131721386
-1.1669773661752023   0.039815662504841864   0.04845432131721386
-1.8148990376762528   -0.09169268260157443   -0.015231028630382518
-1.8148990376762528   -0.09169268260157443   -0.015231028630382518
-1.8148990376762528   -0.09169268260157443   -0.015231028630382518
-1.8148990376762528   -0.09169268260157443   -0.015231028630382518
-1.85794066347048   -0.10405330694746795   0.053536925188709894
-1.85794066347048   -0.10405330694746795   0.053536925188709894
-1.85794066347048   -0.10405330694746795   0.053536925188709894
-1.85794066347048   -0.10405330694746795   0.053536925188709894
-1.2190854255389412   0.026606664684912407   -0.009793569510350833
-1.2190854255389412   0.026606664684912407   -0.009793569510350833
-1.2190854255389412   0.026606664684912407   -0.009793569510350833
-1.2190854255389412   0.026606664684912407   -0.009793569510350833
-1.4714297283962452   -0.01622340972329217   0.019525772135313896
-1.4714297283962452   -0.01622340972329217   0.019525772135313896
-1.4714297283962452   -0.01622340972329217   0.019525772135313896
-1.4714297283962452   -0.01622340972329217   0.019525772135313896
-1.2079315960990438   0.024797974969916148   0.0477842674041328
-1.2079315960990438   0.024797974969916148   0.0477842674041328
-1.2079315960990438   0.024797974969916148   0.0477842674041328
-1.2079315960990438   0.024797974969916148   0.0477842674041328
-1.8711952203974562   -0.1043453447195376   -0.012443821674085712
-1.8711952203974562   -0.1043453447195376   -0.012443821674085712
-1.8711952203974562   -0.1043453447195376   -0.012443821674085712
-1.8711952203974562   -0.1043453447195376   -0.012443821674085712
-1.935348003848013   -0.1636232689390187   0.04646594662072683
-1.935348003848013   -0.1636232689390187   0.04646594662072683
-1.935348003848013   -0.1636232689390187   0.04646594662072683
-1.935348003848013   -0.1636232689390187   0.04646594662072683
-1.2650984215316146   -0.004040700383025897   -0.00922637133266102
-1.2650984215316146   -0.004040700383025897   -0.00922637133266102
-1.2650984215316146   -0.004040700383025897   -0.00922637133266102
-1.2650984215316146   -0.004040700383025897   -0.00922637133266102
-1.5012312789572175   -0.03796093442476833   0.0054366476060822705
-1.5012312789572175   -0.03796093442476833   0.0054366476060822705
-1.5012312789572175   -0.03796093442476833   0.0054366476060822705
-1.5012312789572175   -0.03796093442476833   0.0054366476060822705
1.1616062980088397   0.06221931534172531   -0.04126125095867739
1.1616062980088397   0.06221931534172531   -0.04126125095867739
1.1616062980088397   0.06221931534172531   -0.04126125095867739
1.1616062980088397   0.06221931534172531   -0.04126125095867739
0.5756329688613373   -0.0007504910937409515   0.014908337582199602
0.5756329688613373   -0.0007504910937409515   0.014908337582199602
0.5756329688613373   -0.0007504910937409515   0.014908337582199602
0.5756329688613373   -0.0007504910937409515   0.014908337582199602
0.5262676977635327   -0.08569318302064673   -0.03788248727243605
0.5262676977635327   -0.08569318302064673   -0.03788248727243605
0.5262676977635327   -0.08569318302064673   -0.03788248727243605
0.5262676977635327   -0.08569318302064673   -0.03788248727243605
1.1398099010647513   0.09385354304949281   0.018702430617172208
1.1398099010647513   0.09385354304949281   0.018702430617172208
1.1398099010647513   0.09385354304949281   0.018702430617172208
1.1398099010647513   0.09385354304949281   0.018702430617172208
0.8068423215677794   0.00711929011948037   -0.02655784247867002
0.8068423215677794   0.00711929011948037   -0.02655784247867002
0.8068423215677794   0.00711929011948037   -0.02655784247867002
0.8068423215677794   0.00711929011948037   -0.02655784247867002
1.1157099686767584   0.03181919246818976   -0.039762880741479226
1.1157099686767584   0.03181919246818976   -0.039762880741479226
1.1157099686767584   0.03181919246818976   -0.039762880741479226
1.1157099686767584   0.03181919246818976   -0.039762880741479226
0.5493378539159182   -0.024688608674951373   0.016463719143784347
0.5493378539159182   -0.024688608674951373   0.016463719143784347
0.5493378539159182   -0.024688608674951373   0.016463719143784347
0.5493378539159182   -0.024688608674951373   0.016463719143784347
0.5015789574361176   -0.09282493783155167   -0.032939056164100616
0.5015789574361176   -0.09282493783155167   -0.032939056164100616
0.5015789574361176   -0.09282493783155167   -0.032939056164100616
0.5015789574361176   -0.09282493783155167   -0.032939056164100616
1.102886534281557   0.08404312142306916   0.025595091245578204
1.102886534281557   0.08404312142306916   0.025595091245578204
1.102886534281557   0.08404312142306916   0.025595091245578204
1.102886534281557   0.08404312142306916   0.025595091245578204
0.787587327803277   -0.005751974606394317   -0.03483669140083971
0.787587327803277   -0.005751974606394317   -0.03483669140083971
0.787587327803277   -0.005751974606394317   -0.03483669140083971
0.787587327803277   -0.005751974606394317   -0.03483669140083971
1.0792988560114192   0.02303901448327031   -0.031339193165292295
1.0792988560114192   0.02303901448327031   -0.031339193165292295
1.0792988560114192   0.02303901448327031   -0.031339193165292295
1.0792988560114192   0.02303901448327031   -0.031339193165292295
0.5242399134325733   -0.032747553165432486   0.020288339152053587
0.5242399134325733   -0.032747553165432486   0.020288339152053587
0.5242399134325733   -0.032747553165432486   0.020288339152053587
0.5242399134325733   -0.032747553165432486   0.020288339152053587
0.479043318409232   -0.0948752746755365   -0.02691320693051176
0.479043318409232   -0.0948752746755365   -0.02691320693051176
0.479043318409232   -0.0948752746755365   -0.02691320693051176
0.479043318409232   -0.0948752746755365   -0.02691320693051176
1.0612615333932052   0.0754912123186916   0.03187510175761203
1.0612615333932052   0.0754912123186916   0.03187510175761203
1.0612615333932052   0.0754912123186916   0.03187510175761203
1.0612615333932052   0.0754912123186916   0.03187510175761203
0.7425060916916383   -0.014594984602497169   -0.04728964071501001
0.7425060916916383   -0.014594984602497169   -0.04728964071501001
0.7425060916916383   -0.014594984602497169   -0.04728964071501001
0.7425060916916383   -0.014594984602497169   -0.04728964071501001
0.5856080582818247   0.06075756012962018   0.0032757334612753576
0.5856080582818247   0.06075756012962018   0.0032757334612753576
0.5856080582818247   0.06075756012962018   0.0032757334612753576
0.5856080582818247   0.06075756012962018   0.0032757334612753576
0.019695136733324094   -0.01930307650278438   -0.0024323178049720576
0.019695136733324094   -0.01930307650278438   -0.0024323178049720576
0.019695136733324094   -0.01930307650278438   -0.0024323178049720576
0.019695136733324094   -0.01930307650278438   -0.0024323178049720576
-0.01751638094913775   -0.0772313472963999   -0.025801432619678627
-0.01751638094913775   -0.0772313472963999   -0.025801432619678627
-0.01751638094913775   -0.0772313472963999   -0.025801432619678627
-0.01751638094913775   -0.0772313472963999   -0.025801432619678627
0.5743487723509793   0.0850234217877188   0.03180628085641994
0.5743487723509793   0.0850234217877188   0.03180628085641994
0.5743487723509793   0.0850234217877188   0.03180628085641994
0.5743487723509793   0.0850234217877188   0.03180628085641994
0.286005656477245   0.012113521093562098   -0.003255498589110924
0.286005656477245   0.012113521093562098   -0.003255498589110924
0.286005656477245   0.012113521093562098   -0.003255498589110924
0.286005656477245   0.012113521093562098   -0.003255498589110924
0.5612982451724885   0.045006064835170834   0.006571001916518059
0.5612982451724885   0.045006064835170834   0.006571001916518059
0.5612982451724885   0.045006064835170834   0.006571001916518059
0.5612982451724885   0.045006064835170834   0.006571001916518059
-0.004233018718942357   -0.036981155292141514   0.00036518652703995333
-0.004233018718942357   -0.036981155292141514   0.00036518652703995333
-0.004233018718942357   -0.036981155292141514   0.00036518652703995333
-0.004233018718942357   -0.036981155292141514   0.00036518652703995333
-0.040903230908836304   -0.08876156594819676   -0.022311361115183122
-0.040903230908836304   -0.08876156594819676   -0.022311361115183122
-0.040903230908836304   -0.08876156594819676   -0.022311361115183122
-0.040903230908836304   -0.08876156594819676   -0.022311361115183122
0.54785499742874   0.07042611365509631   0.03519009231235824
0.54785499742874   0.07042611365509631   0.03519009231235824
0.54785499742874   0.07042611365509631   0.03519009231235824
0.54785499742874   0.07042611365509631   0.03519009231235824
0.2574240242842587   -0.0022779229293305586   -0.011431010739220246
0.2574240242842587   -0.0022779229293305586   -0.011431010739220246
0.2574240242842587   -0.0022779229293305586   -0.011431010739220246
0.2574240242842587   -0.0022779229293305586   -0.011431010739220246
0.5352948782556525   0.032919541773451605   0.009896068328569957
0.5352948782556525   0.032919541773451605   0.009896068328569957
0.5352948782556525   0.032919541773451605   0.009896068328569957
0.5352948782556525   0.032919541773451605   0.009896068328569957
-0.028320977503503025   -0.05123285983430552   0.0030711997975920342
-0.028320977503503025   -0.05123285983430552   0.0030711997975920342
-0.028320977503503025   -0.05123285983430552   0.0030711997975920342
-0.028320977503503025   -0.05123285983430552   0.0030711997975920342
-0.0640508388574518   -0.09568361577101347   -0.01775999922063137
-0.0640508388574518   -0.09568361577101347   -0.01775999922063137
-0.0640508388574518   -0.09568361577101347   -0.01775999922063137
-0.0640508388574518   -0.09568361577101347   -0.01775999922063137
0.5226563733001218   0.05812970924145362   0.038147083606940524
0.5226563733001218   0.05812970924145362   0.038147083606940524
0.5226563733001218   0.05812970924145362   0.038147083606940524
0.5226563733001218   0.05812970924145362   0.038147083606940524
0.23631432839325742   -0.011462998309090533   -0.017450123375328114
0.23631432839325742   -0.011462998309090533   -0.017450123375328114
0.23631432839325742   -0.011462998309090533   -0.017450123375328114
0.23631432839325742   -0.011462998309090533   -0.017450123375328114
0.038940354661762745   0.06129542614387914   0.01319526919055766
0.038940354661762745   0.06129542614387914   0.01319526919055766
0.038940354661762745   0.06129542614387914   0.01319526919055766
0.038940354661762745   0.06129542614387914   0.01319526919055766
-0.5190419815267042   -0.03368187037089192   -0.017846812448033694
-0.5190419815267042   -0.03368187037089192   -0.017846812448033694
-0.5190419815267042   -0.03368187037089192   -0.017846812448033694
-0.5190419815267042   -0.03368187037089192   -0.017846812448033694
-0.5480727620279087   -0.07083006717875226   -0.01637422787303057
-0.5480727620279087   -0.07083006717875226   -0.01637422787303057
-0.5480727620279087   -0.07083006717875226   -0.01637422787303057
-0.5480727620279087   -0.07083006717875226   -0.01637422787303057
0.020103421735414743   0.06963023250890082   0.015436000997783111
0.020103421735414743   0.06963023250890082   0.015436000997783111
0.020103421735414743   0.06963023250890082   0.015436000997783111
0.020103421735414743   0.06963023250890082   0.015436000997783111
-0.25170081800522154   0.00777404388576864   0.0009684043374690275
-0.25170081800522154   0.00777404388576864   0.0009684043374690275
-0.25170081800522154   0.00777404388576864   0.0009684043374690275
-0.25170081800522154   0.00777404388576864   0.0009684043374690275
0.01612267477610303   0.04859697124890106   0.01656552746122431
0.01612267477610303   0.04859697124890106   0.01656552746122431
0.01612267477610303   0.04859697124890106   0.01656552746122431
0.01612267477610303   0.04859697124890106   0.01656552746122431
-0.5434534115161437   -0.04915820236629928   -0.014949340126658904
-0.5434534115161437   -0.04915820236629928   -0.014949340126658904
-0.5434534115161437   -0.04915820236629928   -0.014949340126658904
-0.5434534115161437   -0.04915820236629928   -0.014949340126658904
-0.5731693824151772   -0.0834967197020526   -0.01361138097410506
-0.5731693824151772   -0.0834967197020526   -0.01361138097410506
-0.5731693824151772   -0.0834967197020526   -0.01361138097410506
-0.5731693824151772   -0.0834967197020526   -0.01361138097410506
-0.004020222056112636   0.05461511690183656   0.018727000298401898
-0.004020222056112636   0.05461511690183656   0.018727000298401898
-0.004020222056112636   0.05461511690183656   0.018727000298401898
-0.004020222056112636   0.05461511690183656   0.018727000298401898
-0.27574640671860623   -0.004630572826727533   -0.005172150353291362
-0.27574640671860623   -0.004630572826727533   -0.005172150353291362
-0.27574640671860623   -0.004630572826727533   -0.005172150353291362
-0.27574640671860623   -0.004630572826727533   -0.005172150353291362
-0.007418960362159929   0.036371105031143575   0.019977320638858417
-0.007418960362159929   0.036371105031143575   0.019977320638858417
-0.007418960362159929   0.036371105031143575   0.019977320638858417
-0.007418960362159929   0.036371105031143575   0.019977320638858417
-0.5692232134420289   -0.06470527716425334   -0.01267197864616206
-0.5692232134420289   -0.06470527716425334   -0.01267197864616206
-0.5692232134420289   -0.06470527716425334   -0.01267197864616206
-0.5692232134420289   -0.06470527716425334   -0.01267197864616206
-0.5980941866142442   -0.09346177555691901   -0.009017580403565671
-0.5980941866142442   -0.09346177555691901   -0.009017580403565671
-0.5980941866142442   -0.09346177555691901   -0.009017580403565671
-0.5980941866142442   -0.09346177555691901   -0.009017580403565671
-0.02901333481517207   0.040470504098029096   0.021273401121724763
-0.02901333481517207   0.040470504098029096   0.021273401121724763
-0.02901333481517207   0.040470504098029096   0.021273401121724763
-0.02901333481517207   0.040470504098029096   0.021273401121724763
-0.30161989857733046   -0.017245575718135057   -0.01188447410253868
-0.30161989857733046   -0.017245575718135057   -0.01188447410253868
-0.30161989857733046   -0.017245575718135057   -0.01188447410253868
-0.30161989857733046   -0.017245575718135057   -0.01188447410253868
-0.48946608027266225   0.07236475128126825   0.023986072170023194
-0.48946608027266225   0.07236475128126825   0.023986072170023194
-0.48946608027266225   0.07236475128126825   0.023986072170023194
-0.48946608027266225   0.07236475128126825   0.023986072170023194
-1.040044634858724   -0.04629462856556507   -0.02922734966785486
-1.040044634858724   -0.04629462856556507   -0.02922734966785486
-1.040044634858724   -0.04629462856556507   -0.02922734966785486
-1.040044634858724   -0.04629462856556507   -0.02922734966785486
-1.062674755643348   -0.05683861242582902   -0.004750199461925092
-1.062674755643348   -0.05683861242582902   -0.004750199461925092
-1.062674755643348   -0.05683861242582902   -0.004750199461925092
-1.062674755643348   -0.05683861242582902   -0.004750199461925092
-0.5202561079285372   0.05269353258275017   -0.0008145571376714858
-0.5202561079285372   0.05269353258275017   -0.0008145571376714858
-0.5202561079285372   0.05269353258275017   -0.0008145571376714858
-0.5202561079285372   0.05269353258275017   -0.0008145571376714858
-0.7724884920649883   0.007857123784846543   0.005638479711883505
-0.7724884920649883   0.007857123784846543   0.005638479711883505
-0.7724884920649883   0.007857123784846543   0.005638479711883505
-0.7724884920649883   0.007857123784846543   0.005638479711883505
-0.5133776094515681   0.05935429189241402   0.026917175937510113
-0.5133776094515681   0.05935429189241402   0.026917175937510113
-0.5133776094515681   0.05935429189241402   0.026917175937510113
-0.5133776094515681   0.05935429189241402   0.026917175937510113
-1.0686888778658519   -0.06263499548102766   -0.02902442751924588
-1.0686888778658519   -0.06263499548102766   -0.02902442751924588
-1.0686888778658519   -0.06263499548102766   -0.02902442751924588
-1.0686888778658519   -0.06263499548102766   -0.02902442751924588
-1.0935794412165958   -0.07108290902406722   -0.004230287387677674
-1.0935794412165958   -0.07108290902406722   -0.004230287387677674
-1.0935794412165958   -0.07108290902406722   -0.004230287387677674
-1.0935794412165958   -0.07108290902406722   -0.004230287387677674
-0.5456515939980984   0.03836514796586055   0.0021156934433821176
-0.5456515939980984   0.03836514796586055   0.0021156934433821176
-0.5456515939980984   0.03836514796586055   0.0021156934433821176
-0.5456515939980984   0.03836514796586055   0.0021156934433821176
-0.7941075012289409   -0.0034792424115916154   0.0006032818978428944
-0.7941075012289409   -0.0034792424115916154   0.0006032818978428944
-0.7941075012289409   -0.0034792424115916154   0.0006032818978428944
-0.7941075012289409   -0.0034792424115916154   0.0006032818978428944
-0.5381162223312024   0.0470727768160753   0.031084922927641555
-0.5381162223312024   0.0470727768160753   0.031084922927641555
-0.5381162223312024   0.0470727768160753   0.031084922927641555
-0.5381162223312024   0.0470727768160753   0.031084922927641555
-1.0993548980138268   -0.07803062300461777   -0.02615985739328127
-1.0993548980138268   -0.07803062300461777   -0.02615985739328127
-1.0993548980138268   -0.07803062300461777   -0.02615985739328127
-1.0993548980138268   -0.07803062300461777   -0.02615985739328127
-1.1220305330828755   -0.08633851563547526   0.00292764330659729
-1.1220305330828755   -0.08633851563547526   0.00292764330659729
-1.1220305330828755   -0.08633851563547526   0.00292764330659729
-1.1220305330828755   -0.08633851563547526   0.00292764330659729
-0.5725645357766483   0.021306738256441277   0.003862159971053332
-0.5725645357766483   0.021306738256441277   0.003862159971053332
-0.5725645357766483   0.021306738256441277   0.003862159971053332
-0.5725645357766483   0.021306738256441277   0.003862159971053332
-0.8279035765889041   -0.019414488102152433   -0.006175135546866939
-0.8279035765889041   -0.019414488102152433   -0.006175135546866939
-0.8279035765889041   -0.019414488102152433   -0.006175135546866939
-0.8279035765889041   -0.019414488102152433   -0.006175135546866939
-1.0031985947095345   0.07516288941876173   0.03354533309375536
-1.0031985947095345   0.07516288941876173   0.03354533309375536
-1.0031985947095345   0.07516288941876173   0.03354533309375536
-1.0031985947095345   0.07516288941876173   0.03354533309375536
-1.535388801562853   -0.0710398505994671   -0.026899241034468127
-1.535388801562853   -0.0710398505994671   -0.026899241034468127
-1.535388801562853   -0.0710398505994671   -0.026899241034468127
-1.535388801562853   -0.0710398505994671   -0.026899241034468127
-1.5563745683562011   -0.03123772412582454   0.028519294428315453
-1.5563745683562011   -0.03123772412582454   0.028519294428315453
-1.5563745683562011   -0.03123772412582454   0.028519294428315453
-1.5563745683562011   -0.03123772412582454   0.028519294428315453
-1.0470428056822596   0.031615830030947256   -0.015044892113259503
-1.0470428056822596   0.031615830030947256   -0.015044892113259503
-1.0470428056822596   0.031615830030947256   -0.015044892113259503
-1.0470428056822596   0.031615830030947256   -0.015044892113259503
-1.228679390225729   0.015604679807546318   0.02826524699368818
-1.228679390225729   0.015604679807546318   0.02826524699368818
-1.228679390225729   0.015604679807546318   0.02826524699368818
-1.228679390225729   0.015604679807546318   0.02826524699368818
-1.0273312388174916   0.07657736445379748   0.038551407787715805
-1.0273312388174916   0.07657736445379748   0.038551407787715805
-1.0273312388174916   0.07657736445379748   0.038551407787715805
-1.0273312388174916   0.07657736445379748   0.038551407787715805
-1.5749231011836742   -0.07503622451137965   -0.02042486932347977
-1.5749231011836742   -0.07503622451137965   -0.02042486932347977
-1.5749231011836742   -0.07503622451137965   -0.02042486932347977
-1.5749231011836742   -0.07503622451137965   -0.02042486932347977
-1.5947618888092796   -0.03869054847334763   0.03939682796865708
-1.5947618888092796   -0.03869054847334763   0.03939682796865708
-1.5947618888092796   -0.03869054847334763   0.03939682796865708
-1.5947618888092796   -0.03869054847334763   0.03939682796865708
-1.0765177657325717   0.023381989170633   -0.013386808162257305
-1.0765177657325717   0.023381989170633   -0.013386808162257305
-1.0765177657325717   0.023381989170633   -0.013386808162257305
-1.0765177657325717   0.023381989170633   -0.013386808162257305
-1.281557328193905   0.007705561370073888   0.01820329697968877
-1.281557328193905   0.007705561370073888   0.01820329697968877
-1.281557328193905   0.007705561370073888   0.01820329697968877
-1.281557328193905   0.007705561370073888   0.01820329697968877
-1.0547453586088749   0.07100402941530659   0.04785318721155378
-1.0547453586088749   0.07100402941530659   0.04785318721155378
-1.0547453586088749   0.07100402941530659   0.04785318721155378
-1.0547453586088749   0.07100402941530659   0.04785318721155378
-1.6154090465646183   -0.0851873393496615   -0.01734216993171403
-1.6154090465646183   -0.0851873393496615   -0.01734216993171403
-1.6154090465646183   -0.0851873393496615   -0.01734216993171403
-1.6154090465646183   -0.0851873393496615   -0.01734216993171403
-1.6468308184884373   -0.07071070830993065   0.03915598598963793
-1.6468308184884373   -0.07071070830993065   0.03915598598963793
-1.6468308184884373   -0.07071070830993065   0.03915598598963793
-1.6468308184884373   -0.07071070830993065   0.03915598598963793
-1.1081347544129005   -0.0013518957556931388   -0.01258008322331075
-1.1081347544129005   -0.0013518957556931388   -0.01258008322331075
-1.1081347544129005   -0.0013518957556931388   -0.01258008322331075
-1.1081347544129005   -0.0013518957556931388   -0.01258008322331075
-1.2968623121137182   -0.003683654381178403   0.014889905908523848
-1.2968623121137182   -0.003683654381178403   0.014889905908523848
-1.2968623121137182   -0.003683654381178403   0.014889905908523848
-1.2968623121137182   -0.003683654381178403   0.014889905908523848
0.8814072558320183   0.049034309766771644   -0.041941945085918475
0.8814072558320183   0.049034309766771644   -0.041941945085918475
0.8814072558320183   0.049034309766771644   -0.041941945085918475
0.8814072558320183   0.049034309766771644   -0.041941945085918475
0.41900432630674456   0.00827622592469611   0.01596072671544572
0.41900432630674456   0.00827622592469611   0.01596072671544572
0.41900432630674456   0.00827622592469611   0.01596072671544572
0.41900432630674456   0.00827622592469611   0.01596072671544572
0.3724216809355467   -0.07133474110064411   -0.039850770004338405
0.3724216809355467   -0.07133474110064411   -0.039850770004338405
0.3724216809355467   -0.07133474110064411   -0.039850770004338405
0.3724216809355467   -0.07133474110064411   -0.039850770004338405
0.8623922066574397   0.08094558038146075   0.019740945246514676
0.8623922066574397   0.08094558038146075   0.019740945246514676
0.8623922066574397   0.08094558038146075   0.019740945246514676
0.8623922066574397   0.08094558038146075   0.019740945246514676
0.6010729786301171   0.008123609584672162   -0.01777752702549897
0.6010729786301171   0.008123609584672162   -0.01777752702549897
0.6010729786301171   0.008123609584672162   -0.01777752702549897
0.6010729786301171   0.008123609584672162   -0.01777752702549897
0.8387166230403181   0.021963435691376237   -0.03965482814900812
0.8387166230403181   0.021963435691376237   -0.03965482814900812
0.8387166230403181   0.021963435691376237   -0.03965482814900812
0.8387166230403181   0.021963435691376237   -0.03965482814900812
0.39563175794761496   -0.012818103015613327   0.017682976970968916
0.39563175794761496   -0.012818103015613327   0.017682976970968916
0.39563175794761496   -0.012818103015613327   0.017682976970968916
0.39563175794761496   -0.012818103015613327   0.017682976970968916
0.3506657696718633   -0.07831942181457555   -0.033996860332951816
0.3506657696718633   -0.07831942181457555   -0.033996860332951816
0.3506657696718633   -0.07831942181457555   -0.033996860332951816
0.3506657696718633   -0.07831942181457555   -0.033996860332951816
0.8285623197241969   0.07095813135375577   0.025982011970886818
0.8285623197241969   0.07095813135375577   0.025982011970886818
0.8285623197241969   0.07095813135375577   0.025982011970886818
0.8285623197241969   0.07095813135375577   0.025982011970886818
0.5816410535994575   -0.003999167788966113   -0.02492637939545503
0.5816410535994575   -0.003999167788966113   -0.02492637939545503
0.5816410535994575   -0.003999167788966113   -0.02492637939545503
0.5816410535994575   -0.003999167788966113   -0.02492637939545503
0.805435698102762   0.013079452484741322   -0.03177241726726624
0.805435698102762   0.013079452484741322   -0.03177241726726624
0.805435698102762   0.013079452484741322   -0.03177241726726624
0.805435698102762   0.013079452484741322   -0.03177241726726624
0.3732020570207613   -0.021031077218097438   0.021396231815056312
0.3732020570207613   -0.021031077218097438   0.021396231815056312
0.3732020570207613   -0.021031077218097438   0.021396231815056312
0.3732020570207613   -0.021031077218097438   0.021396231815056312
0.33106423384108297   -0.08258617205195898   -0.028314520543549382
0.33106423384108297   -0.08258617205195898   -0.028314520543549382
0.33106423384108297   -0.08258617205195898   -0.028314520543549382
0.33106423384108297   -0.08258617205195898   -0.028314520543549382
0.7904079997944284   0.06017101292383856   0.030880862098619476
0.7904079997944284   0.06017101292383856   0.030880862098619476
0.7904079997944284   0.06017101292383856   0.030880862098619476
0.7904079997944284   0.06017101292383856   0.030880862098619476
0.543097437543371   -0.01314718069587574   -0.03552730687861921
0.543097437543371   -0.01314718069587574   -0.03552730687861921
0.543097437543371   -0.01314718069587574   -0.03552730687861921
0.543097437543371   -0.01314718069587574   -0.03552730687861921
0.42605665134863474   0.06196283795932685   -0.0024642601097265952
0.42605665134863474   0.06196283795932685   -0.0024642601097265952
0.42605665134863474   0.06196283795932685   -0.0024642601097265952
0.42605665134863474   0.06196283795932685   -0.0024642601097265952
-0.027971479070932163   -0.006135397751589742   -0.0002542495681835033
-0.027971479070932163   -0.006135397751589742   -0.0002542495681835033
-0.027971479070932163   -0.006135397751589742   -0.0002542495681835033
-0.027971479070932163   -0.006135397751589742   -0.0002542495681835033
-0.06078765594214185   -0.05343622109384487   -0.025355505258277344
-0.06078765594214185   -0.05343622109384487   -0.025355505258277344
-0.06078765594214185   -0.05343622109384487   -0.025355505258277344
-0.06078765594214185   -0.05343622109384487   -0.025355505258277344
0.41502304369861887   0.07359339808457827   0.028227904625797023
0.41502304369861887   0.07359339808457827   0.028227904625797023
0.41502304369861887   0.07359339808457827   0.028227904625797023
0.41502304369861887   0.07359339808457827   0.028227904625797023
0.18517998069061975   0.018143161100065933   0.001330038246327948
0.18517998069061975   0.018143161100065933   0.001330038246327948
0.18517998069061975   0.018143161100065933   0.001330038246327948
0.18517998069061975   0.018143161100065933   0.001330038246327948
0.4038781705188886   0.04482286051030252   0.0012740763014292156
0.4038781705188886   0.04482286051030252   0.0012740763014292156
0.4038781705188886   0.04482286051030252   0.0012740763014292156
0.4038781705188886   0.04482286051030252   0.0012740763014292156
-0.04945263872108185   -0.02447553947823811   0.002358899231415886
-0.04945263872108185   -0.02447553947823811   0.002358899231415886
-0.04945263872108185   -0.02447553947823811   0.002358899231415886
-0.04945263872108185   -0.02447553947823811   0.002358899231415886
-0.08127873225407774   -0.06663353725859442   -0.020974432573277704
-0.08127873225407774   -0.06663353725859442   -0.020974432573277704
-0.08127873225407774   -0.06663353725859442   -0.020974432573277704
-0.08127873225407774   -0.06663353725859442   -0.020974432573277704
0.39086443685936545   0.057819933694614925   0.030857120095364666
0.39086443685936545   0.057819933694614925   0.030857120095364666
0.39086443685936545   0.057819933694614925   0.030857120095364666
0.39086443685936545   0.057819933694614925   0.030857120095364666
0.1599137170470902   0.002541527979013976   -0.006501281832192006
0.1599137170470902   0.002541527979013976   -0.006501281832192006
0.1599137170470902   0.002541527979013976   -0.006501281832192006
0.1599137170470902   0.002541527979013976   -0.006501281832192006
0.3800897408919366   0.030663132229854673   0.0041404417229840736
0.3800897408919366   0.030663132229854673   0.0041404417229840736
0.3800897408919366   0.030663132229854673   0.0041404417229840736
0.3800897408919366   0.030663132229854673   0.0041404417229840736
-0.0706621593977831   -0.03963485890497291   0.005109753354574051
-0.0706621593977831   -0.03963485890497291   0.005109753354574051
-0.0706621593977831   -0.03963485890497291   0.005109753354574051
-0.0706621593977831   -0.03963485890497291   0.005109753354574051
-0.10150001820297441   -0.07770270109962703   -0.016858576595366544
-0.10150001820297441   -0.07770270109962703   -0.016858576595366544
-0.10150001820297441   -0.07770270109962703   -0.016858576595366544
-0.10150001820297441   -0.07770270109962703   -0.016858576595366544
0.36855900951858844   0.04324945669481354   0.03332372909720393
0.36855900951858844   0.04324945669481354   0.03332372909720393
0.36855900951858844   0.04324945669481354   0.03332372909720393
0.36855900951858844   0.04324945669481354   0.03332372909720393
0.14055440756892737   -0.009265741991817018   -0.013019219322027896
0.14055440756892737   -0.009265741991817018   -0.013019219322027896
0.14055440756892737   -0.009265741991817018   -0.013019219322027896
0.14055440756892737   -0.009265741991817018   -0.013019219322027896
-0.009885844404148445   0.07377202062171254   0.010266505392432818
-0.009885844404148445   0.07377202062171254   0.010266505392432818
-0.009885844404148445   0.07377202062171254   0.010266505392432818
-0.009885844404148445   0.07377202062171254   0.010266505392432818
-0.4654376919599776   -0.020287275002940863   -0.01543673528013867
-0.4654376919599776   -0.020287275002940863   -0.01543673528013867
-0.4654376919599776   -0.020287275002940863   -0.01543673528013867
-0.4654376919599776   -0.020287275002940863   -0.01543673528013867
-0.48658569098830384   -0.03720690238399427   -0.012060560742973715
-0.48658569098830384   -0.03720690238399427   -0.012060560742973715
-0.48658569098830384   -0.03720690238399427   -0.012060560742973715
-0.48658569098830384   -0.03720690238399427   -0.012060560742973715
-0.03067936470939719   0.059432064130966356   0.01231766568063471
-0.03067936470939719   0.059432064130966356   0.01231766568063471
-0.03067936470939719   0.059432064130966356   0.01231766568063471
-0.03067936470939719   0.059432064130966356   0.01231766568063471
-0.24755846935060177   0.019049339484588812   0.004854047114362471
-0.24755846935060177   0.019049339484588812   0.004854047114362471
-0.24755846935060177   0.019049339484588812   0.004854047114362471
-0.24755846935060177   0.019049339484588812   0.004854047114362471
-0.030274131498708785   0.05935225069627342   0.014423645168769657
-0.030274131498708785   0.05935225069627342   0.014423645168769657
-0.030274131498708785   0.05935225069627342   0.014423645168769657
-0.030274131498708785   0.05935225069627342   0.014423645168769657
-0.4865961545962551   -0.036732319346564166   -0.01258746182015998
-0.4865961545962551   -0.036732319346564166   -0.01258746182015998
-0.4865961545962551   -0.036732319346564166   -0.01258746182015998
-0.4865961545962551   -0.036732319346564166   -0.01258746182015998
-0.5075751691472354   -0.05148925292915179   -0.008239901765447746
-0.5075751691472354   -0.05148925292915179   -0.008239901765447746
-0.5075751691472354   -0.05148925292915179   -0.008239901765447746
-0.5075751691472354   -0.05148925292915179   -0.008239901765447746
-0.052044216885759574   0.043190762929659315   0.015373844080059441
-0.052044216885759574   0.043190762929659315   0.015373844080059441
-0.052044216885759574   0.043190762929659315   0.015373844080059441
-0.052044216885759574   0.043190762929659315   0.015373844080059441
-0.268764085858688   0.0049504090288490996   -0.001496276993475619
-0.268764085858688   0.0049504090288490996   -0.001496276993475619
-0.268764085858688   0.0049504090288490996   -0.001496276993475619
-0.268764085858688   0.0049504090288490996   -0.001496276993475619
-0.0512146735089652   0.044977742775274956   0.017734581118415693
-0.0512146735089652   0.044977742775274956   0.017734581118415693
-0.0512146735089652   0.044977742775274956   0.017734581118415693
-0.0512146735089652   0.044977742775274956   0.017734581118415693
-0.5082904562731902   -0.05316197652392659   -0.010143613800439428
-0.5082904562731902   -0.05316197652392659   -0.010143613800439428
-0.5082904562731902   -0.05316197652392659   -0.010143613800439428
-0.5082904562731902   -0.05316197652392659   -0.010143613800439428
-0.5283149968492191   -0.06453579636675134   -0.004456439168099718
-0.5283149968492191   -0.06453579636675134   -0.004456439168099718
-0.5283149968492191   -0.06453579636675134   -0.004456439168099718
-0.5283149968492191   -0.06453579636675134   -0.004456439168099718
-0.07349799055556427   0.0274827513650369   0.017966109177020163
-0.07349799055556427   0.0274827513650369   0.017966109177020163
-0.07349799055556427   0.0274827513650369   0.017966109177020163
-0.07349799055556427   0.0274827513650369   0.017966109177020163
-0.29094297496848043   -0.009266193066271564   -0.008569713982944177
-0.29094297496848043   -0.009266193066271564   -0.008569713982944177
-0.29094297496848043   -0.009266193066271564   -0.008569713982944177
-0.29094297496848043   -0.009266193066271564   -0.008569713982944177
-0.4369205092617243   0.08462337260753541   0.02223853060064774
-0.4369205092617243   0.08462337260753541   0.02223853060064774
-0.4369205092617243   0.08462337260753541   0.02223853060064774
-0.4369205092617243   0.08462337260753541   0.02223853060064774
-0.8930078961822354   -0.034751557434150065   -0.027806642580250326
-0.8930078961822354   -0.034751557434150065   -0.027806642580250326
-0.8930078961822354   -0.034751557434150065   -0.027806642580250326
-0.8930078961822354   -0.034751557434150065   -0.027806642580250326
-0.9045604286331577   -0.023519517367255577   0.002424513816920333
-0.9045604286331577   -0.023519517367255577   0.002424513816920333
-0.9045604286331577   -0.023519517367255577   0.002424513816920333
-0.9045604286331577   -0.023519517367255577   0.002424513816920333
-0.46889939007629483   0.042696384446579166   -0.0035323430134981196
-0.46889939007629483   0.042696384446579166   -0.0035323430134981196
-0.46889939007629483   0.042696384446579166   -0.0035323430134981196
-0.46889939007629483   0.042696384446579166   -0.0035323430134981196
-0.671451744350502   0.01811091814371782   0.008223862917591578
-0.671451744350502   0.01811091814371782   0.008223862917591578
-0.671451744350502   0.01811091814371782   0.008223862917591578
-0.671451744350502   0.01811091814371782   0.008223862917591578
-0.4573467070016182   0.07068651296412845   0.026240943842331742
-0.4573467070016182   0.07068651296412845   0.026240943842331742
-0.4573467070016182   0.07068651296412845   0.026240943842331742
-0.4573467070016182   0.07068651296412845   0.026240943842331742
-0.9160089879515301   -0.05140552212850827   -0.026932278013700094
-0.9160089879515301   -0.05140552212850827   -0.026932278013700094
-0.9160089879515301   -0.05140552212850827   -0.026932278013700094
-0.9160089879515301   -0.05140552212850827   -0.026932278013700094
-0.9290036288689641   -0.03795882648095997   0.0038478560801452136
-0.9290036288689641   -0.03795882648095997   0.0038478560801452136
-0.9290036288689641   -0.03795882648095997   0.0038478560801452136
-0.9290036288689641   -0.03795882648095997   0.0038478560801452136
-0.49018423801362665   0.027653429673144436   -0.0004279286996925688
-0.49018423801362665   0.027653429673144436   -0.0004279286996925688
-0.49018423801362665   0.027653429673144436   -0.0004279286996925688
-0.49018423801362665   0.027653429673144436   -0.0004279286996925688
-0.6893645493017457   0.0055453767310037205   0.002315616406144645
-0.6893645493017457   0.0055453767310037205   0.002315616406144645
-0.6893645493017457   0.0055453767310037205   0.002315616406144645
-0.6893645493017457   0.0055453767310037205   0.002315616406144645
-0.47814758480038144   0.05743713710388021   0.02997162993579413
-0.47814758480038144   0.05743713710388021   0.02997162993579413
-0.47814758480038144   0.05743713710388021   0.02997162993579413
-0.47814758480038144   0.05743713710388021   0.02997162993579413
-0.9404220160951452   -0.06712426792463869   -0.024078638607089524
-0.9404220160951452   -0.06712426792463869   -0.024078638607089524
-0.9404220160951452   -0.06712426792463869   -0.024078638607089524
-0.9404220160951452   -0.06712426792463869   -0.024078638607089524
-0.9511691501424193   -0.05351034714014463   0.00838134735389482
-0.9511691501424193   -0.05351034714014463   0.00838134735389482
-0.9511691501424193   -0.05351034714014463   0.00838134735389482
-0.9511691501424193   -0.05351034714014463   0.00838134735389482
-0.5120662866619496   0.010431416645755143   0.001819898755745026
-0.5120662866619496   0.010431416645755143   0.001819898755745026
-0.5120662866619496   0.010431416645755143   0.001819898755745026
-0.5120662866619496   0.010431416645755143   0.001819898755745026
-0.7167011744726154   -0.010238150231116627   -0.005195535243739502
-0.7167011744726154   -0.010238150231116627   -0.005195535243739502
-0.7167011744726154   -0.010238150231116627   -0.005195535243739502
-0.7167011744726154   -0.010238150231116627   -0.005195535243739502
-0.8590352121612281   0.07589313292156563   0.03141208716907047
-0.8590352121612281   0.07589313292156563   0.03141208716907047
-0.8590352121612281   0.07589313292156563   0.03141208716907047
-0.8590352121612281   0.07589313292156563   0.03141208716907047
-1.2998498199901078   -0.06000550777187577   -0.030575627803092954
-1.2998498199901078   -0.06000550777187577   -0.030575627803092954
-1.2998498199901078   -0.06000550777187577   -0.030575627803092954
-1.2998498199901078   -0.06000550777187577   -0.030575627803092954
-1.3142323573387682   -0.013026144053806366   0.028934789119480983
-1.3142323573387682   -0.013026144053806366   0.028934789119480983
-1.3142323573387682   -0.013026144053806366   0.028934789119480983
-1.3142323573387682   -0.013026144053806366   0.028934789119480983
-0.8995895901827198   0.02160988216280907   -0.017850693460954997
-0.8995895901827198   0.02160988216280907   -0.017850693460954997
-0.8995895901827198   0.02160988216280907   -0.017850693460954997
-0.8995895901827198   0.02160988216280907   -0.017850693460954997
-1.0448017157342193   0.01701861216543249   0.025620602166846057
-1.0448017157342193   0.01701861216543249   0.025620602166846057
-1.0448017157342193   0.01701861216543249   0.025620602166846057
-1.0448017157342193   0.01701861216543249   0.025620602166846057
-0.87780333193116   0.07584233266312368   0.03684814729652279
-0.87780333193116   0.07584233266312368   0.03684814729652279
-0.87780333193116   0.07584233266312368   0.03684814729652279
-0.87780333193116   0.07584233266312368   0.03684814729652279
-1.3356538220087928   -0.06689380097258546   -0.02430487731185449
-1.3356538220087928   -0.06689380097258546   -0.02430487731185449
-1.3356538220087928   -0.06689380097258546   -0.02430487731185449
-1.3356538220087928   -0.06689380097258546   -0.02430487731185449
-1.346237994021368   -0.02064668276294107   0.03619006045866878
-1.346237994021368   -0.02064668276294107   0.03619006045866878
-1.346237994021368   -0.02064668276294107   0.03619006045866878
-1.346237994021368   -0.02064668276294107   0.03619006045866878
-0.9225667953974495   0.013363276694950854   -0.015290079738191728
-0.9225667953974495   0.013363276694950854   -0.015290079738191728
-0.9225667953974495   0.013363276694950854   -0.015290079738191728
-0.9225667953974495   0.013363276694950854   -0.015290079738191728
-1.0895810361105167   0.008519756244243587   0.015621595354112866
-1.0895810361105167   0.008519756244243587   0.015621595354112866
-1.0895810361105167   0.008519756244243587   0.015621595354112866
-1.0895810361105167   0.008519756244243587   0.015621595354112866
-0.8994571078875534   0.07016317439445172   0.04345846011178728
-0.8994571078875534   0.07016317439445172   0.04345846011178728
-0.8994571078875534   0.07016317439445172   0.04345846011178728
-0.8994571078875534   0.07016317439445172   0.04345846011178728
-1.3687423285046465   -0.07684122743581562   -0.020137067284826796
-1.3687423285046465   -0.07684122743581562   -0.020137067284826796
-1.3687423285046465   -0.07684122743581562   -0.020137067284826796
-1.3687423285046465   -0.07684122743581562   -0.020137067284826796
-1.3884814658046383   -0.047801102678474705   0.035520593554519336
-1.3884814658046383   -0.047801102678474705   0.035520593554519336
-1.3884814658046383   -0.047801102678474705   0.035520593554519336
-1.3884814658046383   -0.047801102678474705   0.035520593554519336
-0.9468366937318626   -0.009608330986634522   -0.01385838674683177
-0.9468366937318626   -0.009608330986634522   -0.01385838674683177
-0.9468366937318626   -0.009608330986634522   -0.01385838674683177
-0.9468366937318626   -0.009608330986634522   -0.01385838674683177
-1.1010346960452964   -0.002069980907280694   0.012302551384769385
-1.1010346960452964   -0.002069980907280694   0.012302551384769385
-1.1010346960452964   -0.002069980907280694   0.012302551384769385
-1.1010346960452964   -0.002069980907280694   0.012302551384769385
0.6062723124667486   0.034378383208359134   -0.04079647302624327
0.6062723124667486   0.034378383208359134   -0.04079647302624327
0.6062723124667486   0.034378383208359134   -0.04079647302624327
0.6062723124667486   0.034378383208359134   -0.04079647302624327
0.25895633477514207   0.016410393876697918   0.01747961655393024
0.25895633477514207   0.016410393876697918   0.01747961655393024
0.25895633477514207   0.016410393876697918   0.01747961655393024
0.25895633477514207   0.016410393876697918   0.01747961655393024
0.2169291922779211   -0.05970533395708075   -0.03805061206667433
0.2169291922779211   -0.05970533395708075   -0.03805061206667433
0.2169291922779211   -0.05970533395708075   -0.03805061206667433
0.2169291922779211   -0.05970533395708075   -0.03805061206667433
0.5921255492731206   0.06878259370887335   0.021240966619774884
0.5921255492731206   0.06878259370887335   0.021240966619774884
0.5921255492731206   0.06878259370887335   0.021240966619774884
0.5921255492731206   0.06878259370887335   0.021240966619774884
0.39640687889001375   0.008782484770167825   -0.010828087417606203
0.39640687889001375   0.008782484770167825   -0.010828087417606203
0.39640687889001375   0.008782484770167825   -0.010828087417606203
0.39640687889001375   0.008782484770167825   -0.010828087417606203
0.5686333946070927   0.010631821934824384   -0.03806903493632027
0.5686333946070927   0.010631821934824384   -0.03806903493632027
0.5686333946070927   0.010631821934824384   -0.03806903493632027
0.5686333946070927   0.010631821934824384   -0.03806903493632027
0.23997975059698576   -0.0019961585299951012   0.019493004101567575
0.23997975059698576   -0.0019961585299951012   0.019493004101567575
0.23997975059698576   -0.0019961585299951012   0.019493004101567575
0.23997975059698576   -0.0019961585299951012   0.019493004101567575
0.19903556782989548   -0.06662307240538784   -0.032397254930529876
0.19903556782989548   -0.06662307240538784   -0.032397254930529876
0.19903556782989548   -0.06662307240538784   -0.032397254930529876
0.19903556782989548   -0.06662307240538784   -0.032397254930529876
0.5626807180419185   0.058965243905369974   0.02739241215101394
0.5626807180419185   0.058965243905369974   0.02739241215101394
0.5626807180419185   0.058965243905369974   0.02739241215101394
0.5626807180419185   0.058965243905369974   0.02739241215101394
0.3779426330755833   -0.0026365279719873236   -0.01759961255345744
0.3779426330755833   -0.0026365279719873236   -0.01759961255345744
0.3779426330755833   -0.0026365279719873236   -0.01759961255345744
0.3779426330755833   -0.0026365279719873236   -0.01759961255345744
0.539569742192299   0.0017698073457125124   -0.03096703053743163
0.539569742192299   0.0017698073457125124   -0.03096703053743163
0.539569742192299   0.0017698073457125124   -0.03096703053743163
0.539569742192299   0.0017698073457125124   -0.03096703053743163
0.22149314090454644   -0.010081038620699534   0.023348576658038547
0.22149314090454644   -0.010081038620699534   0.023348576658038547
0.22149314090454644   -0.010081038620699534   0.023348576658038547
0.22149314090454644   -0.010081038620699534   0.023348576658038547
0.1830458465066184   -0.07287848866903948   -0.027004492577960677
0.1830458465066184   -0.07287848866903948   -0.027004492577960677
0.1830458465066184   -0.07287848866903948   -0.027004492577960677
0.1830458465066184   -0.07287848866903948   -0.027004492577960677
0.5282985314694837   0.04607823560586506   0.031278068886903015
0.5282985314694837   0.04607823560586506   0.031278068886903015
0.5282985314694837   0.04607823560586506   0.031278068886903015
0.5282985314694837   0.04607823560586506   0.031278068886903015
0.3466028349905193   -0.011994629588439207   -0.026915317488705383
0.3466028349905193   -0.011994629588439207   -0.026915317488705383
0.3466028349905193   -0.011994629588439207   -0.026915317488705383
0.3466028349905193   -0.011994629588439207   -0.026915317488705383
0.2607576930559612   0.050200539128641294   -0.007303737293921708
0.2607576930559612   0.050200539128641294   -0.007303737293921708
0.2607576930559612   0.050200539128641294   -0.007303737293921708
0.2607576930559612   0.050200539128641294   -0.007303737293921708
-0.07989554228758117   0.004251784427800866   0.002340845943084327
-0.07989554228758117   0.004251784427800866   0.002340845943084327
-0.07989554228758117   0.004251784427800866   0.002340845943084327
-0.07989554228758117   0.004251784427800866   0.002340845943084327
-0.10862770475178019   -0.04147293287652915   -0.023453001729340988
-0.10862770475178019   -0.04147293287652915   -0.023453001729340988
-0.10862770475178019   -0.04147293287652915   -0.023453001729340988
-0.10862770475178019   -0.04147293287652915   -0.023453001729340988
0.2535856866144228   0.06033593126025915   0.025190594398498637
0.2535856866144228   0.06033593126025915   0.025190594398498637
0.2535856866144228   0.06033593126025915   0.025190594398498637
0.2535856866144228   0.06033593126025915   0.025190594398498637
0.07966990052007582   0.017436758612661925   0.0030595866088996638
0.07966990052007582   0.017436758612661925   0.0030595866088996638
0.07966990052007582   0.017436758612661925   0.0030595866088996638
0.07966990052007582   0.017436758612661925   0.0030595866088996638
0.24221805009304023   0.032603739207221163   -0.003915396155379125
0.24221805009304023   0.032603739207221163   -0.003915396155379125
0.24221805009304023   0.032603739207221163   -0.003915396155379125
0.24221805009304023   0.032603739207221163   -0.003915396155379125
-0.09742974559705062   -0.013910418190144654   0.004974279357922383
-0.09742974559705062   -0.013910418190144654   0.004974279357922383
-0.09742974559705062   -0.013910418190144654   0.004974279357922383
-0.09742974559705062   -0.013910418190144654   0.004974279357922383
-0.12526852256418095   -0.05537491264320683   -0.01898415217019768
-0.12526852256418095   -0.05537491264320683   -0.01898415217019768
-0.12526852256418095   -0.05537491264320683   -0.01898415217019768
-0.12526852256418095   -0.05537491264320683   -0.01898415217019768
0.2331738378299444   0.0442833078418088   0.02738771482252008
0.2331738378299444   0.0442833078418088   0.02738771482252008
0.2331738378299444   0.0442833078418088   0.02738771482252008
0.2331738378299444   0.0442833078418088   0.02738771482252008
0.05913780908691456   0.0017003482311540533   -0.004499533014010803
0.05913780908691456   0.0017003482311540533   -0.004499533014010803
0.05913780908691456   0.0017003482311540533   -0.004499533014010803
0.05913780908691456   0.0017003482311540533   -0.004499533014010803
0.2221656087073638   0.01769559954618845   -0.0010657224947660084
0.2221656087073638   0.01769559954618845   -0.0010657224947660084
0.2221656087073638   0.01769559954618845   -0.0010657224947660084
0.2221656087073638   0.01769559954618845   -0.0010657224947660084
-0.11468770202539323   -0.029214612931384727   0.007759650811920784
-0.11468770202539323   -0.029214612931384727   0.007759650811920784
-0.11468770202539323   -0.029214612931384727   0.007759650811920784
-0.11468770202539323   -0.029214612931384727   0.007759650811920784
-0.1416867349381704   -0.06843549584425074   -0.014855289141358594
-0.1416867349381704   -0.06843549584425074   -0.014855289141358594
-0.1416867349381704   -0.06843549584425074   -0.014855289141358594
-0.1416867349381704   -0.06843549584425074   -0.014855289141358594
0.21475406116658813   0.028867603015221285   0.029790489037631047
0.21475406116658813   0.028867603015221285   0.029790489037631047
0.21475406116658813   0.028867603015221285   0.029790489037631047
0.21475406116658813   0.028867603015221285   0.029790489037631047
0.04266939925267938   -0.011347446688369692   -0.011172109415587286
0.04266939925267938   -0.011347446688369692   -0.011172109415587286
0.04266939925267938   -0.011347446688369692   -0.011172109415587286
0.04266939925267938   -0.011347446688369692   -0.011172109415587286
-0.06733376033489669   0.06358430533747016   0.005817234796835574
-0.06733376033489669   0.06358430533747016   0.005817234796835574
-0.06733376033489669   0.06358430533747016   0.005817234796835574
-0.06733376033489669   0.06358430533747016   0.005817234796835574
-0.4137052717134518   -0.010533516725908701   -0.012588615623363813
-0.4137052717134518   -0.010533516725908701   -0.012588615623363813
-0.4137052717134518   -0.010533516725908701   -0.012588615623363813
-0.4137052717134518   -0.010533516725908701   -0.012588615623363813
-0.43013022154757585   -0.024776247512719105   -0.009273035699613966
-0.43013022154757585   -0.024776247512719105   -0.009273035699613966
-0.43013022154757585   -0.024776247512719105   -0.009273035699613966
-0.43013022154757585   -0.024776247512719105   -0.009273035699613966
-0.0844878511519629   0.046001088423805445   0.009772244969408896
-0.0844878511519629   0.046001088423805445   0.009772244969408896
-0.0844878511519629   0.046001088423805445   0.009772244969408896
-0.0844878511519629   0.046001088423805445   0.009772244969408896
-0.24830654904988117   0.018276007781494685   0.0049175620505275235
-0.24830654904988117   0.018276007781494685   0.0049175620505275235
-0.24830654904988117   0.018276007781494685   0.0049175620505275235
-0.24830654904988117   0.018276007781494685   0.0049175620505275235
-0.08397809236511841   0.04831100910765243   0.010011118219786296
-0.08397809236511841   0.04831100910765243   0.010011118219786296
-0.08397809236511841   0.04831100910765243   0.010011118219786296
-0.08397809236511841   0.04831100910765243   0.010011118219786296
-0.4306888925824509   -0.027135080444596366   -0.009707557942112154
-0.4306888925824509   -0.027135080444596366   -0.009707557942112154
-0.4306888925824509   -0.027135080444596366   -0.009707557942112154
-0.4306888925824509   -0.027135080444596366   -0.009707557942112154
-0.44694415135586657   -0.03992303358429978   -0.005295204019629027
-0.44694415135586657   -0.03992303358429978   -0.005295204019629027
-0.44694415135586657   -0.03992303358429978   -0.005295204019629027
-0.44694415135586657   -0.03992303358429978   -0.005295204019629027
-0.10195078273667398   0.029481232296751557   0.012748402027376952
-0.10195078273667398   0.029481232296751557   0.012748402027376952
-0.10195078273667398   0.029481232296751557   0.012748402027376952
-0.10195078273667398   0.029481232296751557   0.012748402027376952
-0.26559271953107627   0.0035234098829836358   -0.0015782336718679173
-0.26559271953107627   0.0035234098829836358   -0.0015782336718679173
-0.26559271953107627   0.0035234098829836358   -0.0015782336718679173
-0.26559271953107627   0.0035234098829836358   -0.0015782336718679173
-0.10108134552779911   0.03301994371578404   0.013556876652722623
-0.10108134552779911   0.03301994371578404   0.013556876652722623
-0.10108134552779911   0.03301994371578404   0.013556876652722623
-0.10108134552779911   0.03301994371578404   0.013556876652722623
-0.44808510364431625   -0.04373326008290645   -0.007189738963270789
-0.44808510364431625   -0.04373326008290645   -0.007189738963270789
-0.44808510364431625   -0.04373326008290645   -0.007189738963270789
-0.44808510364431625   -0.04373326008290645   -0.007189738963270789
-0.4634722896663036   -0.05439046596601079   -0.0014256783674789514
-0.4634722896663036   -0.05439046596601079   -0.0014256783674789514
-0.4634722896663036   -0.05439046596601079   -0.0014256783674789514
-0.4634722896663036   -0.05439046596601079   -0.0014256783674789514
-0.119268103916428   0.013429897585926859   0.015372472537175955
-0.119268103916428   0.013429897585926859   0.015372472537175955
-0.119268103916428   0.013429897585926859   0.015372472537175955
-0.119268103916428   0.013429897585926859   0.015372472537175955
-0.2835932053607324   -0.011244704359011926   -0.008620680829431404
-0.2835932053607324   -0.011244704359011926   -0.008620680829431404
-0.2835932053607324   -0.011244704359011926   -0.008620680829431404
-0.2835932053607324   -0.011244704359011926   -0.008620680829431404
-0.3903343812621086   0.07507578170618352   0.01865653820126001
-0.3903343812621086   0.07507578170618352   0.01865653820126001
-0.3903343812621086   0.07507578170618352   0.01865653820126001
-0.3903343812621086   0.07507578170618352   0.01865653820126001
-0.7417023378565039   -0.025252882397306275   -0.02559290286984746
-0.7417023378565039   -0.025252882397306275   -0.02559290286984746
-0.7417023378565039   -0.025252882397306275   -0.02559290286984746
-0.7417023378565039   -0.025252882397306275   -0.02559290286984746
-0.7478678011116127   -0.011204678722545686   0.005930752176195465
-0.7478678011116127   -0.011204678722545686   0.005930752176195465
-0.7478678011116127   -0.011204678722545686   0.005930752176195465
-0.7478678011116127   -0.011204678722545686   0.005930752176195465
-0.4184079640495853   0.029987045852513924   -0.005425041574905996
-0.4184079640495853   0.029987045852513924   -0.005425041574905996
-0.4184079640495853   0.029987045852513924   -0.005425041574905996
-0.4184079640495853   0.029987045852513924   -0.005425041574905996
-0.5711613268645186   0.017316069222780617   0.007134315527629657
-0.5711613268645186   0.017316069222780617   0.007134315527629657
-0.5711613268645186   0.017316069222780617   0.007134315527629657
-0.5711613268645186   0.017316069222780617   0.007134315527629657
-0.4066723598854136   0.060413553422630606   0.022826471675847268
-0.4066723598854136   0.060413553422630606   0.022826471675847268
-0.4066723598854136   0.060413553422630606   0.022826471675847268
-0.4066723598854136   0.060413553422630606   0.022826471675847268
-0.7601193640137646   -0.042147145030636185   -0.02438459602647728
-0.7601193640137646   -0.042147145030636185   -0.02438459602647728
-0.7601193640137646   -0.042147145030636185   -0.02438459602647728
-0.7601193640137646   -0.042147145030636185   -0.02438459602647728
-0.7676919947391989   -0.026208428042851922   0.007770539445897819
-0.7676919947391989   -0.026208428042851922   0.007770539445897819
-0.7676919947391989   -0.026208428042851922   0.007770539445897819
-0.7676919947391989   -0.026208428042851922   0.007770539445897819
-0.4354025730291668   0.014760776643418752   -0.002271122613852504
-0.4354025730291668   0.014760776643418752   -0.002271122613852504
-0.4354025730291668   0.014760776643418752   -0.002271122613852504
-0.4354025730291668   0.014760776643418752   -0.002271122613852504
-0.5856994948916169   0.00394713526856591   0.0006241694030027153
-0.5856994948916169   0.00394713526856591   0.0006241694030027153
-0.5856994948916169   0.00394713526856591   0.0006241694030027153
-0.5856994948916169   0.00394713526856591   0.0006241694030027153
-0.42324424432375946   0.046486061385315414   0.026795236171295124
-0.42324424432375946   0.046486061385315414   0.026795236171295124
-0.42324424432375946   0.046486061385315414   0.026795236171295124
-0.42324424432375946   0.046486061385315414   0.026795236171295124
-0.7798970506735118   -0.05798044001365413   -0.021482728254871984
-0.7798970506735118   -0.05798044001365413   -0.021482728254871984
-0.7798970506735118   -0.05798044001365413   -0.021482728254871984
-0.7798970506735118   -0.05798044001365413   -0.021482728254871984
-0.7853371273605368   -0.04220217989599921   0.011922756745560429
-0.7853371273605368   -0.04220217989599921   0.011922756745560429
-0.7853371273605368   -0.04220217989599921   0.011922756745560429
-0.7853371273605368   -0.04220217989599921   0.011922756745560429
-0.4526954943363059   -0.002139168832020727   0.0002070011485082457
-0.4526954943363059   -0.002139168832020727   0.0002070011485082457
-0.4526954943363059   -0.002139168832020727   0.0002070011485082457
-0.4526954943363059   -0.002139168832020727   0.0002070011485082457
-0.6075624694483186   -0.011590661410909406   -0.006940093856262635
-0.6075624694483186   -0.011590661410909406   -0.006940093856262635
-0.6075624694483186   -0.011590661410909406   -0.006940093856262635
-0.6075624694483186   -0.011590661410909406   -0.006940093856262635
-0.7117521925784742   0.06959177624638521   0.02931316487660897
-0.7117521925784742   0.06959177624638521   0.02931316487660897
-0.7117521925784742   0.06959177624638521   0.02931316487660897
-0.7117521925784742   0.06959177624638521   0.02931316487660897
-1.050472899497882   -0.04840691988452073   -0.03316794613894719
-1.050472899497882   -0.04840691988452073   -0.03316794613894719
-1.050472899497882   -0.04840691988452073   -0.03316794613894719
-1.050472899497882   -0.04840691988452073   -0.03316794613894719
-1.0605582949313859   -0.001205171189722909   0.029042744525081723
-1.0605582949313859   -0.001205171189722909   0.029042744525081723
-1.0605582949313859   -0.001205171189722909   0.029042744525081723
-1.0605582949313859   -0.001205171189722909   0.029042744525081723
-0.7487283095307211   0.01030921006943819   -0.01988567871134203
-0.7487283095307211   0.01030921006943819   -0.01988567871134203
-0.7487283095307211   0.01030921006943819   -0.01988567871134203
-0.7487283095307211   0.01030921006943819   -0.01988567871134203
-0.8535740119559736   0.016096289076158732   0.02164136815567609
-0.8535740119559736   0.016096289076158732   0.02164136815567609
-0.8535740119559736   0.016096289076158732   0.02164136815567609
-0.8535740119559736   0.016096289076158732   0.02164136815567609
-0.7265565278654236   0.06670260104614356   0.034579838638451973
-0.7265565278654236   0.06670260104614356   0.034579838638451973
-0.7265565278654236   0.06670260104614356   0.034579838638451973
-0.7265565278654236   0.06670260104614356   0.034579838638451973
-1.0831716388066084   -0.058040124376354224   -0.027189021664385984
-1.0831716388066084   -0.058040124376354224   -0.027189021664385984
-1.0831716388066084   -0.058040124376354224   -0.027189021664385984
-1.0831716388066084   -0.058040124376354224   -0.027189021664385984
-1.0885768766626878   -0.009461322104245495   0.03659700753103415
-1.0885768766626878   -0.009461322104245495   0.03659700753103415
-1.0885768766626878   -0.009461322104245495   0.03659700753103415
-1.0885768766626878   -0.009461322104245495   0.03659700753103415
-0.7670001952046654   0.0019603686118567776   -0.016939259536159074
-0.7670001952046654   0.0019603686118567776   -0.016939259536159074
-0.7670001952046654   0.0019603686118567776   -0.016939259536159074
-0.7670001952046654   0.0019603686118567776   -0.016939259536159074
-0.8914215547752424   0.006612282916833856   0.011380246382105046
-0.8914215547752424   0.006612282916833856   0.011380246382105046
-0.8914215547752424   0.006612282916833856   0.011380246382105046
-0.8914215547752424   0.006612282916833856   0.011380246382105046
-0.7437923328223   0.060323557795938065   0.04073686319159488
-0.7437923328223   0.060323557795938065   0.04073686319159488
-0.7437923328223   0.060323557795938065   0.04073686319159488
-0.7437923328223   0.060323557795938065   0.04073686319159488
-1.1121032079247648   -0.06814298016804593   -0.022352990715542732
-1.1121032079247648   -0.06814298016804593   -0.022352990715542732
-1.1121032079247648   -0.06814298016804593   -0.022352990715542732
-1.1121032079247648   -0.06814298016804593   -0.022352990715542732
-1.1260595169317462   -0.03534132309777252   0.03669947589736188
-1.1260595169317462   -0.03534132309777252   0.03669947589736188
-1.1260595169317462   -0.03534132309777252   0.03669947589736188
-1.1260595169317462   -0.03534132309777252   0.03669947589736188
-0.7861241038517336   -0.019235212265539897   -0.014979093340893486
-0.7861241038517336   -0.019235212265539897   -0.014979093340893486
-0.7861241038517336   -0.019235212265539897   -0.014979093340893486
-0.7861241038517336   -0.019235212265539897   -0.014979093340893486
-0.9020459132295519   -0.004224439711441402   0.006514786182119231
-0.9020459132295519   -0.004224439711441402   0.006514786182119231
-0.9020459132295519   -0.004224439711441402   0.006514786182119231
-0.9020459132295519   -0.004224439711441402   0.006514786182119231
0.3347367455440032   0.020074885568874407   -0.0399783357540484
0.3347367455440032   0.020074885568874407   -0.0399783357540484
0.3347367455440032   0.020074885568874407   -0.0399783357540484
0.3347367455440032   0.020074885568874407   -0.0399783357540484
0.09769043706582045   0.02396681745781629   0.019093377615936817
0.09769043706582045   0.02396681745781629   0.019093377615936817
0.09769043706582045   0.02396681745781629   0.019093377615936817
0.09769043706582045   0.02396681745781629   0.019093377615936817
0.06049391669139126   -0.048844703436520184   -0.035263886525463355
0.06049391669139126   -0.048844703436520184   -0.035263886525463355
0.06049391669139126   -0.048844703436520184   -0.035263886525463355
0.06049391669139126   -0.048844703436520184   -0.035263886525463355
0.3255928389757162   0.05685674893006822   0.022971604092495455
0.3255928389757162   0.05685674893006822   0.022971604092495455
0.3255928389757162   0.05685674893006822   0.022971604092495455
0.3255928389757162   0.05685674893006822   0.022971604092495455
0.19269164093670507   0.009489754170878467   -0.004446297505904476
0.19269164093670507   0.009489754170878467   -0.004446297505904476
0.19269164093670507   0.009489754170878467   -0.004446297505904476
0.19269164093670507   0.009489754170878467   -0.004446297505904476
0.30213366216018517   -0.0007979027072397074   -0.036669628347854866
0.30213366216018517   -0.0007979027072397074   -0.036669628347854866
0.30213366216018517   -0.0007979027072397074   -0.036669628347854866
0.30213366216018517   -0.0007979027072397074   -0.036669628347854866
0.08322119313210959   0.008078047825974597   0.021449744415634034
0.08322119313210959   0.008078047825974597   0.021449744415634034
0.08322119313210959   0.008078047825974597   0.021449744415634034
0.08322119313210959   0.008078047825974597   0.021449744415634034
0.046456051975358154   -0.05575070054322572   -0.029962644025404075
0.046456051975358154   -0.05575070054322572   -0.029962644025404075
0.046456051975358154   -0.05575070054322572   -0.029962644025404075
0.046456051975358154   -0.05575070054322572   -0.029962644025404075
0.30035849828141087   0.04732880364918504   0.029527786121627066
0.30035849828141087   0.04732880364918504   0.029527786121627066
0.30035849828141087   0.04732880364918504   0.029527786121627066
0.30035849828141087   0.04732880364918504   0.029527786121627066
0.17510926995491916   -0.0013046794042481588   -0.011439079091950842
0.17510926995491916   -0.0013046794042481588   -0.011439079091950842
0.17510926995491916   -0.0013046794042481588   -0.011439079091950842
0.17510926995491916   -0.0013046794042481588   -0.011439079091950842
0.2770283485132258   -0.009668786870495508   -0.030125372199620682
0.2770283485132258   -0.009668786870495508   -0.030125372199620682
0.2770283485132258   -0.009668786870495508   -0.030125372199620682
0.2770283485132258   -0.009668786870495508   -0.030125372199620682
0.06880459884000702   0.00026528707291838954   0.02576410268169767
0.06880459884000702   0.00026528707291838954   0.02576410268169767
0.06880459884000702   0.00026528707291838954   0.02576410268169767
0.06880459884000702   0.00026528707291838954   0.02576410268169767
0.033907892813017676   -0.06404787390628564   -0.02496184001738442
0.033907892813017676   -0.06404787390628564   -0.02496184001738442
0.033907892813017676   -0.06404787390628564   -0.02496184001738442
0.033907892813017676   -0.06404787390628564   -0.02496184001738442
0.2691013221803089   0.032108985456721445   0.03279751482702034
0.2691013221803089   0.032108985456721445   0.03279751482702034
0.2691013221803089   0.032108985456721445   0.03279751482702034
0.2691013221803089   0.032108985456721445   0.03279751482702034
0.150718335692468   -0.010903757016600745   -0.020003966693277184
0.150718335692468   -0.010903757016600745   -0.020003966693277184
0.150718335692468   -0.010903757016600745   -0.020003966693277184
0.150718335692468   -0.010903757016600745   -0.020003966693277184
0.09402294075681904   0.036259878794849404   -0.011537165266103882
0.09402294075681904   0.036259878794849404   -0.011537165266103882
0.09402294075681904   0.036259878794849404   -0.011537165266103882
0.09402294075681904   0.036259878794849404   -0.011537165266103882
-0.13502797659612795   0.011587376413242735   0.004612069885725947
-0.13502797659612795   0.011587376413242735   0.004612069885725947
-0.13502797659612795   0.011587376413242735   0.004612069885725947
-0.13502797659612795   0.011587376413242735   0.004612069885725947
-0.15899232453502024   -0.03133704513303728   -0.020596276418571115
-0.15899232453502024   -0.03133704513303728   -0.020596276418571115
-0.15899232453502024   -0.03133704513303728   -0.020596276418571115
-0.15899232453502024   -0.03133704513303728   -0.020596276418571115
0.09069346367758276   0.04499043793520706   0.021898707033767433
0.09069346367758276   0.04499043793520706   0.021898707033767433
0.09069346367758276   0.04499043793520706   0.021898707033767433
0.09069346367758276   0.04499043793520706   0.021898707033767433
-0.028129409617064453   0.014724367778914067   0.0037593649933015645
-0.028129409617064453   0.014724367778914067   0.0037593649933015645
-0.028129409617064453   0.014724367778914067   0.0037593649933015645
-0.028129409617064453   0.014724367778914067   0.0037593649933015645
0.07937208318916554   0.018759616834071288   -0.008477374307183384
0.07937208318916554   0.018759616834071288   -0.008477374307183384
0.07937208318916554   0.018759616834071288   -0.008477374307183384
0.07937208318916554   0.018759616834071288   -0.008477374307183384
-0.14829673204866484   -0.0057320120339634135   0.0072766529141319635
-0.14829673204866484   -0.0057320120339634135   0.0072766529141319635
-0.14829673204866484   -0.0057320120339634135   0.0072766529141319635
-0.14829673204866484   -0.0057320120339634135   0.0072766529141319635
-0.17154876566850116   -0.045366920860477326   -0.016140825190434267
-0.17154876566850116   -0.045366920860477326   -0.016140825190434267
-0.17154876566850116   -0.045366920860477326   -0.016140825190434267
-0.17154876566850116   -0.045366920860477326   -0.016140825190434267
0.07421935634944032   0.029224508173231127   0.023878669128551487
0.07421935634944032   0.029224508173231127   0.023878669128551487
0.07421935634944032   0.029224508173231127   0.023878669128551487
0.07421935634944032   0.029224508173231127   0.023878669128551487
-0.043651673042119296   -0.000423727228594923   -0.0035011250969226005
-0.043651673042119296   -0.000423727228594923   -0.0035011250969226005
-0.043651673042119296   -0.000423727228594923   -0.0035011250969226005
-0.043651673042119296   -0.000423727228594923   -0.0035011250969226005
0.06323112140803369   0.003708018426560187   -0.005546015831812248
0.06323112140803369   0.003708018426560187   -0.005546015831812248
0.06323112140803369   0.003708018426560187   -0.005546015831812248
0.06323112140803369   0.003708018426560187   -0.005546015831812248
-0.16137076467317032   -0.020660665059877313   0.010042923985619975
-0.16137076467317032   -0.020660665059877313   0.010042923985619975
-0.16137076467317032   -0.020660665059877313   0.010042923985619975
-0.16137076467317032   -0.020660665059877313   0.010042923985619975
-0.18400829051306639   -0.059265910404274216   -0.01211472638019194
-0.18400829051306639   -0.059265910404274216   -0.01211472638019194
-0.18400829051306639   -0.059265910404274216   -0.01211472638019194
-0.18400829051306639   -0.059265910404274216   -0.01211472638019194
0.059794970446422964   0.013763795545800137   0.02666187869755721
0.059794970446422964   0.013763795545800137   0.02666187869755721
0.059794970446422964   0.013763795545800137   0.02666187869755721
0.059794970446422964   0.013763795545800137   0.02666187869755721
-0.05706992376358777   -0.013966484777364155   -0.010351747853910217
-0.05706992376358777   -0.013966484777364155   -0.010351747853910217
-0.05706992376358777   -0.013966484777364155   -0.010351747853910217
-0.05706992376358777   -0.013966484777364155   -0.010351747853910217
-0.12802127921310885   0.04947299295137122   0.0017599402626928586
-0.12802127921310885   0.04947299295137122   0.0017599402626928586
-0.12802127921310885   0.04947299295137122   0.0017599402626928586
-0.12802127921310885   0.04947299295137122   0.0017599402626928586
-0.36460671403595835   -0.004445499019821289   -0.01004516261325998
-0.36460671403595835   -0.004445499019821289   -0.01004516261325998
-0.36460671403595835   -0.004445499019821289   -0.01004516261325998
-0.36460671403595835   -0.004445499019821289   -0.01004516261325998
-0.375923030224903   -0.015443217896623687   -0.006014107559796682
-0.375923030224903   -0.015443217896623687   -0.006014107559796682
-0.375923030224903   -0.015443217896623687   -0.006014107559796682
-0.375923030224903   -0.015443217896623687   -0.006014107559796682
-0.14128767680610382   0.029622718776572993   0.006967198316396823
-0.14128767680610382   0.029622718776572993   0.006967198316396823
-0.14128767680610382   0.029622718776572993   0.006967198316396823
-0.14128767680610382   0.029622718776572993   0.006967198316396823
-0.2518582758312404   0.014485136568014825   0.0038899691455542285
-0.2518582758312404   0.014485136568014825   0.0038899691455542285
-0.2518582758312404   0.014485136568014825   0.0038899691455542285
-0.2518582758312404   0.014485136568014825   0.0038899691455542285
-0.14062114420086563   0.03400374736998002   0.0059188327491845015
-0.14062114420086563   0.03400374736998002   0.0059188327491845015
-0.14062114420086563   0.03400374736998002   0.0059188327491845015
-0.14062114420086563   0.03400374736998002   0.0059188327491845015
-0.37713827439221376   -0.020372958052107773   -0.0071605882408663744
-0.37713827439221376   -0.020372958052107773   -0.0071605882408663744
-0.37713827439221376   -0.020372958052107773   -0.0071605882408663744
-0.37713827439221376   -0.020372958052107773   -0.0071605882408663744
-0.38842625034317163   -0.030759525324052885   -0.001979918470147604
-0.38842625034317163   -0.030759525324052885   -0.001979918470147604
-0.38842625034317163   -0.030759525324052885   -0.001979918470147604
-0.38842625034317163   -0.030759525324052885   -0.001979918470147604
-0.1545404517980752   0.013632926608478015   0.009900896692738371
-0.1545404517980752   0.013632926608478015   0.009900896692738371
-0.1545404517980752   0.013632926608478015   0.009900896692738371
-0.1545404517980752   0.013632926608478015   0.009900896692738371
-0.2649017061165405   -6.580285276479997e-05   -0.002616585607387867
-0.2649017061165405   -6.580285276479997e-05   -0.002616585607387867
-0.2649017061165405   -6.580285276479997e-05   -0.002616585607387867
-0.2649017061165405   -6.580285276479997e-05   -0.002616585607387867
-0.15364640099760787   0.018494369749833657   0.00950970755372134
-0.15364640099760787   0.018494369749833657   0.00950970755372134
-0.15364640099760787   0.018494369749833657   0.00950970755372134
-0.15364640099760787   0.018494369749833657   0.00950970755372134
-0.39010005980339196   -0.0364007271251567   -0.004707763970149142
-0.39010005980339196   -0.0364007271251567   -0.004707763970149142
-0.39010005980339196   -0.0364007271251567   -0.004707763970149142
-0.39010005980339196   -0.0364007271251567   -0.004707763970149142
-0.4006870396836629   -0.045542790526944835   0.00192796774005239
-0.4006870396836629   -0.045542790526944835   0.00192796774005239
-0.4006870396836629   -0.045542790526944835   0.00192796774005239
-0.4006870396836629   -0.045542790526944835   0.00192796774005239
-0.1675693127648777   -0.0017675795189818835   0.012581831475457396
-0.1675693127648777   -0.0017675795189818835   0.012581831475457396
-0.1675693127648777   -0.0017675795189818835   0.012581831475457396
-0.1675693127648777   -0.0017675795189818835   0.012581831475457396
-0.27862769950036675   -0.014650118386894027   -0.009682212978537925
-0.27862769950036675   -0.014650118386894027   -0.009682212978537925
-0.27862769950036675   -0.014650118386894027   -0.009682212978537925
-0.27862769950036675   -0.014650118386894027   -0.009682212978537925
-0.34621361639580445   0.06204867315195059   0.015426153415737512
-0.34621361639580445   0.06204867315195059   0.015426153415737512
-0.34621361639580445   0.06204867315195059   0.015426153415737512
-0.34621361639580445   0.06204867315195059   0.015426153415737512
-0.5892621490410981   -0.017634534838324778   -0.022883512906086208
-0.5892621490410981   -0.017634534838324778   -0.022883512906086208
-0.5892621490410981   -0.017634534838324778   -0.022883512906086208
-0.5892621490410981   -0.017634534838324778   -0.022883512906086208
-0.5903785939282303   -0.0014349868012292488   0.00943542503502303
-0.5903785939282303   -0.0014349868012292488   0.00943542503502303
-0.5903785939282303   -0.0014349868012292488   0.00943542503502303
-0.5903785939282303   -0.0014349868012292488   0.00943542503502303
-0.37002140109018533   0.015241517031090945   -0.007190696813922936
-0.37002140109018533   0.015241517031090945   -0.007190696813922936
-0.37002140109018533   0.015241517031090945   -0.007190696813922936
-0.37002140109018533   0.015241517031090945   -0.007190696813922936
-0.4715422258203745   0.014522414765122851   0.005107769146383688
-0.4715422258203745   0.014522414765122851   0.005107769146383688
-0.4715422258203745   0.014522414765122851   0.005107769146383688
-0.4715422258203745   0.014522414765122851   0.005107769146383688
-0.35830982691493507   0.04701118317759087   0.019597507915828462
-0.35830982691493507   0.04701118317759087   0.019597507915828462
-0.35830982691493507   0.04701118317759087   0.019597507915828462
-0.35830982691493507   0.04701118317759087   0.019597507915828462
-0.6031424469655348   -0.03425693180977829   -0.021561895142950385
-0.6031424469655348   -0.03425693180977829   -0.021561895142950385
-0.6031424469655348   -0.03425693180977829   -0.021561895142950385
-0.6031424469655348   -0.03425693180977829   -0.021561895142950385
-0.6057739954236441   -0.016538022888720222   0.011606302119930002
-0.6057739954236441   -0.016538022888720222   0.011606302119930002
-0.6057739954236441   -0.016538022888720222   0.011606302119930002
-0.6057739954236441   -0.016538022888720222   0.011606302119930002
-0.38259033420367183   0.0005137879133560036   -0.004073651010065234
-0.38259033420367183   0.0005137879133560036   -0.004073651010065234
-0.38259033420367183   0.0005137879133560036   -0.004073651010065234
-0.38259033420367183   0.0005137879133560036   -0.004073651010065234
-0.48261529928553826   0.0009682958904483618   -0.0017117712732847186
-0.48261529928553826   0.0009682958904483618   -0.0017117712732847186
-0.48261529928553826   0.0009682958904483618   -0.0017117712732847186
-0.48261529928553826   0.0009682958904483618   -0.0017117712732847186
-0.370567776884201   0.03291045424609283   0.02364246925455212
-0.370567776884201   0.03291045424609283   0.02364246925455212
-0.370567776884201   0.03291045424609283   0.02364246925455212
-0.370567776884201   0.03291045424609283   0.02364246925455212
-0.6184529807952619   -0.04959111727360534   -0.018735530353281803
-0.6184529807952619   -0.04959111727360534   -0.018735530353281803
-0.6184529807952619   -0.04959111727360534   -0.018735530353281803
-0.6184529807952619   -0.04959111727360534   -0.018735530353281803
-0.6190667136178164   -0.03229054946481752   0.01582131726603482
-0.6190667136178164   -0.03229054946481752   0.01582131726603482
-0.6190667136178164   -0.03229054946481752   0.01582131726603482
-0.6190667136178164   -0.03229054946481752   0.01582131726603482
-0.39531804913189694   -0.015248878014372871   -0.0015209920136933716
-0.39531804913189694   -0.015248878014372871   -0.0015209920136933716
-0.39531804913189694   -0.015248878014372871   -0.0015209920136933716
-0.39531804913189694   -0.015248878014372871   -0.0015209920136933716
-0.4991196000547268   -0.013820141535574842   -0.009151889406194786
-0.4991196000547268   -0.013820141535574842   -0.009151889406194786
-0.4991196000547268   -0.013820141535574842   -0.009151889406194786
-0.4991196000547268   -0.013820141535574842   -0.009151889406194786
-0.563476324318086   0.06109016629446615   0.02732090957619096
-0.563476324318086   0.06109016629446615   0.02732090957619096
-0.563476324318086   0.06109016629446615   0.02732090957619096
-0.563476324318086   0.06109016629446615   0.02732090957619096
-0.7935822699403401   -0.036580099686190554   -0.034652702708277194
-0.7935822699403401   -0.036580099686190554   -0.034652702708277194
-0.7935822699403401   -0.036580099686190554   -0.034652702708277194
-0.7935822699403401   -0.036580099686190554   -0.034652702708277194
-0.7993617833570852   0.009902899228802942   0.028716240911876537
-0.7993617833570852   0.009902899228802942   0.028716240911876537
-0.7993617833570852   0.009902899228802942   0.028716240911876537
-0.7993617833570852   0.009902899228802942   0.028716240911876537
-0.5965477365388753   -0.0016929594845518925   -0.021152315334887067
-0.5965477365388753   -0.0016929594845518925   -0.021152315334887067
-0.5965477365388753   -0.0016929594845518925   -0.021152315334887067
-0.5965477365388753   -0.0016929594845518925   -0.021152315334887067
-0.6586409564339152   0.01459027831231513   0.015995678484582027
-0.6586409564339152   0.01459027831231513   0.015995678484582027
-0.6586409564339152   0.01459027831231513   0.015995678484582027
-0.6586409564339152   0.01459027831231513   0.015995678484582027
-0.574392781333249   0.05561612641078295   0.03231337479790966
-0.574392781333249   0.05561612641078295   0.03231337479790966
-0.574392781333249   0.05561612641078295   0.03231337479790966
-0.574392781333249   0.05561612641078295   0.03231337479790966
-0.8226377341482595   -0.048527182252073475   -0.02923343156311091
-0.8226377341482595   -0.048527182252073475   -0.02923343156311091
-0.8226377341482595   -0.048527182252073475   -0.02923343156311091
-0.8226377341482595   -0.048527182252073475   -0.02923343156311091
-0.8233506099272976   0.0014112285124015245   0.03666545468922718
-0.8233506099272976   0.0014112285124015245   0.03666545468922718
-0.8233506099272976   0.0014112285124015245   0.03666545468922718
-0.8233506099272976   0.0014112285124015245   0.03666545468922718
-0.610398568440812   -0.00991071064882243   -0.018143875205814848
-0.610398568440812   -0.00991071064882243   -0.018143875205814848
-0.610398568440812   -0.00991071064882243   -0.018143875205814848
-0.610398568440812   -0.00991071064882243   -0.018143875205814848
-0.6893505963401324   0.004554518748719205   0.005828806536632709
-0.6893505963401324   0.004554518748719205   0.005828806536632709
-0.6893505963401324   0.004554518748719205   0.005828806536632709
-0.6893505963401324   0.004554518748719205   0.005828806536632709
-0.5873082154547096   0.048971710236878796   0.038425468838995225
-0.5873082154547096   0.048971710236878796   0.038425468838995225
-0.5873082154547096   0.048971710236878796   0.038425468838995225
-0.5873082154547096   0.048971710236878796   0.038425468838995225
-0.8474997714756529   -0.0585300009355465   -0.024139123604594227
-0.8474997714756529   -0.0585300009355465   -0.024139123604594227
-0.8474997714756529   -0.0585300009355465   -0.024139123604594227
-0.8474997714756529   -0.0585300009355465   -0.024139123604594227
-0.8565146730300717   -0.022748796847522623   0.03784355292750036
-0.8565146730300717   -0.022748796847522623   0.03784355292750036
-0.8565146730300717   -0.022748796847522623   0.03784355292750036
-0.8565146730300717   -0.022748796847522623   0.03784355292750036
-0.624694825780986   -0.028786764265783638   -0.015823028748862496
-0.624694825780986   -0.028786764265783638   -0.015823028748862496
-0.624694825780986   -0.028786764265783638   -0.015823028748862496
-0.624694825780986   -0.028786764265783638   -0.015823028748862496
-0.6992893526252552   -0.006134249193333496   -0.00020255372085835333
-0.6992893526252552   -0.006134249193333496   -0.00020255372085835333
-0.6992893526252552   -0.006134249193333496   -0.00020255372085835333
-0.6992893526252552   -0.006134249193333496   -0.00020255372085835333
0.06264656963834545   0.005147467225974423   -0.039959506115797516
0.06264656963834545   0.005147467225974423   -0.039959506115797516
0.06264656963834545   0.005147467225974423   -0.039959506115797516
0.06264656963834545   0.005147467225974423   -0.039959506115797516
-0.06369689104043473   0.02990534338950028   0.02040147650477438
-0.06369689104043473   0.02990534338950028   0.02040147650477438
-0.06369689104043473   0.02990534338950028   0.02040147650477438
-0.06369689104043473   0.02990534338950028   0.02040147650477438
-0.09626553670383535   -0.03854946161484658   -0.032201072952526916
-0.09626553670383535   -0.03854946161484658   -0.032201072952526916
-0.09626553670383535   -0.03854946161484658   -0.032201072952526916
-0.09626553670383535   -0.03854946161484658   -0.032201072952526916
0.0577123845744788   0.0425489572440887   0.025030548766552474
0.0577123845744788   0.0425489572440887   0.025030548766552474
0.0577123845744788   0.0425489572440887   0.025030548766552474
0.0577123845744788   0.0425489572440887   0.025030548766552474
-0.011363162523710542   0.009341346809881213   0.0034581395438262404
-0.011363162523710542   0.009341346809881213   0.0034581395438262404
-0.011363162523710542   0.009341346809881213   0.0034581395438262404
-0.011363162523710542   0.009341346809881213   0.0034581395438262404
0.034422255428146774   -0.013121597118461937   -0.03574954260255515
0.034422255428146774   -0.013121597118461937   -0.03574954260255515
0.034422255428146774   -0.013121597118461937   -0.03574954260255515
0.034422255428146774   -0.013121597118461937   -0.03574954260255515
-0.07434674294859987   0.015749757356602702   0.02309367685220117
-0.07434674294859987   0.015749757356602702   0.02309367685220117
-0.07434674294859987   0.015749757356602702   0.02309367685220117
-0.07434674294859987   0.015749757356602702   0.02309367685220117
-0.10700920423085418   -0.045513211460441766   -0.0273145869142419
-0.10700920423085418   -0.045513211460441766   -0.0273145869142419
-0.10700920423085418   -0.045513211460441766   -0.0273145869142419
-0.10700920423085418   -0.045513211460441766   -0.0273145869142419
0.0356237554898695   0.03309901907475493   0.034353050069211764
0.0356237554898695   0.03309901907475493   0.034353050069211764
0.0356237554898695   0.03309901907475493   0.034353050069211764
0.0356237554898695   0.03309901907475493   0.034353050069211764
-0.028750979475734868   -0.0010949735420291698   -0.004575091620930753
-0.028750979475734868   -0.0010949735420291698   -0.004575091620930753
-0.028750979475734868   -0.0010949735420291698   -0.004575091620930753
-0.028750979475734868   -0.0010949735420291698   -0.004575091620930753
0.011788990753471638   -0.022195838323610936   -0.02952591621441358
0.011788990753471638   -0.022195838323610936   -0.02952591621441358
0.011788990753471638   -0.022195838323610936   -0.02952591621441358
0.011788990753471638   -0.022195838323610936   -0.02952591621441358
-0.0850798753528341   0.007876210079545854   0.028942635935869966
-0.0850798753528341   0.007876210079545854   0.028942635935869966
-0.0850798753528341   0.007876210079545854   0.028942635935869966
-0.0850798753528341   0.007876210079545854   0.028942635935869966
-0.11684801927298395   -0.05617112653170629   -0.02265370366182546
-0.11684801927298395   -0.05617112653170629   -0.02265370366182546
-0.11684801927298395   -0.05617112653170629   -0.02265370366182546
-0.11684801927298395   -0.05617112653170629   -0.02265370366182546
0.004946304807676373   0.013321469658626016   0.039187322213842024
0.004946304807676373   0.013321469658626016   0.039187322213842024
0.004946304807676373   0.013321469658626016   0.039187322213842024
0.004946304807676373   0.013321469658626016   0.039187322213842024
-0.047522360369233664   -0.011583258264554665   -0.013856809289216612
-0.047522360369233664   -0.011583258264554665   -0.013856809289216612
-0.047522360369233664   -0.011583258264554665   -0.013856809289216612
-0.047522360369233664   -0.011583258264554665   -0.013856809289216612
-0.07294459322517391   0.019912750753670095   -0.015844441783091294
-0.07294459322517391   0.019912750753670095   -0.015844441783091294
-0.07294459322517391   0.019912750753670095   -0.015844441783091294
-0.07294459322517391   0.019912750753670095   -0.015844441783091294
-0.19105018431503795   0.008046427344330274   0.005303534464643454
-0.19105018431503795   0.008046427344330274   0.005303534464643454
-0.19105018431503795   0.008046427344330274   0.005303534464643454
-0.19105018431503795   0.008046427344330274   0.005303534464643454
-0.207876693408681   -0.022456629834041297   -0.01676647472624129
-0.207876693408681   -0.022456629834041297   -0.01676647472624129
-0.207876693408681   -0.022456629834041297   -0.01676647472624129
-0.207876693408681   -0.022456629834041297   -0.01676647472624129
-0.0750351579984168   0.019373837103701108   0.016027521856018134
-0.0750351579984168   0.019373837103701108   0.016027521856018134
-0.0750351579984168   0.019373837103701108   0.016027521856018134
-0.0750351579984168   0.019373837103701108   0.016027521856018134
-0.13645651219512245   0.005823799043610953   0.0031196616977647845
-0.13645651219512245   0.005823799043610953   0.0031196616977647845
-0.13645651219512245   0.005823799043610953   0.0031196616977647845
-0.13645651219512245   0.005823799043610953   0.0031196616977647845
-0.08411106087346697   0.0030451337792859676   -0.013023289194819005
-0.08411106087346697   0.0030451337792859676   -0.013023289194819005
-0.08411106087346697   0.0030451337792859676   -0.013023289194819005
-0.08411106087346697   0.0030451337792859676   -0.013023289194819005
-0.199930404969893   -0.007257540945888867   0.007765878579544449
-0.199930404969893   -0.007257540945888867   0.007765878579544449
-0.199930404969893   -0.007257540945888867   0.007765878579544449
-0.199930404969893   -0.007257540945888867   0.007765878579544449
-0.216246602051961   -0.03612270944656912   -0.012391460569048407
-0.216246602051961   -0.03612270944656912   -0.012391460569048407
-0.216246602051961   -0.03612270944656912   -0.012391460569048407
-0.216246602051961   -0.03612270944656912   -0.012391460569048407
-0.08797531815368474   0.004269684726082464   0.018071947285080152
-0.08797531815368474   0.004269684726082464   0.018071947285080152
-0.08797531815368474   0.004269684726082464   0.018071947285080152
-0.08797531815368474   0.004269684726082464   0.018071947285080152
-0.14702860156138667   -0.007905022244510205   -0.0037738264183854115
-0.14702860156138667   -0.007905022244510205   -0.0037738264183854115
-0.14702860156138667   -0.007905022244510205   -0.0037738264183854115
-0.14702860156138667   -0.007905022244510205   -0.0037738264183854115
-0.09672765267970106   -0.011687196318409364   -0.009732844300509589
-0.09672765267970106   -0.011687196318409364   -0.009732844300509589
-0.09672765267970106   -0.011687196318409364   -0.009732844300509589
-0.09672765267970106   -0.011687196318409364   -0.009732844300509589
-0.20870767767993964   -0.02137923855607257   0.010559690400559867
-0.20870767767993964   -0.02137923855607257   0.010559690400559867
-0.20870767767993964   -0.02137923855607257   0.010559690400559867
-0.20870767767993964   -0.02137923855607257   0.010559690400559867
-0.22467165537643144   -0.050165551653014104   -0.00851823147365961
-0.22467165537643144   -0.050165551653014104   -0.00851823147365961
-0.22467165537643144   -0.050165551653014104   -0.00851823147365961
-0.22467165537643144   -0.050165551653014104   -0.00851823147365961
-0.09880084362895651   -0.011010126865110229   0.022421174891714267
-0.09880084362895651   -0.011010126865110229   0.022421174891714267
-0.09880084362895651   -0.011010126865110229   0.022421174891714267
-0.09880084362895651   -0.011010126865110229   0.022421174891714267
-0.1575742169829448   -0.021458924400795925   -0.010777868211145843
-0.1575742169829448   -0.021458924400795925   -0.010777868211145843
-0.1575742169829448   -0.021458924400795925   -0.010777868211145843
-0.1575742169829448   -0.021458924400795925   -0.010777868211145843
-0.18752656679861218   0.03264431069043338   -0.0016762612993327722
-0.18752656679861218   0.03264431069043338   -0.0016762612993327722
-0.18752656679861218   0.03264431069043338   -0.0016762612993327722
-0.18752656679861218   0.03264431069043338   -0.0016762612993327722
-0.3171580449308302   -0.010918725985865192   -0.00899471648613732
-0.3171580449308302   -0.010918725985865192   -0.00899471648613732
-0.3171580449308302   -0.010918725985865192   -0.00899471648613732
-0.3171580449308302   -0.010918725985865192   -0.00899471648613732
-0.32051168559426924   -0.008003056321392893   -0.0019376683852364816
-0.32051168559426924   -0.008003056321392893   -0.0019376683852364816
-0.32051168559426924   -0.008003056321392893   -0.0019376683852364816
-0.32051168559426924   -0.008003056321392893   -0.0019376683852364816
-0.19913646485832587   0.00200087108697615   0.0024771671045150483
-0.19913646485832587   0.00200087108697615   0.0024771671045150483
-0.19913646485832587   0.00200087108697615   0.0024771671045150483
-0.19913646485832587   0.00200087108697615   0.0024771671045150483
-0.25554443938626936   0.003675666226318264   0.0010923102014503278
-0.25554443938626936   0.003675666226318264   0.0010923102014503278
-0.25554443938626936   0.003675666226318264   0.0010923102014503278
-0.25554443938626936   0.003675666226318264   0.0010923102014503278
-0.19598863160592508   0.017777107536685197   0.0024400969168098287
-0.19598863160592508   0.017777107536685197   0.0024400969168098287
-0.19598863160592508   0.017777107536685197   0.0024400969168098287
-0.19598863160592508   0.017777107536685197   0.0024400969168098287
-0.3247474747258587   -0.02486724865029065   -0.006252421714286135
-0.3247474747258587   -0.02486724865029065   -0.006252421714286135
-0.3247474747258587   -0.02486724865029065   -0.006252421714286135
-0.3247474747258587   -0.02486724865029065   -0.006252421714286135
-0.3283627526840708   -0.02268530350523526   0.0021320470101369067
-0.3283627526840708   -0.02268530350523526   0.0021320470101369067
-0.3283627526840708   -0.02268530350523526   0.0021320470101369067
-0.3283627526840708   -0.02268530350523526   0.0021320470101369067
-0.2080079802857407   -0.012435777408392308   0.005114716223874216
-0.2080079802857407   -0.012435777408392308   0.005114716223874216
-0.2080079802857407   -0.012435777408392308   0.005114716223874216
-0.2080079802857407   -0.012435777408392308   0.005114716223874216
-0.2640510498446756   -0.009677633882041653   -0.0052379924944427995
-0.2640510498446756   -0.009677633882041653   -0.0052379924944427995
-0.2640510498446756   -0.009677633882041653   -0.0052379924944427995
-0.2640510498446756   -0.009677633882041653   -0.0052379924944427995
-0.20476806239821313   0.002819109000444034   0.006059419252675679
-0.20476806239821313   0.002819109000444034   0.006059419252675679
-0.20476806239821313   0.002819109000444034   0.006059419252675679
-0.20476806239821313   0.002819109000444034   0.006059419252675679
-0.33291471750886714   -0.039252236851340355   -0.004060843767739596
-0.33291471750886714   -0.039252236851340355   -0.004060843767739596
-0.33291471750886714   -0.039252236851340355   -0.004060843767739596
-0.33291471750886714   -0.039252236851340355   -0.004060843767739596
-0.3360077211373722   -0.03676401838641146   0.006038045510804056
-0.3360077211373722   -0.03676401838641146   0.006038045510804056
-0.3360077211373722   -0.03676401838641146   0.006038045510804056
-0.3360077211373722   -0.03676401838641146   0.006038045510804056
-0.2165324597014319   -0.026048655382628273   0.00806085063095027
-0.2165324597014319   -0.026048655382628273   0.00806085063095027
-0.2165324597014319   -0.026048655382628273   0.00806085063095027
-0.2165324597014319   -0.026048655382628273   0.00806085063095027
-0.27320473903509473   -0.02311101359950997   -0.012117090763104054
-0.27320473903509473   -0.02311101359950997   -0.012117090763104054
-0.27320473903509473   -0.02311101359950997   -0.012117090763104054
-0.27320473903509473   -0.02311101359950997   -0.012117090763104054
-0.3011504300546444   0.04715786493496926   0.012966766973960913
-0.3011504300546444   0.04715786493496926   0.012966766973960913
-0.3011504300546444   0.04715786493496926   0.012966766973960913
-0.3011504300546444   0.04715786493496926   0.012966766973960913
-0.43838281213252134   -0.018210381112951077   -0.020157583548588508
-0.43838281213252134   -0.018210381112951077   -0.020157583548588508
-0.43838281213252134   -0.018210381112951077   -0.020157583548588508
-0.43838281213252134   -0.018210381112951077   -0.020157583548588508
-0.43254759765470574   0.006845497863273889   0.01335540391151219
-0.43254759765470574   0.006845497863273889   0.01335540391151219
-0.43254759765470574   0.006845497863273889   0.01335540391151219
-0.43254759765470574   0.006845497863273889   0.01335540391151219
-0.32156368871500574   -0.006257200220427153   -0.008943540089884822
-0.32156368871500574   -0.006257200220427153   -0.008943540089884822
-0.32156368871500574   -0.006257200220427153   -0.008943540089884822
-0.32156368871500574   -0.006257200220427153   -0.008943540089884822
-0.3721035818017268   0.007430560478192141   0.0018254180771956723
-0.3721035818017268   0.007430560478192141   0.0018254180771956723
-0.3721035818017268   0.007430560478192141   0.0018254180771956723
-0.3721035818017268   0.007430560478192141   0.0018254180771956723
-0.3086301577088507   0.03237607334519588   0.01709084137526715
-0.3086301577088507   0.03237607334519588   0.01709084137526715
-0.3086301577088507   0.03237607334519588   0.01709084137526715
-0.3086301577088507   0.03237607334519588   0.01709084137526715
-0.44707031440709766   -0.03337696144858732   -0.019035720538593717
-0.44707031440709766   -0.03337696144858732   -0.019035720538593717
-0.44707031440709766   -0.03337696144858732   -0.019035720538593717
-0.44707031440709766   -0.03337696144858732   -0.019035720538593717
-0.443064182079982   -0.007609606896531021   0.015783222816809817
-0.443064182079982   -0.007609606896531021   0.015783222816809817
-0.443064182079982   -0.007609606896531021   0.015783222816809817
-0.443064182079982   -0.007609606896531021   0.015783222816809817
-0.32934631013353316   -0.019393587230539237   -0.0060774565118708445
-0.32934631013353316   -0.019393587230539237   -0.0060774565118708445
-0.32934631013353316   -0.019393587230539237   -0.0060774565118708445
-0.32934631013353316   -0.019393587230539237   -0.0060774565118708445
-0.379243553484769   -0.005435013988792814   -0.0050362254960389825
-0.379243553484769   -0.005435013988792814   -0.0050362254960389825
-0.379243553484769   -0.005435013988792814   -0.0050362254960389825
-0.379243553484769   -0.005435013988792814   -0.0050362254960389825
-0.31626928532459453   0.0188129532930343   0.021101127009248936
-0.31626928532459453   0.0188129532930343   0.021101127009248936
-0.31626928532459453   0.0188129532930343   0.021101127009248936
-0.31626928532459453   0.0188129532930343   0.021101127009248936
-0.457396145273768   -0.047071085804950646   -0.01641511424370836
-0.457396145273768   -0.047071085804950646   -0.01641511424370836
-0.457396145273768   -0.047071085804950646   -0.01641511424370836
-0.457396145273768   -0.047071085804950646   -0.01641511424370836
-0.45161149365267805   -0.022180385843540817   0.020114913361248037
-0.45161149365267805   -0.022180385843540817   0.020114913361248037
-0.45161149365267805   -0.022180385843540817   0.020114913361248037
-0.45161149365267805   -0.022180385843540817   0.020114913361248037
-0.33715937415365976   -0.032854091858849147   -0.0036301460981999732
-0.33715937415365976   -0.032854091858849147   -0.0036301460981999732
-0.33715937415365976   -0.032854091858849147   -0.0036301460981999732
-0.33715937415365976   -0.032854091858849147   -0.0036301460981999732
-0.39000432499645965   -0.018573711828606024   -0.012075008459069447
-0.39000432499645965   -0.018573711828606024   -0.012075008459069447
-0.39000432499645965   -0.018573711828606024   -0.012075008459069447
-0.39000432499645965   -0.018573711828606024   -0.012075008459069447
-0.4153539328020878   0.051126162234372496   0.025650269756255305
-0.4153539328020878   0.051126162234372496   0.025650269756255305
-0.4153539328020878   0.051126162234372496   0.025650269756255305
-0.4153539328020878   0.051126162234372496   0.025650269756255305
-0.535401473733616   -0.02684457795894747   -0.03363513741566794
-0.535401473733616   -0.02684457795894747   -0.03363513741566794
-0.535401473733616   -0.02684457795894747   -0.03363513741566794
-0.535401473733616   -0.02684457795894747   -0.03363513741566794
-0.535848261090915   0.020332731741450893   0.028276665347135903
-0.535848261090915   0.020332731741450893   0.028276665347135903
-0.535848261090915   0.020332731741450893   0.028276665347135903
-0.535848261090915   0.020332731741450893   0.028276665347135903
-0.44369744168467845   -0.014974904282212737   -0.02057341409287245
-0.44369744168467845   -0.014974904282212737   -0.02057341409287245
-0.44369744168467845   -0.014974904282212737   -0.02057341409287245
-0.44369744168467845   -0.014974904282212737   -0.02057341409287245
-0.46302353995832013   0.012067367452866365   0.00901809340303537
-0.46302353995832013   0.012067367452866365   0.00901809340303537
-0.46302353995832013   0.012067367452866365   0.00901809340303537
-0.46302353995832013   0.012067367452866365   0.00901809340303537
-0.4218294668156463   0.04353289060091045   0.030258665369165057
-0.4218294668156463   0.04353289060091045   0.030258665369165057
-0.4218294668156463   0.04353289060091045   0.030258665369165057
-0.4218294668156463   0.04353289060091045   0.030258665369165057
-0.5593693569920037   -0.03982818417372888   -0.029167898243127897
-0.5593693569920037   -0.03982818417372888   -0.029167898243127897
-0.5593693569920037   -0.03982818417372888   -0.029167898243127897
-0.5593693569920037   -0.03982818417372888   -0.029167898243127897
-0.5549736521427272   0.012087512405874468   0.03642232376958495
-0.5549736521427272   0.012087512405874468   0.03642232376958495
-0.5549736521427272   0.012087512405874468   0.03642232376958495
-0.5549736521427272   0.012087512405874468   0.03642232376958495
-0.4528072816438359   -0.022528466835639235   -0.018013415063351673
-0.4528072816438359   -0.022528466835639235   -0.018013415063351673
-0.4528072816438359   -0.022528466835639235   -0.018013415063351673
-0.4528072816438359   -0.022528466835639235   -0.018013415063351673
-0.4858163102083596   0.0020497039753313295   -0.0005196112001813538
-0.4858163102083596   0.0020497039753313295   -0.0005196112001813538
-0.4858163102083596   0.0020497039753313295   -0.0005196112001813538
-0.4858163102083596   0.0020497039753313295   -0.0005196112001813538
-0.4300345982542101   0.037045971199573785   0.03627556384956438
-0.4300345982542101   0.037045971199573785   0.03627556384956438
-0.4300345982542101   0.037045971199573785   0.03627556384956438
-0.4300345982542101   0.037045971199573785   0.03627556384956438
-0.5794278954675692   -0.049168485564555955   -0.024592894884186662
-0.5794278954675692   -0.049168485564555955   -0.024592894884186662
-0.5794278954675692   -0.049168485564555955   -0.024592894884186662
-0.5794278954675692   -0.049168485564555955   -0.024592894884186662
-0.5832067805901447   -0.009624431797832844   0.03850058840005013
-0.5832067805901447   -0.009624431797832844   0.03850058840005013
-0.5832067805901447   -0.009624431797832844   0.03850058840005013
-0.5832067805901447   -0.009624431797832844   0.03850058840005013
-0.4619563591535926   -0.03823071677348519   -0.015559083213380197
-0.4619563591535926   -0.03823071677348519   -0.015559083213380197
-0.4619563591535926   -0.03823071677348519   -0.015559083213380197
-0.4619563591535926   -0.03823071677348519   -0.015559083213380197
-0.49452585868568283   -0.00788817089156034   -0.007275903752408698
-0.49452585868568283   -0.00788817089156034   -0.007275903752408698
-0.49452585868568283   -0.00788817089156034   -0.007275903752408698
-0.49452585868568283   -0.00788817089156034   -0.007275903752408698
-0.22287800901104157   -0.014511083109843573   -0.04249953802133806
-0.22287800901104157   -0.014511083109843573   -0.04249953802133806
-0.22287800901104157   -0.014511083109843573   -0.04249953802133806
-0.22287800901104157   -0.014511083109843573   -0.04249953802133806
-0.22216223412703678   0.032444731309434746   0.019093606785968536
-0.22216223412703678   0.032444731309434746   0.019093606785968536
-0.22216223412703678   0.032444731309434746   0.019093606785968536
-0.22216223412703678   0.032444731309434746   0.019093606785968536
-0.2502433501848202   -0.029818829439043903   -0.028852649889811538
-0.2502433501848202   -0.029818829439043903   -0.028852649889811538
-0.2502433501848202   -0.029818829439043903   -0.028852649889811538
-0.2502433501848202   -0.029818829439043903   -0.028852649889811538
-0.22760010667398617   0.01723883395458977   0.028621509612446056
-0.22760010667398617   0.01723883395458977   0.028621509612446056
-0.22760010667398617   0.01723883395458977   0.028621509612446056
-0.22760010667398617   0.01723883395458977   0.028621509612446056
-0.21913162005890405   0.005533855241732909   0.019481262078295064
-0.21913162005890405   0.005533855241732909   0.019481262078295064
-0.21913162005890405   0.005533855241732909   0.019481262078295064
-0.21913162005890405   0.005533855241732909   0.019481262078295064
-0.25013328772705706   -0.031156166090993614   -0.03564939560732322
-0.25013328772705706   -0.031156166090993614   -0.03564939560732322
-0.25013328772705706   -0.031156166090993614   -0.03564939560732322
-0.25013328772705706   -0.031156166090993614   -0.03564939560732322
-0.23049226533793132   0.015794074400357745   0.02428987050523107
-0.23049226533793132   0.015794074400357745   0.02428987050523107
-0.23049226533793132   0.015794074400357745   0.02428987050523107
-0.23049226533793132   0.015794074400357745   0.02428987050523107
-0.25873974281515877   -0.03753256824852012   -0.02444138824213518
-0.25873974281515877   -0.03753256824852012   -0.02444138824213518
-0.25873974281515877   -0.03753256824852012   -0.02444138824213518
-0.25873974281515877   -0.03753256824852012   -0.02444138824213518
-0.24938139697895817   0.006754979785849727   0.05328365460618539
-0.24938139697895817   0.006754979785849727   0.05328365460618539
-0.24938139697895817   0.006754979785849727   0.05328365460618539
-0.24938139697895817   0.006754979785849727   0.05328365460618539
-0.23916313709388304   -0.00771139230640204   0.007818135990545403
-0.23916313709388304   -0.00771139230640204   0.007818135990545403
-0.23916313709388304   -0.00771139230640204   0.007818135990545403
-0.23916313709388304   -0.00771139230640204   0.007818135990545403
-0.2752552972627619   -0.041511312412508175   -0.027819554614472393
-0.2752552972627619   -0.041511312412508175   -0.027819554614472393
-0.2752552972627619   -0.041511312412508175   -0.027819554614472393
-0.2752552972627619   -0.041511312412508175   -0.027819554614472393
-0.23947511789785791   0.004124448583335459   0.03022471951251379
-0.23947511789785791   0.004124448583335459   0.03022471951251379
-0.23947511789785791   0.004124448583335459   0.03022471951251379
-0.23947511789785791   0.004124448583335459   0.03022471951251379
-0.26570514348617713   -0.052497725400265254   -0.019257204786760775
-0.26570514348617713   -0.052497725400265254   -0.019257204786760775
-0.26570514348617713   -0.052497725400265254   -0.019257204786760775
-0.26570514348617713   -0.052497725400265254   -0.019257204786760775
-0.2832160854463451   -0.027891781713972854   0.049852482489268594
-0.2832160854463451   -0.027891781713972854   0.049852482489268594
-0.2832160854463451   -0.027891781713972854   0.049852482489268594
-0.2832160854463451   -0.027891781713972854   0.049852482489268594
-0.25661835748551365   -0.023360224908717316   -0.01069937026794776
-0.25661835748551365   -0.023360224908717316   -0.01069937026794776
-0.25661835748551365   -0.023360224908717316   -0.01069937026794776
-0.25661835748551365   -0.023360224908717316   -0.01069937026794776
-0.2382011287875276   -0.006813079570422077   -0.02184305563662866
-0.2382011287875276   -0.006813079570422077   -0.02184305563662866
-0.2382011287875276   -0.006813079570422077   -0.02184305563662866
-0.2382011287875276   -0.006813079570422077   -0.02184305563662866
-0.24260215174634908   -0.02985448186541961   -0.0012782414653041687
-0.24260215174634908   -0.02985448186541961   -0.0012782414653041687
-0.24260215174634908   -0.02985448186541961   -0.0012782414653041687
-0.24260215174634908   -0.02985448186541961   -0.0012782414653041687
-0.24444996835592436   -0.019908094689045842   -0.010967326750209049
-0.24444996835592436   -0.019908094689045842   -0.010967326750209049
-0.24444996835592436   -0.019908094689045842   -0.010967326750209049
-0.24444996835592436   -0.019908094689045842   -0.010967326750209049
-0.2466566745601498   -0.04036989470246892   -0.0003682065030348033
-0.2466566745601498   -0.04036989470246892   -0.0003682065030348033
-0.2466566745601498   -0.04036989470246892   -0.0003682065030348033
-0.2466566745601498   -0.04036989470246892   -0.0003682065030348033
-0.24091599353256063   -0.025291221373998314   -0.00078977620432036
-0.24091599353256063   -0.025291221373998314   -0.00078977620432036
-0.24091599353256063   -0.025291221373998314   -0.00078977620432036
-0.24091599353256063   -0.025291221373998314   -0.00078977620432036
-0.24667993860372656   -0.0219429230610348   -0.01891149836235162
-0.24667993860372656   -0.0219429230610348   -0.01891149836235162
-0.24667993860372656   -0.0219429230610348   -0.01891149836235162
-0.24667993860372656   -0.0219429230610348   -0.01891149836235162
-0.24598463768643763   -0.03989299970456983   0.0013442316127484652
-0.24598463768643763   -0.03989299970456983   0.0013442316127484652
-0.24598463768643763   -0.03989299970456983   0.0013442316127484652
-0.24598463768643763   -0.03989299970456983   0.0013442316127484652
-0.2486204222863403   -0.03289359260039386   -0.007099335214645917
-0.2486204222863403   -0.03289359260039386   -0.007099335214645917
-0.2486204222863403   -0.03289359260039386   -0.007099335214645917
-0.2486204222863403   -0.03289359260039386   -0.007099335214645917
-0.2557070767923524   -0.05241559975908193   0.005604973382458926
-0.2557070767923524   -0.05241559975908193   0.005604973382458926
-0.2557070767923524   -0.05241559975908193   0.005604973382458926
-0.2557070767923524   -0.05241559975908193   0.005604973382458926
-0.2465432482539972   -0.035794070170150294   -0.006820076981199846
-0.2465432482539972   -0.035794070170150294   -0.006820076981199846
-0.2465432482539972   -0.035794070170150294   -0.006820076981199846
-0.2465432482539972   -0.035794070170150294   -0.006820076981199846
-0.2563183550493834   -0.03582226303535739   -0.014044754626420533
-0.2563183550493834   -0.03582226303535739   -0.014044754626420533
-0.2563183550493834   -0.03582226303535739   -0.014044754626420533
-0.2563183550493834   -0.03582226303535739   -0.014044754626420533
-0.2500005017394006   -0.05147828703421   0.0045849619538667905
-0.2500005017394006   -0.05147828703421   0.0045849619538667905
-0.2500005017394006   -0.05147828703421   0.0045849619538667905
-0.2500005017394006   -0.05147828703421   0.0045849619538667905
-0.2523743287222071   -0.046863143001498984   -0.0032704206969789117
-0.2523743287222071   -0.046863143001498984   -0.0032704206969789117
-0.2523743287222071   -0.046863143001498984   -0.0032704206969789117
-0.2523743287222071   -0.046863143001498984   -0.0032704206969789117
-0.26264345731195304   -0.06767721769077961   0.011230718374871752
-0.26264345731195304   -0.06767721769077961   0.011230718374871752
-0.26264345731195304   -0.06767721769077961   0.011230718374871752
-0.26264345731195304   -0.06767721769077961   0.011230718374871752
-0.2542442929352169   -0.04844740922555102   -0.014475397606688912
-0.2542442929352169   -0.04844740922555102   -0.014475397606688912
-0.2542442929352169   -0.04844740922555102   -0.014475397606688912
-0.2542442929352169   -0.04844740922555102   -0.014475397606688912
-0.23591286560125152   0.006326662213525992   -0.004012954818760026
-0.23591286560125152   0.006326662213525992   -0.004012954818760026
-0.23591286560125152   0.006326662213525992   -0.004012954818760026
-0.23591286560125152   0.006326662213525992   -0.004012954818760026
-0.2678981446423442   -0.05087260334156038   -0.012866521887538328
-0.2678981446423442   -0.05087260334156038   -0.012866521887538328
-0.2678981446423442   -0.05087260334156038   -0.012866521887538328
-0.2678981446423442   -0.05087260334156038   -0.012866521887538328
-0.25703452245145064   -0.00940773667830154   0.003332185871251326
-0.25703452245145064   -0.00940773667830154   0.003332185871251326
-0.25703452245145064   -0.00940773667830154   0.003332185871251326
-0.25703452245145064   -0.00940773667830154   0.003332185871251326
-0.2508156543624166   -0.054794838213568724   -0.0079090132581474
-0.2508156543624166   -0.054794838213568724   -0.0079090132581474
-0.2508156543624166   -0.054794838213568724   -0.0079090132581474
-0.2508156543624166   -0.054794838213568724   -0.0079090132581474
-0.25273788470424846   -0.028051015776511812   -0.005679258292643551
-0.25273788470424846   -0.028051015776511812   -0.005679258292643551
-0.25273788470424846   -0.028051015776511812   -0.005679258292643551
-0.25273788470424846   -0.028051015776511812   -0.005679258292643551
-0.23960092718662618   -0.006594581598449778   -3.563399431428041e-05
-0.23960092718662618   -0.006594581598449778   -3.563399431428041e-05
-0.23960092718662618   -0.006594581598449778   -3.563399431428041e-05
-0.23960092718662618   -0.006594581598449778   -3.563399431428041e-05
-0.26966529594403904   -0.05902403961021912   -0.010205378659776951
-0.26966529594403904   -0.05902403961021912   -0.010205378659776951
-0.26966529594403904   -0.05902403961021912   -0.010205378659776951
-0.26966529594403904   -0.05902403961021912   -0.010205378659776951
-0.26005183553847216   -0.0224327713886079   0.007173601575527717
-0.26005183553847216   -0.0224327713886079   0.007173601575527717
-0.26005183553847216   -0.0224327713886079   0.007173601575527717
-0.26005183553847216   -0.0224327713886079   0.007173601575527717
-0.2547197514519636   -0.06505448536976309   -0.005435088273395385
-0.2547197514519636   -0.06505448536976309   -0.005435088273395385
-0.2547197514519636   -0.06505448536976309   -0.005435088273395385
-0.2547197514519636   -0.06505448536976309   -0.005435088273395385
-0.255935203458365   -0.03796670819262862   -0.010850743896928094
-0.255935203458365   -0.03796670819262862   -0.010850743896928094
-0.255935203458365   -0.03796670819262862   -0.010850743896928094
-0.255935203458365   -0.03796670819262862   -0.010850743896928094
-0.24382427717821792   -0.019853683738790463   0.003841481464360634
-0.24382427717821792   -0.019853683738790463   0.003841481464360634
-0.24382427717821792   -0.019853683738790463   0.003841481464360634
-0.24382427717821792   -0.019853683738790463   0.003841481464360634
-0.2725292291979522   -0.06921549240531481   -0.008430645705165416
-0.2725292291979522   -0.06921549240531481   -0.008430645705165416
-0.2725292291979522   -0.06921549240531481   -0.008430645705165416
-0.2725292291979522   -0.06921549240531481   -0.008430645705165416
-0.2625208221160268   -0.03467168901616134   0.010934044877864476
-0.2625208221160268   -0.03467168901616134   0.010934044877864476
-0.2625208221160268   -0.03467168901616134   0.010934044877864476
-0.2625208221160268   -0.03467168901616134   0.010934044877864476
-0.25764865775581336   -0.0748801641866143   -0.0016250446798966277
-0.25764865775581336   -0.0748801641866143   -0.0016250446798966277
-0.25764865775581336   -0.0748801641866143   -0.0016250446798966277
-0.25764865775581336   -0.0748801641866143   -0.0016250446798966277
-0.2597362800083248   -0.048333676730975605   -0.016531807808911204
-0.2597362800083248   -0.048333676730975605   -0.016531807808911204
-0.2597362800083248   -0.048333676730975605   -0.016531807808911204
-0.2597362800083248   -0.048333676730975605   -0.016531807808911204
-0.2473563729626737   0.02651697505382246   0.012452758115431513
-0.2473563729626737   0.02651697505382246   0.012452758115431513
-0.2473563729626737   0.02651697505382246   0.012452758115431513
-0.2473563729626737   0.02651697505382246   0.012452758115431513
-0.2932239802807096   -0.03806745889180723   -0.01796855413057813
-0.2932239802807096   -0.03806745889180723   -0.01796855413057813
-0.2932239802807096   -0.03806745889180723   -0.01796855413057813
-0.2932239802807096   -0.03806745889180723   -0.01796855413057813
-0.2775280228137791   0.007780969880567881   0.017211644513863728
-0.2775280228137791   0.007780969880567881   0.017211644513863728
-0.2775280228137791   0.007780969880567881   0.017211644513863728
-0.2775280228137791   0.007780969880567881   0.017211644513863728
-0.266444724697407   -0.04227103733882751   -0.010855524698004403
-0.266444724697407   -0.04227103733882751   -0.010855524698004403
-0.266444724697407   -0.04227103733882751   -0.010855524698004403
-0.266444724697407   -0.04227103733882751   -0.010855524698004403
-0.2711007966328436   -0.011229073270864011   -0.0033907587392528107
-0.2711007966328436   -0.011229073270864011   -0.0033907587392528107
-0.2711007966328436   -0.011229073270864011   -0.0033907587392528107
-0.2711007966328436   -0.011229073270864011   -0.0033907587392528107
-0.2499341335162966   0.013118914675863028   0.016307479192856925
-0.2499341335162966   0.013118914675863028   0.016307479192856925
-0.2499341335162966   0.013118914675863028   0.016307479192856925
-0.2499341335162966   0.013118914675863028   0.016307479192856925
-0.29592105066977487   -0.049491418809009355   -0.017481106076545676
-0.29592105066977487   -0.049491418809009355   -0.017481106076545676
-0.29592105066977487   -0.049491418809009355   -0.017481106076545676
-0.29592105066977487   -0.049491418809009355   -0.017481106076545676
-0.28271297474030227   -0.004947084283978359   0.019521722827687334
-0.28271297474030227   -0.004947084283978359   0.019521722827687334
-0.28271297474030227   -0.004947084283978359   0.019521722827687334
-0.28271297474030227   -0.004947084283978359   0.019521722827687334
-0.2690794693977038   -0.05176161140064331   -0.008635727708594786
-0.2690794693977038   -0.05176161140064331   -0.008635727708594786
-0.2690794693977038   -0.05176161140064331   -0.008635727708594786
-0.2690794693977038   -0.05176161140064331   -0.008635727708594786
-0.2737412308643079   -0.021983017562863506   -0.009458020458742307
-0.2737412308643079   -0.021983017562863506   -0.009458020458742307
-0.2737412308643079   -0.021983017562863506   -0.009458020458742307
-0.2737412308643079   -0.021983017562863506   -0.009458020458742307
-0.25276008141682643   0.0011492249785069186   0.020050375816637912
-0.25276008141682643   0.0011492249785069186   0.020050375816637912
-0.25276008141682643   0.0011492249785069186   0.020050375816637912
-0.25276008141682643   0.0011492249785069186   0.020050375816637912
-0.30066315063296156   -0.059488708574913784   -0.015687532344673977
-0.30066315063296156   -0.059488708574913784   -0.015687532344673977
-0.30066315063296156   -0.059488708574913784   -0.015687532344673977
-0.30066315063296156   -0.059488708574913784   -0.015687532344673977
-0.2861600156648107   -0.017165547055862193   0.02381321942790099
-0.2861600156648107   -0.017165547055862193   0.02381321942790099
-0.2861600156648107   -0.017165547055862193   0.02381321942790099
-0.2861600156648107   -0.017165547055862193   0.02381321942790099
-0.27135539858058005   -0.061298121133699396   -0.006612405327367999
-0.27135539858058005   -0.061298121133699396   -0.006612405327367999
-0.27135539858058005   -0.061298121133699396   -0.006612405327367999
-0.27135539858058005   -0.061298121133699396   -0.006612405327367999
-0.278333606484857   -0.03213293141351167   -0.015341896594189223
-0.278333606484857   -0.03213293141351167   -0.015341896594189223
-0.278333606484857   -0.03213293141351167   -0.015341896594189223
-0.278333606484857   -0.03213293141351167   -0.015341896594189223
-0.26942869759264304   0.03805423736330854   0.024886163054639077
-0.26942869759264304   0.03805423736330854   0.024886163054639077
-0.26942869759264304   0.03805423736330854   0.024886163054639077
-0.26942869759264304   0.03805423736330854   0.024886163054639077
-0.28900961060746166   -0.023085325659346408   -0.026005163031546777
-0.28900961060746166   -0.023085325659346408   -0.026005163031546777
-0.28900961060746166   -0.023085325659346408   -0.026005163031546777
-0.28900961060746166   -0.023085325659346408   -0.026005163031546777
-0.28264231533041506   0.026883256019340405   0.02766226106062985
-0.28264231533041506   0.026883256019340405   0.02766226106062985
-0.28264231533041506   0.026883256019340405   0.02766226106062985
-0.28264231533041506   0.026883256019340405   0.02766226106062985
-0.2915780098669636   -0.02935954383502591   -0.01589777703647266
-0.2915780098669636   -0.02935954383502591   -0.01589777703647266
-0.2915780098669636   -0.02935954383502591   -0.01589777703647266
-0.2915780098669636   -0.02935954383502591   -0.01589777703647266
-0.27350123914000657   0.006739465820813473   0.0011447185123741078
-0.27350123914000657   0.006739465820813473   0.0011447185123741078
-0.27350123914000657   0.006739465820813473   0.0011447185123741078
-0.27350123914000657   0.006739465820813473   0.0011447185123741078
-0.27088143924022634   0.02945673789807477   0.028768794364112955
-0.27088143924022634   0.02945673789807477   0.028768794364112955
-0.27088143924022634   0.02945673789807477   0.028768794364112955
-0.27088143924022634   0.02945673789807477   0.028768794364112955
-0.30487753239520127   -0.033471672151809254   -0.023158896092151708
-0.30487753239520127   -0.033471672151809254   -0.023158896092151708
-0.30487753239520127   -0.033471672151809254   -0.023158896092151708
-0.30487753239520127   -0.033471672151809254   -0.023158896092151708
-0.2950875551855124   0.019738522145079096   0.035601803381931765
-0.2950875551855124   0.019738522145079096   0.035601803381931765
-0.2950875551855124   0.019738522145079096   0.035601803381931765
-0.2950875551855124   0.019738522145079096   0.035601803381931765
-0.29551681993206   -0.034952176039905775   -0.014492411375181993
-0.29551681993206   -0.034952176039905775   -0.014492411375181993
-0.29551681993206   -0.034952176039905775   -0.014492411375181993
-0.29551681993206   -0.034952176039905775   -0.014492411375181993
-0.28691856498829965   -0.0019101476561203118   -0.0060382329411593876
-0.28691856498829965   -0.0019101476561203118   -0.0060382329411593876
-0.28691856498829965   -0.0019101476561203118   -0.0060382329411593876
-0.28691856498829965   -0.0019101476561203118   -0.0060382329411593876
-0.2739993348106498   0.023720310985048308   0.03442252720691527
-0.2739993348106498   0.023720310985048308   0.03442252720691527
-0.2739993348106498   0.023720310985048308   0.03442252720691527
-0.2739993348106498   0.023720310985048308   0.03442252720691527
-0.3186038563520129   -0.040932780924963996   -0.021308399380520288
-0.3186038563520129   -0.040932780924963996   -0.021308399380520288
-0.3186038563520129   -0.040932780924963996   -0.021308399380520288
-0.3186038563520129   -0.040932780924963996   -0.021308399380520288
-0.3169525000776281   0.001488591610131526   0.03803359962873886
-0.3169525000776281   0.001488591610131526   0.03803359962873886
-0.3169525000776281   0.001488591610131526   0.03803359962873886
-0.3169525000776281   0.001488591610131526   0.03803359962873886
-0.2991178537761195   -0.04555065577182503   -0.012590862412687902
-0.2991178537761195   -0.04555065577182503   -0.012590862412687902
-0.2991178537761195   -0.04555065577182503   -0.012590862412687902
-0.2991178537761195   -0.04555065577182503   -0.012590862412687902
-0.29327534714436326   -0.009882527178377003   -0.012501934157983114
-0.29327534714436326   -0.009882527178377003   -0.012501934157983114
-0.29327534714436326   -0.009882527178377003   -0.012501934157983114
-0.29327534714436326   -0.009882527178377003   -0.012501934157983114
-0.572987895486089   -0.05241654719557072   -0.054387124380006646
-0.572987895486089   -0.05241654719557072   -0.054387124380006646
-0.572987895486089   -0.05241654719557072   -0.054387124380006646
-0.572987895486089   -0.05241654719557072   -0.054387124380006646
-0.364178039149399   0.030826884524133513   0.012799503109665215
-0.364178039149399   0.030826884524133513   0.012799503109665215
-0.364178039149399   0.030826884524133513   0.012799503109665215
-0.364178039149399   0.030826884524133513   0.012799503109665215
-0.3824896007917883   -0.024328676409621525   -0.024326548090792967
-0.3824896007917883   -0.024328676409621525   -0.024326548090792967
-0.3824896007917883   -0.024328676409621525   -0.024326548090792967
-0.3824896007917883   -0.024328676409621525   -0.024326548090792967
-0.6095346649156852   -0.06902275306252206   0.060796621426728724
-0.6095346649156852   -0.06902275306252206   0.060796621426728724
-0.6095346649156852   -0.06902275306252206   0.060796621426728724
-0.6095346649156852   -0.06902275306252206   0.060796621426728724
-0.4432970160396029   -0.01699342361324481   0.05904066085270061
-0.4432970160396029   -0.01699342361324481   0.05904066085270061
-0.4432970160396029   -0.01699342361324481   0.05904066085270061
-0.4432970160396029   -0.01699342361324481   0.05904066085270061
-0.6313095174840022   -0.07720619085448374   -0.039894203622890013
-0.6313095174840022   -0.07720619085448374   -0.039894203622890013
-0.6313095174840022   -0.07720619085448374   -0.039894203622890013
-0.6313095174840022   -0.07720619085448374   -0.039894203622890013
-0.37603869195986755   -0.03146918235405593   0.015068502013241841
-0.37603869195986755   -0.03146918235405593   0.015068502013241841
-0.37603869195986755   -0.03146918235405593   0.015068502013241841
-0.37603869195986755   -0.03146918235405593   0.015068502013241841
-0.38847489079874137   -0.035222441450775493   -0.017509957757157527
-0.38847489079874137   -0.035222441450775493   -0.017509957757157527
-0.38847489079874137   -0.035222441450775493   -0.017509957757157527
-0.38847489079874137   -0.035222441450775493   -0.017509957757157527
-0.6291037466733476   -0.0963981550355897   0.0014089784043365104
-0.6291037466733476   -0.0963981550355897   0.0014089784043365104
-0.6291037466733476   -0.0963981550355897   0.0014089784043365104
-0.6291037466733476   -0.0963981550355897   0.0014089784043365104
-0.4910420444022746   -0.05816321300995851   0.013674598575310736
-0.4910420444022746   -0.05816321300995851   0.013674598575310736
-0.4910420444022746   -0.05816321300995851   0.013674598575310736
-0.4910420444022746   -0.05816321300995851   0.013674598575310736
-0.6339930725574042   -0.0872593728844857   -0.03217643316704566
-0.6339930725574042   -0.0872593728844857   -0.03217643316704566
-0.6339930725574042   -0.0872593728844857   -0.03217643316704566
-0.6339930725574042   -0.0872593728844857   -0.03217643316704566
-0.38821618179112255   -0.04899184047831713   -0.002447013691525616
-0.38821618179112255   -0.04899184047831713   -0.002447013691525616
-0.38821618179112255   -0.04899184047831713   -0.002447013691525616
-0.38821618179112255   -0.04899184047831713   -0.002447013691525616
-0.38884317636399335   -0.0615442216404503   -0.012782626225470377
-0.38884317636399335   -0.0615442216404503   -0.012782626225470377
-0.38884317636399335   -0.0615442216404503   -0.012782626225470377
-0.38884317636399335   -0.0615442216404503   -0.012782626225470377
-0.644365043784798   -0.14713910253539286   0.009522598246348622
-0.644365043784798   -0.14713910253539286   0.009522598246348622
-0.644365043784798   -0.14713910253539286   0.009522598246348622
-0.644365043784798   -0.14713910253539286   0.009522598246348622
-0.49064351529763045   -0.07992572359100392   0.0010666919024428217
-0.49064351529763045   -0.07992572359100392   0.0010666919024428217
-0.49064351529763045   -0.07992572359100392   0.0010666919024428217
-0.49064351529763045   -0.07992572359100392   0.0010666919024428217
-0.3932373784939548   -0.06671661728306282   -0.03495369180591448
-0.3932373784939548   -0.06671661728306282   -0.03495369180591448
-0.3932373784939548   -0.06671661728306282   -0.03495369180591448
-0.3932373784939548   -0.06671661728306282   -0.03495369180591448
-0.27075488267518105   -0.17564520036501052   -0.03289888427329463
-0.27075488267518105   -0.17564520036501052   -0.03289888427329463
-0.27075488267518105   -0.17564520036501052   -0.03289888427329463
-0.27075488267518105   -0.17564520036501052   -0.03289888427329463
-0.23778189107172584   -0.0389478700996211   -0.002132866977219628
-0.23778189107172584   -0.0389478700996211   -0.002132866977219628
-0.23778189107172584   -0.0389478700996211   -0.002132866977219628
-0.23778189107172584   -0.0389478700996211   -0.002132866977219628
-0.4182647676563887   -0.18612319943905026   -0.041407859384369486
-0.4182647676563887   -0.18612319943905026   -0.041407859384369486
-0.4182647676563887   -0.18612319943905026   -0.041407859384369486
-0.4182647676563887   -0.18612319943905026   -0.041407859384369486
-0.3261948269261188   -0.12398838548346743   -0.009525781729486382
-0.3261948269261188   -0.12398838548346743   -0.009525781729486382
-0.3261948269261188   -0.12398838548346743   -0.009525781729486382
-0.3261948269261188   -0.12398838548346743   -0.009525781729486382
-0.3929915648233073   -0.07483020032174643   -0.02633484433626486
-0.3929915648233073   -0.07483020032174643   -0.02633484433626486
-0.3929915648233073   -0.07483020032174643   -0.02633484433626486
-0.3929915648233073   -0.07483020032174643   -0.02633484433626486
-0.2646452568585874   -0.15183103217070515   -0.023566533840445224
-0.2646452568585874   -0.15183103217070515   -0.023566533840445224
-0.2646452568585874   -0.15183103217070515   -0.023566533840445224
-0.2646452568585874   -0.15183103217070515   -0.023566533840445224
-0.24057341671071003   -0.05044671590571214   0.0003157325676655258
-0.24057341671071003   -0.05044671590571214   0.0003157325676655258
-0.24057341671071003   -0.05044671590571214   0.0003157325676655258
-0.24057341671071003   -0.05044671590571214   0.0003157325676655258
-0.41984353947186404   -0.18514750962933674   -0.024428132944213615
-0.41984353947186404   -0.18514750962933674   -0.024428132944213615
-0.41984353947186404   -0.18514750962933674   -0.024428132944213615
-0.41984353947186404   -0.18514750962933674   -0.024428132944213615
-0.3226315142136309   -0.11621907555679709   -0.010121550518459244
-0.3226315142136309   -0.11621907555679709   -0.010121550518459244
-0.3226315142136309   -0.11621907555679709   -0.010121550518459244
-0.3226315142136309   -0.11621907555679709   -0.010121550518459244
-0.3991149915361955   -0.0861706316361526   -0.019762271259051195
-0.3991149915361955   -0.0861706316361526   -0.019762271259051195
-0.3991149915361955   -0.0861706316361526   -0.019762271259051195
-0.3991149915361955   -0.0861706316361526   -0.019762271259051195
-0.26460419573805816   -0.15272582499057558   -0.017559053484213785
-0.26460419573805816   -0.15272582499057558   -0.017559053484213785
-0.26460419573805816   -0.15272582499057558   -0.017559053484213785
-0.26460419573805816   -0.15272582499057558   -0.017559053484213785
-0.24057884072816804   -0.06474734139208947   0.0038154832845374636
-0.24057884072816804   -0.06474734139208947   0.0038154832845374636
-0.24057884072816804   -0.06474734139208947   0.0038154832845374636
-0.24057884072816804   -0.06474734139208947   0.0038154832845374636
-0.4188877668818015   -0.18813903153414008   -0.036410768920826
-0.4188877668818015   -0.18813903153414008   -0.036410768920826
-0.4188877668818015   -0.18813903153414008   -0.036410768920826
-0.4188877668818015   -0.18813903153414008   -0.036410768920826
-0.3275923961036218   -0.12498931682906143   -0.018811791115932903
-0.3275923961036218   -0.12498931682906143   -0.018811791115932903
-0.3275923961036218   -0.12498931682906143   -0.018811791115932903
-0.3275923961036218   -0.12498931682906143   -0.018811791115932903
-0.23824745771350397   -0.04297546128689048   -0.0030314985430290814
-0.23824745771350397   -0.04297546128689048   -0.0030314985430290814
-0.23824745771350397   -0.04297546128689048   -0.0030314985430290814
-0.23824745771350397   -0.04297546128689048   -0.0030314985430290814
-0.20039177409211037   -0.13450279335991752   -0.02321749549260765
-0.20039177409211037   -0.13450279335991752   -0.02321749549260765
-0.20039177409211037   -0.13450279335991752   -0.02321749549260765
-0.20039177409211037   -0.13450279335991752   -0.02321749549260765
-0.17272022084648309   -0.03575545015704517   0.009192493508536839
-0.17272022084648309   -0.03575545015704517   0.009192493508536839
-0.17272022084648309   -0.03575545015704517   0.009192493508536839
-0.17272022084648309   -0.03575545015704517   0.009192493508536839
-0.263904899612455   -0.14607994349395048   -0.025615836286537557
-0.263904899612455   -0.14607994349395048   -0.025615836286537557
-0.263904899612455   -0.14607994349395048   -0.025615836286537557
-0.263904899612455   -0.14607994349395048   -0.025615836286537557
-0.2178593853176714   -0.09106458407131518   -0.010701964065693686
-0.2178593853176714   -0.09106458407131518   -0.010701964065693686
-0.2178593853176714   -0.09106458407131518   -0.010701964065693686
-0.2178593853176714   -0.09106458407131518   -0.010701964065693686
-0.23966475561775985   -0.05090155647867531   0.000406496671662917
-0.23966475561775985   -0.05090155647867531   0.000406496671662917
-0.23966475561775985   -0.05090155647867531   0.000406496671662917
-0.23966475561775985   -0.05090155647867531   0.000406496671662917
-0.19837364888439002   -0.13234712121553216   -0.02248297562251093
-0.19837364888439002   -0.13234712121553216   -0.02248297562251093
-0.19837364888439002   -0.13234712121553216   -0.02248297562251093
-0.19837364888439002   -0.13234712121553216   -0.02248297562251093
-0.1728535612710313   -0.045210285874500836   0.01191971902196825
-0.1728535612710313   -0.045210285874500836   0.01191971902196825
-0.1728535612710313   -0.045210285874500836   0.01191971902196825
-0.1728535612710313   -0.045210285874500836   0.01191971902196825
-0.26480835918243495   -0.14839395652133275   -0.022911739175340298
-0.26480835918243495   -0.14839395652133275   -0.022911739175340298
-0.26480835918243495   -0.14839395652133275   -0.022911739175340298
-0.26480835918243495   -0.14839395652133275   -0.022911739175340298
-0.2175317432056965   -0.09461072030051998   -0.013889574166920979
-0.2175317432056965   -0.09461072030051998   -0.013889574166920979
-0.2175317432056965   -0.09461072030051998   -0.013889574166920979
-0.2175317432056965   -0.09461072030051998   -0.013889574166920979
-0.24175879941347236   -0.060489047231462305   0.004431150379601971
-0.24175879941347236   -0.060489047231462305   0.004431150379601971
-0.24175879941347236   -0.060489047231462305   0.004431150379601971
-0.24175879941347236   -0.060489047231462305   0.004431150379601971
-0.19668148810883998   -0.1338935622332174   -0.0185366388083585
-0.19668148810883998   -0.1338935622332174   -0.0185366388083585
-0.19668148810883998   -0.1338935622332174   -0.0185366388083585
-0.19668148810883998   -0.1338935622332174   -0.0185366388083585
-0.17089972147391908   -0.0542267678438733   0.014893000751929423
-0.17089972147391908   -0.0542267678438733   0.014893000751929423
-0.17089972147391908   -0.0542267678438733   0.014893000751929423
-0.17089972147391908   -0.0542267678438733   0.014893000751929423
-0.2617420404524175   -0.15025533274985714   -0.016492523978942002
-0.2617420404524175   -0.15025533274985714   -0.016492523978942002
-0.2617420404524175   -0.15025533274985714   -0.016492523978942002
-0.2617420404524175   -0.15025533274985714   -0.016492523978942002
-0.21696126143779654   -0.0992954757161868   -0.016113489620397402
-0.21696126143779654   -0.0992954757161868   -0.016113489620397402
-0.21696126143779654   -0.0992954757161868   -0.016113489620397402
-0.21696126143779654   -0.0992954757161868   -0.016113489620397402
-0.16675894155186982   -0.005909971291826032   0.016353845140503417
-0.16675894155186982   -0.005909971291826032   0.016353845140503417
-0.16675894155186982   -0.005909971291826032   0.016353845140503417
-0.16675894155186982   -0.005909971291826032   0.016353845140503417
-0.15822698814773895   -0.0713096461087044   -0.013949120478101954
-0.15822698814773895   -0.0713096461087044   -0.013949120478101954
-0.15822698814773895   -0.0713096461087044   -0.013949120478101954
-0.15822698814773895   -0.0713096461087044   -0.013949120478101954
-0.13650238786403862   -0.010326681048259859   0.01892391992146554
-0.13650238786403862   -0.010326681048259859   0.01892391992146554
-0.13650238786403862   -0.010326681048259859   0.01892391992146554
-0.13650238786403862   -0.010326681048259859   0.01892391992146554
-0.18583390340997924   -0.08227167231815907   -0.00985969714782993
-0.18583390340997924   -0.08227167231815907   -0.00985969714782993
-0.18583390340997924   -0.08227167231815907   -0.00985969714782993
-0.18583390340997924   -0.08227167231815907   -0.00985969714782993
-0.1623662982018662   -0.04205324237576163   -0.00581069249443455
-0.1623662982018662   -0.04205324237576163   -0.00581069249443455
-0.1623662982018662   -0.04205324237576163   -0.00581069249443455
-0.1623662982018662   -0.04205324237576163   -0.00581069249443455
-0.1669191714099434   -0.016421969695746587   0.01886426022993668
-0.1669191714099434   -0.016421969695746587   0.01886426022993668
-0.1669191714099434   -0.016421969695746587   0.01886426022993668
-0.1669191714099434   -0.016421969695746587   0.01886426022993668
-0.15692643040283905   -0.07768569420943565   -0.015837279611352992
-0.15692643040283905   -0.07768569420943565   -0.015837279611352992
-0.15692643040283905   -0.07768569420943565   -0.015837279611352992
-0.15692643040283905   -0.07768569420943565   -0.015837279611352992
-0.13676856127390488   -0.019502863668001677   0.02034710283082986
-0.13676856127390488   -0.019502863668001677   0.02034710283082986
-0.13676856127390488   -0.019502863668001677   0.02034710283082986
-0.13676856127390488   -0.019502863668001677   0.02034710283082986
-0.18584712381722518   -0.08729177768127534   -0.010966601902226593
-0.18584712381722518   -0.08729177768127534   -0.010966601902226593
-0.18584712381722518   -0.08729177768127534   -0.010966601902226593
-0.18584712381722518   -0.08729177768127534   -0.010966601902226593
-0.1617192858481201   -0.04941473669627389   -0.00987034785756103
-0.1617192858481201   -0.04941473669627389   -0.00987034785756103
-0.1617192858481201   -0.04941473669627389   -0.00987034785756103
-0.1617192858481201   -0.04941473669627389   -0.00987034785756103
-0.16696724026833187   -0.02531984366738089   0.02146088182834543
-0.16696724026833187   -0.02531984366738089   0.02146088182834543
-0.16696724026833187   -0.02531984366738089   0.02146088182834543
-0.16696724026833187   -0.02531984366738089   0.02146088182834543
-0.15656280582575785   -0.08238915868485322   -0.015737824911583313
-0.15656280582575785   -0.08238915868485322   -0.015737824911583313
-0.15656280582575785   -0.08238915868485322   -0.015737824911583313
-0.15656280582575785   -0.08238915868485322   -0.015737824911583313
-0.1356734663050929   -0.028122525381196663   0.02358364115964309
-0.1356734663050929   -0.028122525381196663   0.02358364115964309
-0.1356734663050929   -0.028122525381196663   0.02358364115964309
-0.1356734663050929   -0.028122525381196663   0.02358364115964309
-0.18299017017094316   -0.09230528983577388   -0.007480720741290478
-0.18299017017094316   -0.09230528983577388   -0.007480720741290478
-0.18299017017094316   -0.09230528983577388   -0.007480720741290478
-0.18299017017094316   -0.09230528983577388   -0.007480720741290478
-0.16131153527259812   -0.05576076473177598   -0.012703853154886003
-0.16131153527259812   -0.05576076473177598   -0.012703853154886003
-0.16131153527259812   -0.05576076473177598   -0.012703853154886003
-0.16131153527259812   -0.05576076473177598   -0.012703853154886003
-0.13235932681920284   0.018551393096491293   0.02552814695938293
-0.13235932681920284   0.018551393096491293   0.02552814695938293
-0.13235932681920284   0.018551393096491293   0.02552814695938293
-0.13235932681920284   0.018551393096491293   0.02552814695938293
-0.0886949746956622   -0.02353366872173413   -0.008616205821127891
-0.0886949746956622   -0.02353366872173413   -0.008616205821127891
-0.0886949746956622   -0.02353366872173413   -0.008616205821127891
-0.0886949746956622   -0.02353366872173413   -0.008616205821127891
-0.07762462893119976   0.02165465359014205   0.02521982915360329
-0.07762462893119976   0.02165465359014205   0.02521982915360329
-0.07762462893119976   0.02165465359014205   0.02521982915360329
-0.07762462893119976   0.02165465359014205   0.02521982915360329
-0.14628575046142897   -0.03585052532887229   -0.004469048784873635
-0.14628575046142897   -0.03585052532887229   -0.004469048784873635
-0.14628575046142897   -0.03585052532887229   -0.004469048784873635
-0.14628575046142897   -0.03585052532887229   -0.004469048784873635
-0.10968338844042891   -0.0023164548067677454   -0.004568352991207171
-0.10968338844042891   -0.0023164548067677454   -0.004568352991207171
-0.10968338844042891   -0.0023164548067677454   -0.004568352991207171
-0.10968338844042891   -0.0023164548067677454   -0.004568352991207171
-0.13031953921940265   0.011645001767545723   0.027866480328839878
-0.13031953921940265   0.011645001767545723   0.027866480328839878
-0.13031953921940265   0.011645001767545723   0.027866480328839878
-0.13031953921940265   0.011645001767545723   0.027866480328839878
-0.09375084708023744   -0.02600088041329117   -0.007755727588151851
-0.09375084708023744   -0.02600088041329117   -0.007755727588151851
-0.09375084708023744   -0.02600088041329117   -0.007755727588151851
-0.09375084708023744   -0.02600088041329117   -0.007755727588151851
-0.08111732340285674   0.01717052246698656   0.03172158463007636
-0.08111732340285674   0.01717052246698656   0.03172158463007636
-0.08111732340285674   0.01717052246698656   0.03172158463007636
-0.08111732340285674   0.01717052246698656   0.03172158463007636
-0.14571124664283222   -0.03817673638695329   -0.0056924512948552065
-0.14571124664283222   -0.03817673638695329   -0.0056924512948552065
-0.14571124664283222   -0.03817673638695329   -0.0056924512948552065
-0.14571124664283222   -0.03817673638695329   -0.0056924512948552065
-0.11304158618605224   -0.007210937008912243   -0.006506901413378939
-0.11304158618605224   -0.007210937008912243   -0.006506901413378939
-0.11304158618605224   -0.007210937008912243   -0.006506901413378939
-0.11304158618605224   -0.007210937008912243   -0.006506901413378939
-0.12898809075206621   0.007667808687944758   0.03207878308407681
-0.12898809075206621   0.007667808687944758   0.03207878308407681
-0.12898809075206621   0.007667808687944758   0.03207878308407681
-0.12898809075206621   0.007667808687944758   0.03207878308407681
-0.09898550310572539   -0.0298190464200154   -0.0106297449972649
-0.09898550310572539   -0.0298190464200154   -0.0106297449972649
-0.09898550310572539   -0.0298190464200154   -0.0106297449972649
-0.09898550310572539   -0.0298190464200154   -0.0106297449972649
-0.09277850377910962   0.004837533514505365   0.03301073402195424
-0.09277850377910962   0.004837533514505365   0.03301073402195424
-0.09277850377910962   0.004837533514505365   0.03301073402195424
-0.09277850377910962   0.004837533514505365   0.03301073402195424
-0.14377706184672503   -0.04029501462575684   -0.004761847303957534
-0.14377706184672503   -0.04029501462575684   -0.004761847303957534
-0.14377706184672503   -0.04029501462575684   -0.004761847303957534
-0.14377706184672503   -0.04029501462575684   -0.004761847303957534
-0.11469492304405153   -0.010770772235810959   -0.009610578692142534
-0.11469492304405153   -0.010770772235810959   -0.009610578692142534
-0.11469492304405153   -0.010770772235810959   -0.009610578692142534
-0.11469492304405153   -0.010770772235810959   -0.009610578692142534
-1.3560641876247475   -0.19276165863894273   -0.11325706423036723
-1.3560641876247475   -0.19276165863894273   -0.11325706423036723
-1.3560641876247475   -0.19276165863894273   -0.11325706423036723
-1.3560641876247475   -0.19276165863894273   -0.11325706423036723
-0.47144585406032397   -0.7483885614937941   -0.08852096491575355
-0.47144585406032397   -0.7483885614937941   -0.08852096491575355
-0.47144585406032397   -0.7483885614937941   -0.08852096491575355
-0.47144585406032397   -0.7483885614937941   -0.08852096491575355
-0.3634222993725133   -0.0318776556324915   0.0004097430337174166
-0.3634222993725133   -0.0318776556324915   0.0004097430337174166
-0.3634222993725133   -0.0318776556324915   0.0004097430337174166
-0.3634222993725133   -0.0318776556324915   0.0004097430337174166
-1.4497223779668051   -0.8782537206691792   -0.46559521972719686
-1.4497223779668051   -0.8782537206691792   -0.46559521972719686
-1.4497223779668051   -0.8782537206691792   -0.46559521972719686
-1.4497223779668051   -0.8782537206691792   -0.46559521972719686
-0.8873797789924923   -0.4367140048592721   -0.0636615610683307
-0.8873797789924923   -0.4367140048592721   -0.0636615610683307
-0.8873797789924923   -0.4367140048592721   -0.0636615610683307
-0.8873797789924923   -0.4367140048592721   -0.0636615610683307
-1.2601600403246445   -0.24209550238898145   -0.1539417497966009
-1.2601600403246445   -0.24209550238898145   -0.1539417497966009
-1.2601600403246445   -0.24209550238898145   -0.1539417497966009
-1.2601600403246445   -0.24209550238898145   -0.1539417497966009
-0.5093865911385772   -0.6244378280365938   -0.1368515433924979
-0.5093865911385772   -0.6244378280365938   -0.1368515433924979
-0.5093865911385772   -0.6244378280365938   -0.1368515433924979
-0.5093865911385772   -0.6244378280365938   -0.1368515433924979
-0.37099332265962814   -0.04227456608843173   0.013916499126414657
-0.37099332265962814   -0.04227456608843173   0.013916499126414657
-0.37099332265962814   -0.04227456608843173   0.013916499126414657
-0.37099332265962814   -0.04227456608843173   0.013916499126414657
-1.3567703038886294   -0.7842170731052656   -0.428197475398779
-1.3567703038886294   -0.7842170731052656   -0.428197475398779
-1.3567703038886294   -0.7842170731052656   -0.428197475398779
-1.3567703038886294   -0.7842170731052656   -0.428197475398779
-0.835933536094255   -0.39405705347068165   0.033635560366005846
-0.835933536094255   -0.39405705347068165   0.033635560366005846
-0.835933536094255   -0.39405705347068165   0.033635560366005846
-0.835933536094255   -0.39405705347068165   0.033635560366005846
-1.18338481961741   -0.23052799227905207   -0.11495913486890542
-1.18338481961741   -0.23052799227905207   -0.11495913486890542
-1.18338481961741   -0.23052799227905207   -0.11495913486890542
-1.18338481961741   -0.23052799227905207   -0.11495913486890542
-0.4959083377062388   -0.5474931776900375   -0.1054399645050292
-0.4959083377062388   -0.5474931776900375   -0.1054399645050292
-0.4959083377062388   -0.5474931776900375   -0.1054399645050292
-0.4959083377062388   -0.5474931776900375   -0.1054399645050292
-0.42689254392159287   -0.11002698522543   -0.022389315067042205
-0.42689254392159287   -0.11002698522543   -0.022389315067042205
-0.42689254392159287   -0.11002698522543   -0.022389315067042205
-0.42689254392159287   -0.11002698522543   -0.022389315067042205
-1.236692469804952   -0.6601282689332215   -0.37936414774763466
-1.236692469804952   -0.6601282689332215   -0.37936414774763466
-1.236692469804952   -0.6601282689332215   -0.37936414774763466
-1.236692469804952   -0.6601282689332215   -0.37936414774763466
-0.7744769202330521   -0.34182907065451273   0.14361932470577324
-0.7744769202330521   -0.34182907065451273   0.14361932470577324
-0.7744769202330521   -0.34182907065451273   0.14361932470577324
-0.7744769202330521   -0.34182907065451273   0.14361932470577324
-0.3476945855706257   -0.19007000073471025   -0.02808318322634882
-0.3476945855706257   -0.19007000073471025   -0.02808318322634882
-0.3476945855706257   -0.19007000073471025   -0.02808318322634882
-0.3476945855706257   -0.19007000073471025   -0.02808318322634882
-0.16152374042387088   -0.23858562617887016   -0.039945934557020564
-0.16152374042387088   -0.23858562617887016   -0.039945934557020564
-0.16152374042387088   -0.23858562617887016   -0.039945934557020564
-0.16152374042387088   -0.23858562617887016   -0.039945934557020564
-0.14199904264093424   -0.12186689353934645   0.0036079450986874345
-0.14199904264093424   -0.12186689353934645   0.0036079450986874345
-0.14199904264093424   -0.12186689353934645   0.0036079450986874345
-0.14199904264093424   -0.12186689353934645   0.0036079450986874345
-0.42654093929766157   -0.3476657021333761   0.0006045899088625295
-0.42654093929766157   -0.3476657021333761   0.0006045899088625295
-0.42654093929766157   -0.3476657021333761   0.0006045899088625295
-0.42654093929766157   -0.3476657021333761   0.0006045899088625295
-0.22876307181050326   -0.16840617339499897   0.07356723199009985
-0.22876307181050326   -0.16840617339499897   0.07356723199009985
-0.22876307181050326   -0.16840617339499897   0.07356723199009985
-0.22876307181050326   -0.16840617339499897   0.07356723199009985
-0.39614818460163964   -0.17703148225008883   -0.018065856494319063
-0.39614818460163964   -0.17703148225008883   -0.018065856494319063
-0.39614818460163964   -0.17703148225008883   -0.018065856494319063
-0.39614818460163964   -0.17703148225008883   -0.018065856494319063
-0.1845150563611302   -0.30462437244680773   -0.026214644594827093
-0.1845150563611302   -0.30462437244680773   -0.026214644594827093
-0.1845150563611302   -0.30462437244680773   -0.026214644594827093
-0.1845150563611302   -0.30462437244680773   -0.026214644594827093
-0.15359325295320275   -0.12626021985604755   0.003758029403563335
-0.15359325295320275   -0.12626021985604755   0.003758029403563335
-0.15359325295320275   -0.12626021985604755   0.003758029403563335
-0.15359325295320275   -0.12626021985604755   0.003758029403563335
-0.4476842093445647   -0.3434908324669327   -0.06832166791976318
-0.4476842093445647   -0.3434908324669327   -0.06832166791976318
-0.4476842093445647   -0.3434908324669327   -0.06832166791976318
-0.4476842093445647   -0.3434908324669327   -0.06832166791976318
-0.2732058383338789   -0.21577654253544137   0.033382738613823106
-0.2732058383338789   -0.21577654253544137   0.033382738613823106
-0.2732058383338789   -0.21577654253544137   0.033382738613823106
-0.2732058383338789   -0.21577654253544137   0.033382738613823106
-0.409051505959072   -0.18486106085815046   -0.033787922601081974
-0.409051505959072   -0.18486106085815046   -0.033787922601081974
-0.409051505959072   -0.18486106085815046   -0.033787922601081974
-0.409051505959072   -0.18486106085815046   -0.033787922601081974
-0.19110649502052562   -0.28377053014666   -0.026297870642438513
-0.19110649502052562   -0.28377053014666   -0.026297870642438513
-0.19110649502052562   -0.28377053014666   -0.026297870642438513
-0.19110649502052562   -0.28377053014666   -0.026297870642438513
-0.171542826456479   -0.13027938811548798   0.005542507747119698
-0.171542826456479   -0.13027938811548798   0.005542507747119698
-0.171542826456479   -0.13027938811548798   0.005542507747119698
-0.171542826456479   -0.13027938811548798   0.005542507747119698
-0.47907400634770686   -0.3339576247731043   -0.05936598764993617
-0.47907400634770686   -0.3339576247731043   -0.05936598764993617
-0.47907400634770686   -0.3339576247731043   -0.05936598764993617
-0.47907400634770686   -0.3339576247731043   -0.05936598764993617
-0.28615572369486075   -0.20341709523526003   0.03527968137436878
-0.28615572369486075   -0.20341709523526003   0.03527968137436878
-0.28615572369486075   -0.20341709523526003   0.03527968137436878
-0.28615572369486075   -0.20341709523526003   0.03527968137436878
-0.126852644504167   -0.11348890380940131   0.008312822672030023
-0.126852644504167   -0.11348890380940131   0.008312822672030023
-0.126852644504167   -0.11348890380940131   0.008312822672030023
-0.126852644504167   -0.11348890380940131   0.008312822672030023
-0.07811249161805833   -0.0755042140660921   -0.019556013376671046
-0.07811249161805833   -0.0755042140660921   -0.019556013376671046
-0.07811249161805833   -0.0755042140660921   -0.019556013376671046
-0.07811249161805833   -0.0755042140660921   -0.019556013376671046
-0.07553733324359332   -0.10161715905526379   0.0083305195380265
-0.07553733324359332   -0.10161715905526379   0.0083305195380265
-0.07553733324359332   -0.10161715905526379   0.0083305195380265
-0.07553733324359332   -0.10161715905526379   0.0083305195380265
-0.14066347422286787   -0.1029369585577312   -0.00864414779259207
-0.14066347422286787   -0.1029369585577312   -0.00864414779259207
-0.14066347422286787   -0.1029369585577312   -0.00864414779259207
-0.14066347422286787   -0.1029369585577312   -0.00864414779259207
-0.08884751735596347   -0.08293663995031661   0.03693936571903436
-0.08884751735596347   -0.08293663995031661   0.03693936571903436
-0.08884751735596347   -0.08293663995031661   0.03693936571903436
-0.08884751735596347   -0.08293663995031661   0.03693936571903436
-0.1393989122666519   -0.1142560317344419   0.008997735165194531
-0.1393989122666519   -0.1142560317344419   0.008997735165194531
-0.1393989122666519   -0.1142560317344419   0.008997735165194531
-0.1393989122666519   -0.1142560317344419   0.008997735165194531
-0.07806535525939956   -0.0915615459381445   -0.014365203658127837
-0.07806535525939956   -0.0915615459381445   -0.014365203658127837
-0.07806535525939956   -0.0915615459381445   -0.014365203658127837
-0.07806535525939956   -0.0915615459381445   -0.014365203658127837
-0.07650672096466311   -0.10466595229354549   0.007426643745831855
-0.07650672096466311   -0.10466595229354549   0.007426643745831855
-0.07650672096466311   -0.10466595229354549   0.007426643745831855
-0.07650672096466311   -0.10466595229354549   0.007426643745831855
-0.14954961458892224   -0.11998943073338138   0.01770543210229983
-0.14954961458892224   -0.11998943073338138   0.01770543210229983
-0.14954961458892224   -0.11998943073338138   0.01770543210229983
-0.14954961458892224   -0.11998943073338138   0.01770543210229983
-0.09681433545487622   -0.09245350089607597   0.031168401802834356
-0.09681433545487622   -0.09245350089607597   0.031168401802834356
-0.09681433545487622   -0.09245350089607597   0.031168401802834356
-0.09681433545487622   -0.09245350089607597   0.031168401802834356
-0.15036506823307924   -0.11849600322230636   0.012134736370435974
-0.15036506823307924   -0.11849600322230636   0.012134736370435974
-0.15036506823307924   -0.11849600322230636   0.012134736370435974
-0.15036506823307924   -0.11849600322230636   0.012134736370435974
-0.08221523300724824   -0.112683345491362   -0.013098523269277247
-0.08221523300724824   -0.112683345491362   -0.013098523269277247
-0.08221523300724824   -0.112683345491362   -0.013098523269277247
-0.08221523300724824   -0.112683345491362   -0.013098523269277247
-0.07759290284113315   -0.10803650238900525   0.01045249021402539
-0.07759290284113315   -0.10803650238900525   0.01045249021402539
-0.07759290284113315   -0.10803650238900525   0.01045249021402539
-0.07759290284113315   -0.10803650238900525   0.01045249021402539
-0.17523273122382255   -0.14734782695943346   0.004161422754347464
-0.17523273122382255   -0.14734782695943346   0.004161422754347464
-0.17523273122382255   -0.14734782695943346   0.004161422754347464
-0.17523273122382255   -0.14734782695943346   0.004161422754347464
-0.10831949619536921   -0.1053021458900931   0.014554502419794266
-0.10831949619536921   -0.1053021458900931   0.014554502419794266
-0.10831949619536921   -0.1053021458900931   0.014554502419794266
-0.10831949619536921   -0.1053021458900931   0.014554502419794266
-0.06375410858437768   -0.0452324237960685   0.021964111521708594
-0.06375410858437768   -0.0452324237960685   0.021964111521708594
-0.06375410858437768   -0.0452324237960685   0.021964111521708594
-0.06375410858437768   -0.0452324237960685   0.021964111521708594
-0.04511270345307717   -0.0009272557984598279   -0.004416852421451567
-0.04511270345307717   -0.0009272557984598279   -0.004416852421451567
-0.04511270345307717   -0.0009272557984598279   -0.004416852421451567
-0.04511270345307717   -0.0009272557984598279   -0.004416852421451567
-0.042783401116462505   -0.04896804916657545   0.013607916316579123
-0.042783401116462505   -0.04896804916657545   0.013607916316579123
-0.042783401116462505   -0.04896804916657545   0.013607916316579123
-0.042783401116462505   -0.04896804916657545   0.013607916316579123
-0.05932127531487282   -0.009591185475682745   -0.0026151643979520954
-0.05932127531487282   -0.009591185475682745   -0.0026151643979520954
-0.05932127531487282   -0.009591185475682745   -0.0026151643979520954
-0.05932127531487282   -0.009591185475682745   -0.0026151643979520954
-0.0487478760614289   -0.02509206481007565   0.010892631464092608
-0.0487478760614289   -0.02509206481007565   0.010892631464092608
-0.0487478760614289   -0.02509206481007565   0.010892631464092608
-0.0487478760614289   -0.02509206481007565   0.010892631464092608
-0.06305327643603018   -0.05159739882474093   0.02073104334531936
-0.06305327643603018   -0.05159739882474093   0.02073104334531936
-0.06305327643603018   -0.05159739882474093   0.02073104334531936
-0.06305327643603018   -0.05159739882474093   0.02073104334531936
-0.03796124671472699   -0.005871682536939088   -0.005377678304379644
-0.03796124671472699   -0.005871682536939088   -0.005377678304379644
-0.03796124671472699   -0.005871682536939088   -0.005377678304379644
-0.03796124671472699   -0.005871682536939088   -0.005377678304379644
-0.03931329078825732   -0.05327832631702586   0.01256682189004531
-0.03931329078825732   -0.05327832631702586   0.01256682189004531
-0.03931329078825732   -0.05327832631702586   0.01256682189004531
-0.03931329078825732   -0.05327832631702586   0.01256682189004531
-0.059893044695111135   -0.018127079035260413   0.003956151835306689
-0.059893044695111135   -0.018127079035260413   0.003956151835306689
-0.059893044695111135   -0.018127079035260413   0.003956151835306689
-0.059893044695111135   -0.018127079035260413   0.003956151835306689
-0.04485876628110709   -0.028791124788735165   0.01289291732946579
-0.04485876628110709   -0.028791124788735165   0.01289291732946579
-0.04485876628110709   -0.028791124788735165   0.01289291732946579
-0.04485876628110709   -0.028791124788735165   0.01289291732946579
-0.06349613841605889   -0.05588794948461144   0.02370155367991896
-0.06349613841605889   -0.05588794948461144   0.02370155367991896
-0.06349613841605889   -0.05588794948461144   0.02370155367991896
-0.06349613841605889   -0.05588794948461144   0.02370155367991896
-0.03607902607798798   -0.015886284878353234   -0.008653895997280584
-0.03607902607798798   -0.015886284878353234   -0.008653895997280584
-0.03607902607798798   -0.015886284878353234   -0.008653895997280584
-0.03607902607798798   -0.015886284878353234   -0.008653895997280584
-0.03305646365676438   -0.058056405555044606   0.013829994148177096
-0.03305646365676438   -0.058056405555044606   0.013829994148177096
-0.03305646365676438   -0.058056405555044606   0.013829994148177096
-0.03305646365676438   -0.058056405555044606   0.013829994148177096
-0.06479929555972082   -0.03878109090534895   0.0051651151374308224
-0.06479929555972082   -0.03878109090534895   0.0051651151374308224
-0.06479929555972082   -0.03878109090534895   0.0051651151374308224
-0.06479929555972082   -0.03878109090534895   0.0051651151374308224
-0.0433169594883788   -0.03628182643402537   0.011039246139732303
-0.0433169594883788   -0.03628182643402537   0.011039246139732303
-0.0433169594883788   -0.03628182643402537   0.011039246139732303
-0.0433169594883788   -0.03628182643402537   0.011039246139732303
-0.041191320411547355   -0.007880946085949655   0.022143753073687312
-0.041191320411547355   -0.007880946085949655   0.022143753073687312
-0.041191320411547355   -0.007880946085949655   0.022143753073687312
-0.041191320411547355   -0.007880946085949655   0.022143753073687312
-0.0075175011588582245   0.00464727430134755   -0.00044741066788344156
-0.0075175011588582245   0.00464727430134755   -0.00044741066788344156
-0.0075175011588582245   0.00464727430134755   -0.00044741066788344156
-0.0075175011588582245   0.00464727430134755   -0.00044741066788344156
0.0020569605400569658   -0.0025416566432597755   0.013732583641710719
0.0020569605400569658   -0.0025416566432597755   0.013732583641710719
0.0020569605400569658   -0.0025416566432597755   0.013732583641710719
0.0020569605400569658   -0.0025416566432597755   0.013732583641710719
-0.03535685999751716   0.003377337762815031   -0.0016047650180845922
-0.03535685999751716   0.003377337762815031   -0.0016047650180845922
-0.03535685999751716   0.003377337762815031   -0.0016047650180845922
-0.03535685999751716   0.003377337762815031   -0.0016047650180845922
-0.020832142614220246   -0.0015981341970869134   -0.0016847663624483425
-0.020832142614220246   -0.0015981341970869134   -0.0016847663624483425
-0.020832142614220246   -0.0015981341970869134   -0.0016847663624483425
-0.020832142614220246   -0.0015981341970869134   -0.0016847663624483425
-0.032627755098434116   -0.007617914209391225   0.02303601144953688
-0.032627755098434116   -0.007617914209391225   0.02303601144953688
-0.032627755098434116   -0.007617914209391225   0.02303601144953688
-0.032627755098434116   -0.007617914209391225   0.02303601144953688
0.0005511400808745071   0.009676879768849622   -0.006015055066303301
0.0005511400808745071   0.009676879768849622   -0.006015055066303301
0.0005511400808745071   0.009676879768849622   -0.006015055066303301
0.0005511400808745071   0.009676879768849622   -0.006015055066303301
0.006825374050162621   -0.003144774422153704   0.016930737836155556
0.006825374050162621   -0.003144774422153704   0.016930737836155556
0.006825374050162621   -0.003144774422153704   0.016930737836155556
0.006825374050162621   -0.003144774422153704   0.016930737836155556
-0.0311528141255143   0.0024437784715698437   -0.0023528995848353207
-0.0311528141255143   0.0024437784715698437   -0.0023528995848353207
-0.0311528141255143   0.0024437784715698437   -0.0023528995848353207
-0.0311528141255143   0.0024437784715698437   -0.0023528995848353207
-0.013808389526735855   -0.00043977644190883614   0.0021535677979075026
-0.013808389526735855   -0.00043977644190883614   0.0021535677979075026
-0.013808389526735855   -0.00043977644190883614   0.0021535677979075026
-0.013808389526735855   -0.00043977644190883614   0.0021535677979075026
-0.02792427456120091   -0.008528446974997687   0.024762023683299175
-0.02792427456120091   -0.008528446974997687   0.024762023683299175
-0.02792427456120091   -0.008528446974997687   0.024762023683299175
-0.02792427456120091   -0.008528446974997687   0.024762023683299175
0.004685324107207413   0.008915940645772013   -0.005830226946546193
0.004685324107207413   0.008915940645772013   -0.005830226946546193
0.004685324107207413   0.008915940645772013   -0.005830226946546193
0.004685324107207413   0.008915940645772013   -0.005830226946546193
0.011633269663528779   -0.004967724057081541   0.0164642740291728
0.011633269663528779   -0.004967724057081541   0.0164642740291728
0.011633269663528779   -0.004967724057081541   0.0164642740291728
0.011633269663528779   -0.004967724057081541   0.0164642740291728
-0.024280347914275874   0.0023092255787021286   -0.0026550582731270913
-0.024280347914275874   0.0023092255787021286   -0.0026550582731270913
-0.024280347914275874   0.0023092255787021286   -0.0026550582731270913
-0.024280347914275874   0.0023092255787021286   -0.0026550582731270913
-0.007559456589653878   0.0002369835238538472   0.0054979876969211685
-0.007559456589653878   0.0002369835238538472   0.0054979876969211685
-0.007559456589653878   0.0002369835238538472   0.0054979876969211685
-0.007559456589653878   0.0002369835238538472   0.0054979876969211685
              </DataArray>   
             <DataArray type="Float64" NumberOfComponents="3" Name="Displacements" format="ascii">   
0.0   0.0   0.0
-0.0037798758972988336   -0.002483362510002657   -0.0012664316147623252
0.0   0.0   0.0
0.0   0.0   0.0
-0.0037798758972988336   -0.002483362510002657   -0.0012664316147623252
-0.00240494877739374   -0.002232328699145606   -0.0009304939640055758
0.0   0.0   0.0
-0.0023572140463366856   -0.0023441497855905815   -0.0007796162269432753
0.0   0.0   0.0
0.0   0.0   0.0
-0.0023572140463366856   -0.0023441497855905815   -0.0007796162269432753
0.0   0.0   0.0
0.0   0.0   0.0
-0.0023572140463366856   -0.0023441497855905815   -0.0007796162269432753
-0.003955605543196021   -0.0026455027896771202   -0.0010168600443786974
-0.0037798758972988336   -0.002483362510002657   -0.0012664316147623252
0.0   0.0   0.0
-0.0023572140463366856   -0.0023441497855905815   -0.0007796162269432753
-0.0037798758972988336   -0.002483362510002657   -0.0012664316147623252
0.0   0.0   0.0
0.0   0.0   0.0
-0.003955605543196021   -0.0026455027896771202   -0.0010168600443786974
0.0   0.0   0.0
0.0   0.0   0.0
-0.003955605543196021   -0.0026455027896771202   -0.0010168600443786974
-0.0023572140463366856   -0.0023441497855905815   -0.0007796162269432753
0.0   0.0   0.0
-0.002363675140608147   -0.0024014760923830284   -0.0006289771087946719
0.0   0.0   0.0
0.0   0.0   0.0
-0.002363675140608147   -0.0024014760923830284   -0.0006289771087946719
0.0   0.0   0.0
0.0   0.0   0.0
-0.002363675140608147   -0.0024014760923830284   -0.0006289771087946719
-0.004078933056799168   -0.0027243575465413215   -0.0007777720709805269
-0.003955605543196021   -0.0026455027896771202   -0.0010168600443786974
0.0   0.0   0.0
-0.002363675140608147   -0.0024014760923830284   -0.0006289771087946719
-0.003955605543196021   -0.0026455027896771202   -0.0010168600443786974
0.0   0.0   0.0
0.0   0.0   0.0
-0.004078933056799168   -0.0027243575465413215   -0.0007777720709805269
0.0   0.0   0.0
0.0   0.0   0.0
-0.004078933056799168   -0.0027243575465413215   -0.0007777720709805269
-0.002363675140608147   -0.0024014760923830284   -0.0006289771087946719
0.0   0.0   0.0
-0.002362222315512339   -0.0024162361022446468   -0.00047324080520839946
0.0   0.0   0.0
0.0   0.0   0.0
-0.002362222315512339   -0.0024162361022446468   -0.00047324080520839946
0.0   0.0   0.0
0.0   0.0   0.0
-0.002362222315512339   -0.0024162361022446468   -0.00047324080520839946
-0.00434479974299616   -0.0027841489714486374   -0.0005004222911998594
-0.004078933056799168   -0.0027243575465413215   -0.0007777720709805269
0.0   0.0   0.0
-0.002362222315512339   -0.0024162361022446468   -0.00047324080520839946
-0.004078933056799168   -0.0027243575465413215   -0.0007777720709805269
0.0   0.0   0.0
0.0   0.0   0.0
-0.00240494877739374   -0.002232328699145606   -0.0009304939640055758
0.0   0.0   0.0
0.0   0.0   0.0
-0.00240494877739374   -0.002232328699145606   -0.0009304939640055758
-0.0010954425443421895   -0.002140299664144053   -0.0007078329525140145
0.0   0.0   0.0
-0.001053399209359534   -0.002213060147117738   -0.0006365825703826384
0.0   0.0   0.0
0.0   0.0   0.0
-0.001053399209359534   -0.002213060147117738   -0.0006365825703826384
0.0   0.0   0.0
0.0   0.0   0.0
-0.001053399209359534   -0.002213060147117738   -0.0006365825703826384
-0.0023572140463366856   -0.0023441497855905815   -0.0007796162269432753
-0.00240494877739374   -0.002232328699145606   -0.0009304939640055758
0.0   0.0   0.0
-0.001053399209359534   -0.002213060147117738   -0.0006365825703826384
-0.00240494877739374   -0.002232328699145606   -0.0009304939640055758
0.0   0.0   0.0
0.0   0.0   0.0
-0.0023572140463366856   -0.0023441497855905815   -0.0007796162269432753
0.0   0.0   0.0
0.0   0.0   0.0
-0.0023572140463366856   -0.0023441497855905815   -0.0007796162269432753
-0.001053399209359534   -0.002213060147117738   -0.0006365825703826384
0.0   0.0   0.0
-0.0010297100733796208   -0.0022408014195634623   -0.0005672138194893297
0.0   0.0   0.0
0.0   0.0   0.0
-0.0010297100733796208   -0.0022408014195634623   -0.0005672138194893297
0.0   0.0   0.0
0.0   0.0   0.0
-0.0010297100733796208   -0.0022408014195634623   -0.0005672138194893297
-0.002363675140608147   -0.0024014760923830284   -0.0006289771087946719
-0.0023572140463366856   -0.0023441497855905815   -0.0007796162269432753
0.0   0.0   0.0
-0.0010297100733796208   -0.0022408014195634623   -0.0005672138194893297
-0.0023572140463366856   -0.0023441497855905815   -0.0007796162269432753
0.0   0.0   0.0
0.0   0.0   0.0
-0.002363675140608147   -0.0024014760923830284   -0.0006289771087946719
0.0   0.0   0.0
0.0   0.0   0.0
-0.002363675140608147   -0.0024014760923830284   -0.0006289771087946719
-0.0010297100733796208   -0.0022408014195634623   -0.0005672138194893297
0.0   0.0   0.0
-0.0010081084232930041   -0.002229245801775684   -0.0004955209859683223
0.0   0.0   0.0
0.0   0.0   0.0
-0.0010081084232930041   -0.002229245801775684   -0.0004955209859683223
0.0   0.0   0.0
0.0   0.0   0.0
-0.0010081084232930041   -0.002229245801775684   -0.0004955209859683223
-0.002362222315512339   -0.0024162361022446468   -0.00047324080520839946
-0.002363675140608147   -0.0024014760923830284   -0.0006289771087946719
0.0   0.0   0.0
-0.0010081084232930041   -0.002229245801775684   -0.0004955209859683223
-0.002363675140608147   -0.0024014760923830284   -0.0006289771087946719
0.0   0.0   0.0
0.0   0.0   0.0
-0.0010954425443421895   -0.002140299664144053   -0.0007078329525140145
0.0   0.0   0.0
0.0   0.0   0.0
-0.0010954425443421895   -0.002140299664144053   -0.0007078329525140145
0.0001416353163641337   -0.002152120264388522   -0.0005660089706790366
0.0   0.0   0.0
0.00016855803809402869   -0.0021898065109571424   -0.0005758139847744105
0.0   0.0   0.0
0.0   0.0   0.0
0.00016855803809402869   -0.0021898065109571424   -0.0005758139847744105
0.0   0.0   0.0
0.0   0.0   0.0
0.00016855803809402869   -0.0021898065109571424   -0.0005758139847744105
-0.001053399209359534   -0.002213060147117738   -0.0006365825703826384
-0.0010954425443421895   -0.002140299664144053   -0.0007078329525140145
0.0   0.0   0.0
0.00016855803809402869   -0.0021898065109571424   -0.0005758139847744105
-0.0010954425443421895   -0.002140299664144053   -0.0007078329525140145
0.0   0.0   0.0
0.0   0.0   0.0
-0.001053399209359534   -0.002213060147117738   -0.0006365825703826384
0.0   0.0   0.0
0.0   0.0   0.0
-0.001053399209359534   -0.002213060147117738   -0.0006365825703826384
0.00016855803809402869   -0.0021898065109571424   -0.0005758139847744105
0.0   0.0   0.0
0.0001898318291795677   -0.0021866593277173095   -0.0005846888651158081
0.0   0.0   0.0
0.0   0.0   0.0
0.0001898318291795677   -0.0021866593277173095   -0.0005846888651158081
0.0   0.0   0.0
0.0   0.0   0.0
0.0001898318291795677   -0.0021866593277173095   -0.0005846888651158081
-0.0010297100733796208   -0.0022408014195634623   -0.0005672138194893297
-0.001053399209359534   -0.002213060147117738   -0.0006365825703826384
0.0   0.0   0.0
0.0001898318291795677   -0.0021866593277173095   -0.0005846888651158081
-0.001053399209359534   -0.002213060147117738   -0.0006365825703826384
0.0   0.0   0.0
0.0   0.0   0.0
-0.0010297100733796208   -0.0022408014195634623   -0.0005672138194893297
0.0   0.0   0.0
0.0   0.0   0.0
-0.0010297100733796208   -0.0022408014195634623   -0.0005672138194893297
0.0001898318291795677   -0.0021866593277173095   -0.0005846888651158081
0.0   0.0   0.0
0.00021839385165478602   -0.0021393336651018375   -0.0005938321020111415
0.0   0.0   0.0
0.0   0.0   0.0
0.00021839385165478602   -0.0021393336651018375   -0.0005938321020111415
0.0   0.0   0.0
0.0   0.0   0.0
0.00021839385165478602   -0.0021393336651018375   -0.0005938321020111415
-0.0010081084232930041   -0.002229245801775684   -0.0004955209859683223
-0.0010297100733796208   -0.0022408014195634623   -0.0005672138194893297
0.0   0.0   0.0
0.00021839385165478602   -0.0021393336651018375   -0.0005938321020111415
-0.0010297100733796208   -0.0022408014195634623   -0.0005672138194893297
0.0   0.0   0.0
0.0   0.0   0.0
0.0001416353163641337   -0.002152120264388522   -0.0005660089706790366
0.0   0.0   0.0
0.0   0.0   0.0
0.0001416353163641337   -0.002152120264388522   -0.0005660089706790366
0.0014846234274069124   -0.002256599552897255   -0.0004959545924714771
0.0   0.0   0.0
0.0014874751376259476   -0.002268538498999682   -0.000591049733455513
0.0   0.0   0.0
0.0   0.0   0.0
0.0014874751376259476   -0.002268538498999682   -0.000591049733455513
0.0   0.0   0.0
0.0   0.0   0.0
0.0014874751376259476   -0.002268538498999682   -0.000591049733455513
0.00016855803809402869   -0.0021898065109571424   -0.0005758139847744105
0.0001416353163641337   -0.002152120264388522   -0.0005660089706790366
0.0   0.0   0.0
0.0014874751376259476   -0.002268538498999682   -0.000591049733455513
0.0001416353163641337   -0.002152120264388522   -0.0005660089706790366
0.0   0.0   0.0
0.0   0.0   0.0
0.00016855803809402869   -0.0021898065109571424   -0.0005758139847744105
0.0   0.0   0.0
0.0   0.0   0.0
0.00016855803809402869   -0.0021898065109571424   -0.0005758139847744105
0.0014874751376259476   -0.002268538498999682   -0.000591049733455513
0.0   0.0   0.0
0.0014812870225404534   -0.0022361461431227433   -0.000682305901555615
0.0   0.0   0.0
0.0   0.0   0.0
0.0014812870225404534   -0.0022361461431227433   -0.000682305901555615
0.0   0.0   0.0
0.0   0.0   0.0
0.0014812870225404534   -0.0022361461431227433   -0.000682305901555615
0.0001898318291795677   -0.0021866593277173095   -0.0005846888651158081
0.00016855803809402869   -0.0021898065109571424   -0.0005758139847744105
0.0   0.0   0.0
0.0014812870225404534   -0.0022361461431227433   -0.000682305901555615
0.00016855803809402869   -0.0021898065109571424   -0.0005758139847744105
0.0   0.0   0.0
0.0   0.0   0.0
0.0001898318291795677   -0.0021866593277173095   -0.0005846888651158081
0.0   0.0   0.0
0.0   0.0   0.0
0.0001898318291795677   -0.0021866593277173095   -0.0005846888651158081
0.0014812870225404534   -0.0022361461431227433   -0.000682305901555615
0.0   0.0   0.0
0.0015101504773997409   -0.002149528172059901   -0.0007718477824497837
0.0   0.0   0.0
0.0   0.0   0.0
0.0015101504773997409   -0.002149528172059901   -0.0007718477824497837
0.0   0.0   0.0
0.0   0.0   0.0
0.0015101504773997409   -0.002149528172059901   -0.0007718477824497837
0.00021839385165478602   -0.0021393336651018375   -0.0005938321020111415
0.0001898318291795677   -0.0021866593277173095   -0.0005846888651158081
0.0   0.0   0.0
0.0015101504773997409   -0.002149528172059901   -0.0007718477824497837
0.0001898318291795677   -0.0021866593277173095   -0.0005846888651158081
0.0   0.0   0.0
0.0   0.0   0.0
0.0014846234274069124   -0.002256599552897255   -0.0004959545924714771
0.0   0.0   0.0
0.0   0.0   0.0
0.0014846234274069124   -0.002256599552897255   -0.0004959545924714771
0.0033528692568298925   -0.002521539558580724   -0.0004681765121045032
0.0   0.0   0.0
0.0031491604261578137   -0.0024938931644136256   -0.0006838576372669227
0.0   0.0   0.0
0.0   0.0   0.0
0.0031491604261578137   -0.0024938931644136256   -0.0006838576372669227
0.0   0.0   0.0
0.0   0.0   0.0
0.0031491604261578137   -0.0024938931644136256   -0.0006838576372669227
0.0014874751376259476   -0.002268538498999682   -0.000591049733455513
0.0014846234274069124   -0.002256599552897255   -0.0004959545924714771
0.0   0.0   0.0
0.0031491604261578137   -0.0024938931644136256   -0.0006838576372669227
0.0014846234274069124   -0.002256599552897255   -0.0004959545924714771
0.0   0.0   0.0
0.0   0.0   0.0
0.0014874751376259476   -0.002268538498999682   -0.000591049733455513
0.0   0.0   0.0
0.0   0.0   0.0
0.0014874751376259476   -0.002268538498999682   -0.000591049733455513
0.0031491604261578137   -0.0024938931644136256   -0.0006838576372669227
0.0   0.0   0.0
0.003055304583922166   -0.002442045761559123   -0.0008662671540809727
0.0   0.0   0.0
0.0   0.0   0.0
0.003055304583922166   -0.002442045761559123   -0.0008662671540809727
0.0   0.0   0.0
0.0   0.0   0.0
0.003055304583922166   -0.002442045761559123   -0.0008662671540809727
0.0014812870225404534   -0.0022361461431227433   -0.000682305901555615
0.0014874751376259476   -0.002268538498999682   -0.000591049733455513
0.0   0.0   0.0
0.003055304583922166   -0.002442045761559123   -0.0008662671540809727
0.0014874751376259476   -0.002268538498999682   -0.000591049733455513
0.0   0.0   0.0
0.0   0.0   0.0
0.0014812870225404534   -0.0022361461431227433   -0.000682305901555615
0.0   0.0   0.0
0.0   0.0   0.0
0.0014812870225404534   -0.0022361461431227433   -0.000682305901555615
0.003055304583922166   -0.002442045761559123   -0.0008662671540809727
0.0   0.0   0.0
0.002915452059821521   -0.0023094794243232976   -0.001059348020553994
0.0   0.0   0.0
0.0   0.0   0.0
0.002915452059821521   -0.0023094794243232976   -0.001059348020553994
0.0   0.0   0.0
0.0   0.0   0.0
0.002915452059821521   -0.0023094794243232976   -0.001059348020553994
0.0015101504773997409   -0.002149528172059901   -0.0007718477824497837
0.0014812870225404534   -0.0022361461431227433   -0.000682305901555615
0.0   0.0   0.0
0.002915452059821521   -0.0023094794243232976   -0.001059348020553994
0.0014812870225404534   -0.0022361461431227433   -0.000682305901555615
0.0   0.0   0.0
-0.0037798758972988336   -0.002483362510002657   -0.0012664316147623252
-0.007057513419005242   -0.006927205920462104   -0.001706337731040747
-0.00240494877739374   -0.002232328699145606   -0.0009304939640055758
-0.003955605543196021   -0.0026455027896771202   -0.0010168600443786974
-0.007057513419005242   -0.006927205920462104   -0.001706337731040747
-0.004504423487143484   -0.006701526067467693   -0.0014047718508635428
-0.00240494877739374   -0.002232328699145606   -0.0009304939640055758
-0.004509419244714983   -0.006815885990483422   -0.0012652915283551224
-0.003955605543196021   -0.0026455027896771202   -0.0010168600443786974
-0.0023572140463366856   -0.0023441497855905815   -0.0007796162269432753
-0.004509419244714983   -0.006815885990483422   -0.0012652915283551224
-0.00240494877739374   -0.002232328699145606   -0.0009304939640055758
-0.003955605543196021   -0.0026455027896771202   -0.0010168600443786974
-0.004509419244714983   -0.006815885990483422   -0.0012652915283551224
-0.00726852868196762   -0.00708681730850814   -0.0014798931605893141
-0.007057513419005242   -0.006927205920462104   -0.001706337731040747
-0.003955605543196021   -0.0026455027896771202   -0.0010168600443786974
-0.004509419244714983   -0.006815885990483422   -0.0012652915283551224
-0.007057513419005242   -0.006927205920462104   -0.001706337731040747
-0.00240494877739374   -0.002232328699145606   -0.0009304939640055758
-0.003955605543196021   -0.0026455027896771202   -0.0010168600443786974
-0.00726852868196762   -0.00708681730850814   -0.0014798931605893141
-0.0023572140463366856   -0.0023441497855905815   -0.0007796162269432753
-0.004078933056799168   -0.0027243575465413215   -0.0007777720709805269
-0.00726852868196762   -0.00708681730850814   -0.0014798931605893141
-0.004509419244714983   -0.006815885990483422   -0.0012652915283551224
-0.0023572140463366856   -0.0023441497855905815   -0.0007796162269432753
-0.004526828929084487   -0.006885630939354421   -0.0011312779806451603
-0.004078933056799168   -0.0027243575465413215   -0.0007777720709805269
-0.002363675140608147   -0.0024014760923830284   -0.0006289771087946719
-0.004526828929084487   -0.006885630939354421   -0.0011312779806451603
-0.0023572140463366856   -0.0023441497855905815   -0.0007796162269432753
-0.004078933056799168   -0.0027243575465413215   -0.0007777720709805269
-0.004526828929084487   -0.006885630939354421   -0.0011312779806451603
-0.007415002937055404   -0.007176987968509795   -0.0012581947075006859
-0.00726852868196762   -0.00708681730850814   -0.0014798931605893141
-0.004078933056799168   -0.0027243575465413215   -0.0007777720709805269
-0.004526828929084487   -0.006885630939354421   -0.0011312779806451603
-0.00726852868196762   -0.00708681730850814   -0.0014798931605893141
-0.0023572140463366856   -0.0023441497855905815   -0.0007796162269432753
-0.004078933056799168   -0.0027243575465413215   -0.0007777720709805269
-0.007415002937055404   -0.007176987968509795   -0.0012581947075006859
-0.002363675140608147   -0.0024014760923830284   -0.0006289771087946719
-0.00434479974299616   -0.0027841489714486374   -0.0005004222911998594
-0.007415002937055404   -0.007176987968509795   -0.0012581947075006859
-0.004526828929084487   -0.006885630939354421   -0.0011312779806451603
-0.002363675140608147   -0.0024014760923830284   -0.0006289771087946719
-0.004512978966128465   -0.006921874148593664   -0.001005858035181164
-0.00434479974299616   -0.0027841489714486374   -0.0005004222911998594
-0.002362222315512339   -0.0024162361022446468   -0.00047324080520839946
-0.004512978966128465   -0.006921874148593664   -0.001005858035181164
-0.002363675140608147   -0.0024014760923830284   -0.0006289771087946719
-0.00434479974299616   -0.0027841489714486374   -0.0005004222911998594
-0.004512978966128465   -0.006921874148593664   -0.001005858035181164
-0.007588114742744196   -0.0072295075624619854   -0.0010565376633151244
-0.007415002937055404   -0.007176987968509795   -0.0012581947075006859
-0.00434479974299616   -0.0027841489714486374   -0.0005004222911998594
-0.004512978966128465   -0.006921874148593664   -0.001005858035181164
-0.007415002937055404   -0.007176987968509795   -0.0012581947075006859
-0.002363675140608147   -0.0024014760923830284   -0.0006289771087946719
-0.00240494877739374   -0.002232328699145606   -0.0009304939640055758
-0.004504423487143484   -0.006701526067467693   -0.0014047718508635428
-0.0010954425443421895   -0.002140299664144053   -0.0007078329525140145
-0.0023572140463366856   -0.0023441497855905815   -0.0007796162269432753
-0.004504423487143484   -0.006701526067467693   -0.0014047718508635428
-0.0020906043215515005   -0.006596511541946625   -0.001198945296463866
-0.0010954425443421895   -0.002140299664144053   -0.0007078329525140145
-0.002072238040100894   -0.006669261314133757   -0.001127438303549311
-0.0023572140463366856   -0.0023441497855905815   -0.0007796162269432753
-0.001053399209359534   -0.002213060147117738   -0.0006365825703826384
-0.002072238040100894   -0.006669261314133757   -0.001127438303549311
-0.0010954425443421895   -0.002140299664144053   -0.0007078329525140145
-0.0023572140463366856   -0.0023441497855905815   -0.0007796162269432753
-0.002072238040100894   -0.006669261314133757   -0.001127438303549311
-0.004509419244714983   -0.006815885990483422   -0.0012652915283551224
-0.004504423487143484   -0.006701526067467693   -0.0014047718508635428
-0.0023572140463366856   -0.0023441497855905815   -0.0007796162269432753
-0.002072238040100894   -0.006669261314133757   -0.001127438303549311
-0.004504423487143484   -0.006701526067467693   -0.0014047718508635428
-0.0010954425443421895   -0.002140299664144053   -0.0007078329525140145
-0.0023572140463366856   -0.0023441497855905815   -0.0007796162269432753
-0.004509419244714983   -0.006815885990483422   -0.0012652915283551224
-0.001053399209359534   -0.002213060147117738   -0.0006365825703826384
-0.002363675140608147   -0.0024014760923830284   -0.0006289771087946719
-0.004509419244714983   -0.006815885990483422   -0.0012652915283551224
-0.002072238040100894   -0.006669261314133757   -0.001127438303549311
-0.001053399209359534   -0.002213060147117738   -0.0006365825703826384
-0.0020559253856182124   -0.00670455655910141   -0.001062630185121639
-0.002363675140608147   -0.0024014760923830284   -0.0006289771087946719
-0.0010297100733796208   -0.0022408014195634623   -0.0005672138194893297
-0.0020559253856182124   -0.00670455655910141   -0.001062630185121639
-0.001053399209359534   -0.002213060147117738   -0.0006365825703826384
-0.002363675140608147   -0.0024014760923830284   -0.0006289771087946719
-0.0020559253856182124   -0.00670455655910141   -0.001062630185121639
-0.004526828929084487   -0.006885630939354421   -0.0011312779806451603
-0.004509419244714983   -0.006815885990483422   -0.0012652915283551224
-0.002363675140608147   -0.0024014760923830284   -0.0006289771087946719
-0.0020559253856182124   -0.00670455655910141   -0.001062630185121639
-0.004509419244714983   -0.006815885990483422   -0.0012652915283551224
-0.001053399209359534   -0.002213060147117738   -0.0006365825703826384
-0.002363675140608147   -0.0024014760923830284   -0.0006289771087946719
-0.004526828929084487   -0.006885630939354421   -0.0011312779806451603
-0.0010297100733796208   -0.0022408014195634623   -0.0005672138194893297
-0.002362222315512339   -0.0024162361022446468   -0.00047324080520839946
-0.004526828929084487   -0.006885630939354421   -0.0011312779806451603
-0.0020559253856182124   -0.00670455655910141   -0.001062630185121639
-0.0010297100733796208   -0.0022408014195634623   -0.0005672138194893297
-0.0020317359484098253   -0.006703726873099727   -0.0010062241182085356
-0.002362222315512339   -0.0024162361022446468   -0.00047324080520839946
-0.0010081084232930041   -0.002229245801775684   -0.0004955209859683223
-0.0020317359484098253   -0.006703726873099727   -0.0010062241182085356
-0.0010297100733796208   -0.0022408014195634623   -0.0005672138194893297
-0.002362222315512339   -0.0024162361022446468   -0.00047324080520839946
-0.0020317359484098253   -0.006703726873099727   -0.0010062241182085356
-0.004512978966128465   -0.006921874148593664   -0.001005858035181164
-0.004526828929084487   -0.006885630939354421   -0.0011312779806451603
-0.002362222315512339   -0.0024162361022446468   -0.00047324080520839946
-0.0020317359484098253   -0.006703726873099727   -0.0010062241182085356
-0.004526828929084487   -0.006885630939354421   -0.0011312779806451603
-0.0010297100733796208   -0.0022408014195634623   -0.0005672138194893297
-0.0010954425443421895   -0.002140299664144053   -0.0007078329525140145
-0.0020906043215515005   -0.006596511541946625   -0.001198945296463866
0.0001416353163641337   -0.002152120264388522   -0.0005660089706790366
-0.001053399209359534   -0.002213060147117738   -0.0006365825703826384
-0.0020906043215515005   -0.006596511541946625   -0.001198945296463866
0.00023683933462355985   -0.006599658018145267   -0.0010689022541220466
0.0001416353163641337   -0.002152120264388522   -0.0005660089706790366
0.00025935669333185436   -0.006634066501642115   -0.0010641064102935064
-0.001053399209359534   -0.002213060147117738   -0.0006365825703826384
0.00016855803809402869   -0.0021898065109571424   -0.0005758139847744105
0.00025935669333185436   -0.006634066501642115   -0.0010641064102935064
0.0001416353163641337   -0.002152120264388522   -0.0005660089706790366
-0.001053399209359534   -0.002213060147117738   -0.0006365825703826384
0.00025935669333185436   -0.006634066501642115   -0.0010641064102935064
-0.002072238040100894   -0.006669261314133757   -0.001127438303549311
-0.0020906043215515005   -0.006596511541946625   -0.001198945296463866
-0.001053399209359534   -0.002213060147117738   -0.0006365825703826384
0.00025935669333185436   -0.006634066501642115   -0.0010641064102935064
-0.0020906043215515005   -0.006596511541946625   -0.001198945296463866
0.0001416353163641337   -0.002152120264388522   -0.0005660089706790366
-0.001053399209359534   -0.002213060147117738   -0.0006365825703826384
-0.002072238040100894   -0.006669261314133757   -0.001127438303549311
0.00016855803809402869   -0.0021898065109571424   -0.0005758139847744105
-0.0010297100733796208   -0.0022408014195634623   -0.0005672138194893297
-0.002072238040100894   -0.006669261314133757   -0.001127438303549311
0.00025935669333185436   -0.006634066501642115   -0.0010641064102935064
0.00016855803809402869   -0.0021898065109571424   -0.0005758139847744105
0.0002746123339152746   -0.0066318973090453886   -0.0010669124251550882
-0.0010297100733796208   -0.0022408014195634623   -0.0005672138194893297
0.0001898318291795677   -0.0021866593277173095   -0.0005846888651158081
0.0002746123339152746   -0.0066318973090453886   -0.0010669124251550882
0.00016855803809402869   -0.0021898065109571424   -0.0005758139847744105
-0.0010297100733796208   -0.0022408014195634623   -0.0005672138194893297
0.0002746123339152746   -0.0066318973090453886   -0.0010669124251550882
-0.0020559253856182124   -0.00670455655910141   -0.001062630185121639
-0.002072238040100894   -0.006669261314133757   -0.001127438303549311
-0.0010297100733796208   -0.0022408014195634623   -0.0005672138194893297
0.0002746123339152746   -0.0066318973090453886   -0.0010669124251550882
-0.002072238040100894   -0.006669261314133757   -0.001127438303549311
0.00016855803809402869   -0.0021898065109571424   -0.0005758139847744105
-0.0010297100733796208   -0.0022408014195634623   -0.0005672138194893297
-0.0020559253856182124   -0.00670455655910141   -0.001062630185121639
0.0001898318291795677   -0.0021866593277173095   -0.0005846888651158081
-0.0010081084232930041   -0.002229245801775684   -0.0004955209859683223
-0.0020559253856182124   -0.00670455655910141   -0.001062630185121639
0.0002746123339152746   -0.0066318973090453886   -0.0010669124251550882
0.0001898318291795677   -0.0021866593277173095   -0.0005846888651158081
0.0002909547776461821   -0.006592035871228162   -0.0010774400849745723
-0.0010081084232930041   -0.002229245801775684   -0.0004955209859683223
0.00021839385165478602   -0.0021393336651018375   -0.0005938321020111415
0.0002909547776461821   -0.006592035871228162   -0.0010774400849745723
0.0001898318291795677   -0.0021866593277173095   -0.0005846888651158081
-0.0010081084232930041   -0.002229245801775684   -0.0004955209859683223
0.0002909547776461821   -0.006592035871228162   -0.0010774400849745723
-0.0020317359484098253   -0.006703726873099727   -0.0010062241182085356
-0.0020559253856182124   -0.00670455655910141   -0.001062630185121639
-0.0010081084232930041   -0.002229245801775684   -0.0004955209859683223
0.0002909547776461821   -0.006592035871228162   -0.0010774400849745723
-0.0020559253856182124   -0.00670455655910141   -0.001062630185121639
0.0001898318291795677   -0.0021866593277173095   -0.0005846888651158081
0.0001416353163641337   -0.002152120264388522   -0.0005660089706790366
0.00023683933462355985   -0.006599658018145267   -0.0010689022541220466
0.0014846234274069124   -0.002256599552897255   -0.0004959545924714771
0.00016855803809402869   -0.0021898065109571424   -0.0005758139847744105
0.00023683933462355985   -0.006599658018145267   -0.0010689022541220466
0.0027034613445132494   -0.006707067783947852   -0.001008379877822196
0.0014846234274069124   -0.002256599552897255   -0.0004959545924714771
0.0027164015643057304   -0.006706625905492747   -0.001072456217041774
0.00016855803809402869   -0.0021898065109571424   -0.0005758139847744105
0.0014874751376259476   -0.002268538498999682   -0.000591049733455513
0.0027164015643057304   -0.006706625905492747   -0.001072456217041774
0.0014846234274069124   -0.002256599552897255   -0.0004959545924714771
0.00016855803809402869   -0.0021898065109571424   -0.0005758139847744105
0.0027164015643057304   -0.006706625905492747   -0.001072456217041774
0.00025935669333185436   -0.006634066501642115   -0.0010641064102935064
0.00023683933462355985   -0.006599658018145267   -0.0010689022541220466
0.00016855803809402869   -0.0021898065109571424   -0.0005758139847744105
0.0027164015643057304   -0.006706625905492747   -0.001072456217041774
0.00023683933462355985   -0.006599658018145267   -0.0010689022541220466
0.0014846234274069124   -0.002256599552897255   -0.0004959545924714771
0.00016855803809402869   -0.0021898065109571424   -0.0005758139847744105
0.00025935669333185436   -0.006634066501642115   -0.0010641064102935064
0.0014874751376259476   -0.002268538498999682   -0.000591049733455513
0.0001898318291795677   -0.0021866593277173095   -0.0005846888651158081
0.00025935669333185436   -0.006634066501642115   -0.0010641064102935064
0.0027164015643057304   -0.006706625905492747   -0.001072456217041774
0.0014874751376259476   -0.002268538498999682   -0.000591049733455513
0.002704241041242731   -0.0066703275079414495   -0.0011451329389532935
0.0001898318291795677   -0.0021866593277173095   -0.0005846888651158081
0.0014812870225404534   -0.0022361461431227433   -0.000682305901555615
0.002704241041242731   -0.0066703275079414495   -0.0011451329389532935
0.0014874751376259476   -0.002268538498999682   -0.000591049733455513
0.0001898318291795677   -0.0021866593277173095   -0.0005846888651158081
0.002704241041242731   -0.0066703275079414495   -0.0011451329389532935
0.0002746123339152746   -0.0066318973090453886   -0.0010669124251550882
0.00025935669333185436   -0.006634066501642115   -0.0010641064102935064
0.0001898318291795677   -0.0021866593277173095   -0.0005846888651158081
0.002704241041242731   -0.0066703275079414495   -0.0011451329389532935
0.00025935669333185436   -0.006634066501642115   -0.0010641064102935064
0.0014874751376259476   -0.002268538498999682   -0.000591049733455513
0.0001898318291795677   -0.0021866593277173095   -0.0005846888651158081
0.0002746123339152746   -0.0066318973090453886   -0.0010669124251550882
0.0014812870225404534   -0.0022361461431227433   -0.000682305901555615
0.00021839385165478602   -0.0021393336651018375   -0.0005938321020111415
0.0002746123339152746   -0.0066318973090453886   -0.0010669124251550882
0.002704241041242731   -0.0066703275079414495   -0.0011451329389532935
0.0014812870225404534   -0.0022361461431227433   -0.000682305901555615
0.0026974144642764536   -0.006588262992074775   -0.001223719782557445
0.00021839385165478602   -0.0021393336651018375   -0.0005938321020111415
0.0015101504773997409   -0.002149528172059901   -0.0007718477824497837
0.0026974144642764536   -0.006588262992074775   -0.001223719782557445
0.0014812870225404534   -0.0022361461431227433   -0.000682305901555615
0.00021839385165478602   -0.0021393336651018375   -0.0005938321020111415
0.0026974144642764536   -0.006588262992074775   -0.001223719782557445
0.0002909547776461821   -0.006592035871228162   -0.0010774400849745723
0.0002746123339152746   -0.0066318973090453886   -0.0010669124251550882
0.00021839385165478602   -0.0021393336651018375   -0.0005938321020111415
0.0026974144642764536   -0.006588262992074775   -0.001223719782557445
0.0002746123339152746   -0.0066318973090453886   -0.0010669124251550882
0.0014812870225404534   -0.0022361461431227433   -0.000682305901555615
0.0014846234274069124   -0.002256599552897255   -0.0004959545924714771
0.0027034613445132494   -0.006707067783947852   -0.001008379877822196
0.0033528692568298925   -0.002521539558580724   -0.0004681765121045032
0.0014874751376259476   -0.002268538498999682   -0.000591049733455513
0.0027034613445132494   -0.006707067783947852   -0.001008379877822196
0.005680479807617114   -0.00690664641744279   -0.0009923927261951638
0.0033528692568298925   -0.002521539558580724   -0.0004681765121045032
0.005565502220719889   -0.006887624191709862   -0.0011366016069925535
0.0014874751376259476   -0.002268538498999682   -0.000591049733455513
0.0031491604261578137   -0.0024938931644136256   -0.0006838576372669227
0.005565502220719889   -0.006887624191709862   -0.0011366016069925535
0.0033528692568298925   -0.002521539558580724   -0.0004681765121045032
0.0014874751376259476   -0.002268538498999682   -0.000591049733455513
0.005565502220719889   -0.006887624191709862   -0.0011366016069925535
0.0027164015643057304   -0.006706625905492747   -0.001072456217041774
0.0027034613445132494   -0.006707067783947852   -0.001008379877822196
0.0014874751376259476   -0.002268538498999682   -0.000591049733455513
0.005565502220719889   -0.006887624191709862   -0.0011366016069925535
0.0027034613445132494   -0.006707067783947852   -0.001008379877822196
0.0033528692568298925   -0.002521539558580724   -0.0004681765121045032
0.0014874751376259476   -0.002268538498999682   -0.000591049733455513
0.0027164015643057304   -0.006706625905492747   -0.001072456217041774
0.0031491604261578137   -0.0024938931644136256   -0.0006838576372669227
0.0014812870225404534   -0.0022361461431227433   -0.000682305901555615
0.0027164015643057304   -0.006706625905492747   -0.001072456217041774
0.005565502220719889   -0.006887624191709862   -0.0011366016069925535
0.0031491604261578137   -0.0024938931644136256   -0.0006838576372669227
0.00546269843464198   -0.006831686931588033   -0.0012989015183911192
0.0014812870225404534   -0.0022361461431227433   -0.000682305901555615
0.003055304583922166   -0.002442045761559123   -0.0008662671540809727
0.00546269843464198   -0.006831686931588033   -0.0012989015183911192
0.0031491604261578137   -0.0024938931644136256   -0.0006838576372669227
0.0014812870225404534   -0.0022361461431227433   -0.000682305901555615
0.00546269843464198   -0.006831686931588033   -0.0012989015183911192
0.002704241041242731   -0.0066703275079414495   -0.0011451329389532935
0.0027164015643057304   -0.006706625905492747   -0.001072456217041774
0.0014812870225404534   -0.0022361461431227433   -0.000682305901555615
0.00546269843464198   -0.006831686931588033   -0.0012989015183911192
0.0027164015643057304   -0.006706625905492747   -0.001072456217041774
0.0031491604261578137   -0.0024938931644136256   -0.0006838576372669227
0.0014812870225404534   -0.0022361461431227433   -0.000682305901555615
0.002704241041242731   -0.0066703275079414495   -0.0011451329389532935
0.003055304583922166   -0.002442045761559123   -0.0008662671540809727
0.0015101504773997409   -0.002149528172059901   -0.0007718477824497837
0.002704241041242731   -0.0066703275079414495   -0.0011451329389532935
0.00546269843464198   -0.006831686931588033   -0.0012989015183911192
0.003055304583922166   -0.002442045761559123   -0.0008662671540809727
0.005308399741786084   -0.006707365719409506   -0.001467891132407661
0.0015101504773997409   -0.002149528172059901   -0.0007718477824497837
0.002915452059821521   -0.0023094794243232976   -0.001059348020553994
0.005308399741786084   -0.006707365719409506   -0.001467891132407661
0.003055304583922166   -0.002442045761559123   -0.0008662671540809727
0.0015101504773997409   -0.002149528172059901   -0.0007718477824497837
0.005308399741786084   -0.006707365719409506   -0.001467891132407661
0.0026974144642764536   -0.006588262992074775   -0.001223719782557445
0.002704241041242731   -0.0066703275079414495   -0.0011451329389532935
0.0015101504773997409   -0.002149528172059901   -0.0007718477824497837
0.005308399741786084   -0.006707365719409506   -0.001467891132407661
0.002704241041242731   -0.0066703275079414495   -0.0011451329389532935
0.003055304583922166   -0.002442045761559123   -0.0008662671540809727
-0.007057513419005242   -0.006927205920462104   -0.001706337731040747
-0.009666851153793038   -0.012984610765050838   -0.0019438876430785015
-0.004504423487143484   -0.006701526067467693   -0.0014047718508635428
-0.00726852868196762   -0.00708681730850814   -0.0014798931605893141
-0.009666851153793038   -0.012984610765050838   -0.0019438876430785015
-0.006215468590834003   -0.012812251993396825   -0.0016994962745173097
-0.004504423487143484   -0.006701526067467693   -0.0014047718508635428
-0.006228687637097808   -0.012910890293042812   -0.0015913455511366323
-0.00726852868196762   -0.00708681730850814   -0.0014798931605893141
-0.004509419244714983   -0.006815885990483422   -0.0012652915283551224
-0.006228687637097808   -0.012910890293042812   -0.0015913455511366323
-0.004504423487143484   -0.006701526067467693   -0.0014047718508635428
-0.00726852868196762   -0.00708681730850814   -0.0014798931605893141
-0.006228687637097808   -0.012910890293042812   -0.0015913455511366323
-0.00983818594456039   -0.013119440185643204   -0.0017751577972806053
-0.009666851153793038   -0.012984610765050838   -0.0019438876430785015
-0.00726852868196762   -0.00708681730850814   -0.0014798931605893141
-0.006228687637097808   -0.012910890293042812   -0.0015913455511366323
-0.009666851153793038   -0.012984610765050838   -0.0019438876430785015
-0.004504423487143484   -0.006701526067467693   -0.0014047718508635428
-0.00726852868196762   -0.00708681730850814   -0.0014798931605893141
-0.00983818594456039   -0.013119440185643204   -0.0017751577972806053
-0.004509419244714983   -0.006815885990483422   -0.0012652915283551224
-0.007415002937055404   -0.007176987968509795   -0.0012581947075006859
-0.00983818594456039   -0.013119440185643204   -0.0017751577972806053
-0.006228687637097808   -0.012910890293042812   -0.0015913455511366323
-0.004509419244714983   -0.006815885990483422   -0.0012652915283551224
-0.006244303961185416   -0.012979571326757307   -0.0014910367682305766
-0.007415002937055404   -0.007176987968509795   -0.0012581947075006859
-0.004526828929084487   -0.006885630939354421   -0.0011312779806451603
-0.006244303961185416   -0.012979571326757307   -0.0014910367682305766
-0.004509419244714983   -0.006815885990483422   -0.0012652915283551224
-0.007415002937055404   -0.007176987968509795   -0.0012581947075006859
-0.006244303961185416   -0.012979571326757307   -0.0014910367682305766
-0.009946009922521896   -0.013204030044106474   -0.0016179216575979726
-0.00983818594456039   -0.013119440185643204   -0.0017751577972806053
-0.007415002937055404   -0.007176987968509795   -0.0012581947075006859
-0.006244303961185416   -0.012979571326757307   -0.0014910367682305766
-0.00983818594456039   -0.013119440185643204   -0.0017751577972806053
-0.004509419244714983   -0.006815885990483422   -0.0012652915283551224
-0.007415002937055404   -0.007176987968509795   -0.0012581947075006859
-0.009946009922521896   -0.013204030044106474   -0.0016179216575979726
-0.004526828929084487   -0.006885630939354421   -0.0011312779806451603
-0.007588114742744196   -0.0072295075624619854   -0.0010565376633151244
-0.009946009922521896   -0.013204030044106474   -0.0016179216575979726
-0.006244303961185416   -0.012979571326757307   -0.0014910367682305766
-0.004526828929084487   -0.006885630939354421   -0.0011312779806451603
-0.006232166278527108   -0.013024814522644788   -0.0013968982112965787
-0.007588114742744196   -0.0072295075624619854   -0.0010565376633151244
-0.004512978966128465   -0.006921874148593664   -0.001005858035181164
-0.006232166278527108   -0.013024814522644788   -0.0013968982112965787
-0.004526828929084487   -0.006885630939354421   -0.0011312779806451603
-0.007588114742744196   -0.0072295075624619854   -0.0010565376633151244
-0.006232166278527108   -0.013024814522644788   -0.0013968982112965787
-0.010068691429450202   -0.01326495856442738   -0.0014732544609063535
-0.009946009922521896   -0.013204030044106474   -0.0016179216575979726
-0.007588114742744196   -0.0072295075624619854   -0.0010565376633151244
-0.006232166278527108   -0.013024814522644788   -0.0013968982112965787
-0.009946009922521896   -0.013204030044106474   -0.0016179216575979726
-0.004526828929084487   -0.006885630939354421   -0.0011312779806451603
-0.004504423487143484   -0.006701526067467693   -0.0014047718508635428
-0.006215468590834003   -0.012812251993396825   -0.0016994962745173097
-0.0020906043215515005   -0.006596511541946625   -0.001198945296463866
-0.004509419244714983   -0.006815885990483422   -0.0012652915283551224
-0.006215468590834003   -0.012812251993396825   -0.0016994962745173097
-0.0029618842273290476   -0.012726277011739298   -0.0015297238130586033
-0.0020906043215515005   -0.006596511541946625   -0.001198945296463866
-0.0029540623830566102   -0.012789314898438708   -0.0014685603988066915
-0.004509419244714983   -0.006815885990483422   -0.0012652915283551224
-0.002072238040100894   -0.006669261314133757   -0.001127438303549311
-0.0029540623830566102   -0.012789314898438708   -0.0014685603988066915
-0.0020906043215515005   -0.006596511541946625   -0.001198945296463866
-0.004509419244714983   -0.006815885990483422   -0.0012652915283551224
-0.0029540623830566102   -0.012789314898438708   -0.0014685603988066915
-0.006228687637097808   -0.012910890293042812   -0.0015913455511366323
-0.006215468590834003   -0.012812251993396825   -0.0016994962745173097
-0.004509419244714983   -0.006815885990483422   -0.0012652915283551224
-0.0029540623830566102   -0.012789314898438708   -0.0014685603988066915
-0.006215468590834003   -0.012812251993396825   -0.0016994962745173097
-0.0020906043215515005   -0.006596511541946625   -0.001198945296463866
-0.004509419244714983   -0.006815885990483422   -0.0012652915283551224
-0.006228687637097808   -0.012910890293042812   -0.0015913455511366323
-0.002072238040100894   -0.006669261314133757   -0.001127438303549311
-0.004526828929084487   -0.006885630939354421   -0.0011312779806451603
-0.006228687637097808   -0.012910890293042812   -0.0015913455511366323
-0.0029540623830566102   -0.012789314898438708   -0.0014685603988066915
-0.002072238040100894   -0.006669261314133757   -0.001127438303549311
-0.0029445745135787426   -0.012826357775239336   -0.0014148617063451205
-0.004526828929084487   -0.006885630939354421   -0.0011312779806451603
-0.0020559253856182124   -0.00670455655910141   -0.001062630185121639
-0.0029445745135787426   -0.012826357775239336   -0.0014148617063451205
-0.002072238040100894   -0.006669261314133757   -0.001127438303549311
-0.004526828929084487   -0.006885630939354421   -0.0011312779806451603
-0.0029445745135787426   -0.012826357775239336   -0.0014148617063451205
-0.006244303961185416   -0.012979571326757307   -0.0014910367682305766
-0.006228687637097808   -0.012910890293042812   -0.0015913455511366323
-0.004526828929084487   -0.006885630939354421   -0.0011312779806451603
-0.0029445745135787426   -0.012826357775239336   -0.0014148617063451205
-0.006228687637097808   -0.012910890293042812   -0.0015913455511366323
-0.002072238040100894   -0.006669261314133757   -0.001127438303549311
-0.004526828929084487   -0.006885630939354421   -0.0011312779806451603
-0.006244303961185416   -0.012979571326757307   -0.0014910367682305766
-0.0020559253856182124   -0.00670455655910141   -0.001062630185121639
-0.004512978966128465   -0.006921874148593664   -0.001005858035181164
-0.006244303961185416   -0.012979571326757307   -0.0014910367682305766
-0.0029445745135787426   -0.012826357775239336   -0.0014148617063451205
-0.0020559253856182124   -0.00670455655910141   -0.001062630185121639
-0.0029292303308388347   -0.012837935115905216   -0.0013686067183551344
-0.004512978966128465   -0.006921874148593664   -0.001005858035181164
-0.0020317359484098253   -0.006703726873099727   -0.0010062241182085356
-0.0029292303308388347   -0.012837935115905216   -0.0013686067183551344
-0.0020559253856182124   -0.00670455655910141   -0.001062630185121639
-0.004512978966128465   -0.006921874148593664   -0.001005858035181164
-0.0029292303308388347   -0.012837935115905216   -0.0013686067183551344
-0.006232166278527108   -0.013024814522644788   -0.0013968982112965787
-0.006244303961185416   -0.012979571326757307   -0.0014910367682305766
-0.004512978966128465   -0.006921874148593664   -0.001005858035181164
-0.0029292303308388347   -0.012837935115905216   -0.0013686067183551344
-0.006244303961185416   -0.012979571326757307   -0.0014910367682305766
-0.0020559253856182124   -0.00670455655910141   -0.001062630185121639
-0.0020906043215515005   -0.006596511541946625   -0.001198945296463866
-0.0029618842273290476   -0.012726277011739298   -0.0015297238130586033
0.00023683933462355985   -0.006599658018145267   -0.0010689022541220466
-0.002072238040100894   -0.006669261314133757   -0.001127438303549311
-0.0029618842273290476   -0.012726277011739298   -0.0015297238130586033
0.0001959709815021292   -0.012721693497565655   -0.0014245572322613355
0.00023683933462355985   -0.006599658018145267   -0.0010689022541220466
0.0002100326231894523   -0.012749678602808252   -0.0014101320741285086
-0.002072238040100894   -0.006669261314133757   -0.001127438303549311
0.00025935669333185436   -0.006634066501642115   -0.0010641064102935064
0.0002100326231894523   -0.012749678602808252   -0.0014101320741285086
0.00023683933462355985   -0.006599658018145267   -0.0010689022541220466
-0.002072238040100894   -0.006669261314133757   -0.001127438303549311
0.0002100326231894523   -0.012749678602808252   -0.0014101320741285086
-0.0029540623830566102   -0.012789314898438708   -0.0014685603988066915
-0.0029618842273290476   -0.012726277011739298   -0.0015297238130586033
-0.002072238040100894   -0.006669261314133757   -0.001127438303549311
0.0002100326231894523   -0.012749678602808252   -0.0014101320741285086
-0.0029618842273290476   -0.012726277011739298   -0.0015297238130586033
0.00023683933462355985   -0.006599658018145267   -0.0010689022541220466
-0.002072238040100894   -0.006669261314133757   -0.001127438303549311
-0.0029540623830566102   -0.012789314898438708   -0.0014685603988066915
0.00025935669333185436   -0.006634066501642115   -0.0010641064102935064
-0.0020559253856182124   -0.00670455655910141   -0.001062630185121639
-0.0029540623830566102   -0.012789314898438708   -0.0014685603988066915
0.0002100326231894523   -0.012749678602808252   -0.0014101320741285086
0.00025935669333185436   -0.006634066501642115   -0.0010641064102935064
0.00021919147739346515   -0.01275177220380708   -0.0014029780619391574
-0.0020559253856182124   -0.00670455655910141   -0.001062630185121639
0.0002746123339152746   -0.0066318973090453886   -0.0010669124251550882
0.00021919147739346515   -0.01275177220380708   -0.0014029780619391574
0.00025935669333185436   -0.006634066501642115   -0.0010641064102935064
-0.0020559253856182124   -0.00670455655910141   -0.001062630185121639
0.00021919147739346515   -0.01275177220380708   -0.0014029780619391574
-0.0029445745135787426   -0.012826357775239336   -0.0014148617063451205
-0.0029540623830566102   -0.012789314898438708   -0.0014685603988066915
-0.0020559253856182124   -0.00670455655910141   -0.001062630185121639
0.00021919147739346515   -0.01275177220380708   -0.0014029780619391574
-0.0029540623830566102   -0.012789314898438708   -0.0014685603988066915
0.00025935669333185436   -0.006634066501642115   -0.0010641064102935064
-0.0020559253856182124   -0.00670455655910141   -0.001062630185121639
-0.0029445745135787426   -0.012826357775239336   -0.0014148617063451205
0.0002746123339152746   -0.0066318973090453886   -0.0010669124251550882
-0.0020317359484098253   -0.006703726873099727   -0.0010062241182085356
-0.0029445745135787426   -0.012826357775239336   -0.0014148617063451205
0.00021919147739346515   -0.01275177220380708   -0.0014029780619391574
0.0002746123339152746   -0.0066318973090453886   -0.0010669124251550882
0.00022593304171421422   -0.012727588849158257   -0.0014035354886413535
-0.0020317359484098253   -0.006703726873099727   -0.0010062241182085356
0.0002909547776461821   -0.006592035871228162   -0.0010774400849745723
0.00022593304171421422   -0.012727588849158257   -0.0014035354886413535
0.0002746123339152746   -0.0066318973090453886   -0.0010669124251550882
-0.0020317359484098253   -0.006703726873099727   -0.0010062241182085356
0.00022593304171421422   -0.012727588849158257   -0.0014035354886413535
-0.0029292303308388347   -0.012837935115905216   -0.0013686067183551344
-0.0029445745135787426   -0.012826357775239336   -0.0014148617063451205
-0.0020317359484098253   -0.006703726873099727   -0.0010062241182085356
0.00022593304171421422   -0.012727588849158257   -0.0014035354886413535
-0.0029445745135787426   -0.012826357775239336   -0.0014148617063451205
0.0002746123339152746   -0.0066318973090453886   -0.0010669124251550882
0.00023683933462355985   -0.006599658018145267   -0.0010689022541220466
0.0001959709815021292   -0.012721693497565655   -0.0014245572322613355
0.0027034613445132494   -0.006707067783947852   -0.001008379877822196
0.00025935669333185436   -0.006634066501642115   -0.0010641064102935064
0.0001959709815021292   -0.012721693497565655   -0.0014245572322613355
0.0034887216831641778   -0.012793659643684185   -0.0013822119516400193
0.0027034613445132494   -0.006707067783947852   -0.001008379877822196
0.0035010970590960513   -0.012789500894576006   -0.0014154922837476423
0.00025935669333185436   -0.006634066501642115   -0.0010641064102935064
0.0027164015643057304   -0.006706625905492747   -0.001072456217041774
0.0035010970590960513   -0.012789500894576006   -0.0014154922837476423
0.0027034613445132494   -0.006707067783947852   -0.001008379877822196
0.00025935669333185436   -0.006634066501642115   -0.0010641064102935064
0.0035010970590960513   -0.012789500894576006   -0.0014154922837476423
0.0002100326231894523   -0.012749678602808252   -0.0014101320741285086
0.0001959709815021292   -0.012721693497565655   -0.0014245572322613355
0.00025935669333185436   -0.006634066501642115   -0.0010641064102935064
0.0035010970590960513   -0.012789500894576006   -0.0014154922837476423
0.0001959709815021292   -0.012721693497565655   -0.0014245572322613355
0.0027034613445132494   -0.006707067783947852   -0.001008379877822196
0.00025935669333185436   -0.006634066501642115   -0.0010641064102935064
0.0002100326231894523   -0.012749678602808252   -0.0014101320741285086
0.0027164015643057304   -0.006706625905492747   -0.001072456217041774
0.0002746123339152746   -0.0066318973090453886   -0.0010669124251550882
0.0002100326231894523   -0.012749678602808252   -0.0014101320741285086
0.0035010970590960513   -0.012789500894576006   -0.0014154922837476423
0.0027164015643057304   -0.006706625905492747   -0.001072456217041774
0.0034927055785131515   -0.012760020651108319   -0.00145550948798452
0.0002746123339152746   -0.0066318973090453886   -0.0010669124251550882
0.002704241041242731   -0.0066703275079414495   -0.0011451329389532935
0.0034927055785131515   -0.012760020651108319   -0.00145550948798452
0.0027164015643057304   -0.006706625905492747   -0.001072456217041774
0.0002746123339152746   -0.0066318973090453886   -0.0010669124251550882
0.0034927055785131515   -0.012760020651108319   -0.00145550948798452
0.00021919147739346515   -0.01275177220380708   -0.0014029780619391574
0.0002100326231894523   -0.012749678602808252   -0.0014101320741285086
0.0002746123339152746   -0.0066318973090453886   -0.0010669124251550882
0.0034927055785131515   -0.012760020651108319   -0.00145550948798452
0.0002100326231894523   -0.012749678602808252   -0.0014101320741285086
0.0027164015643057304   -0.006706625905492747   -0.001072456217041774
0.0002746123339152746   -0.0066318973090453886   -0.0010669124251550882
0.00021919147739346515   -0.01275177220380708   -0.0014029780619391574
0.002704241041242731   -0.0066703275079414495   -0.0011451329389532935
0.0002909547776461821   -0.006592035871228162   -0.0010774400849745723
0.00021919147739346515   -0.01275177220380708   -0.0014029780619391574
0.0034927055785131515   -0.012760020651108319   -0.00145550948798452
0.002704241041242731   -0.0066703275079414495   -0.0011451329389532935
0.0034798689235592123   -0.01269893248004823   -0.0015030630123223222
0.0002909547776461821   -0.006592035871228162   -0.0010774400849745723
0.0026974144642764536   -0.006588262992074775   -0.001223719782557445
0.0034798689235592123   -0.01269893248004823   -0.0015030630123223222
0.002704241041242731   -0.0066703275079414495   -0.0011451329389532935
0.0002909547776461821   -0.006592035871228162   -0.0010774400849745723
0.0034798689235592123   -0.01269893248004823   -0.0015030630123223222
0.00022593304171421422   -0.012727588849158257   -0.0014035354886413535
0.00021919147739346515   -0.01275177220380708   -0.0014029780619391574
0.0002909547776461821   -0.006592035871228162   -0.0010774400849745723
0.0034798689235592123   -0.01269893248004823   -0.0015030630123223222
0.00021919147739346515   -0.01275177220380708   -0.0014029780619391574
0.002704241041242731   -0.0066703275079414495   -0.0011451329389532935
0.0027034613445132494   -0.006707067783947852   -0.001008379877822196
0.0034887216831641778   -0.012793659643684185   -0.0013822119516400193
0.005680479807617114   -0.00690664641744279   -0.0009923927261951638
0.0027164015643057304   -0.006706625905492747   -0.001072456217041774
0.0034887216831641778   -0.012793659643684185   -0.0013822119516400193
0.007238918687594293   -0.012924095042330028   -0.001383428240245281
0.005680479807617114   -0.00690664641744279   -0.0009923927261951638
0.007176663365238217   -0.012901391532669029   -0.0014705059827049127
0.0027164015643057304   -0.006706625905492747   -0.001072456217041774
0.005565502220719889   -0.006887624191709862   -0.0011366016069925535
0.007176663365238217   -0.012901391532669029   -0.0014705059827049127
0.005680479807617114   -0.00690664641744279   -0.0009923927261951638
0.0027164015643057304   -0.006706625905492747   -0.001072456217041774
0.007176663365238217   -0.012901391532669029   -0.0014705059827049127
0.0035010970590960513   -0.012789500894576006   -0.0014154922837476423
0.0034887216831641778   -0.012793659643684185   -0.0013822119516400193
0.0027164015643057304   -0.006706625905492747   -0.001072456217041774
0.007176663365238217   -0.012901391532669029   -0.0014705059827049127
0.0034887216831641778   -0.012793659643684185   -0.0013822119516400193
0.005680479807617114   -0.00690664641744279   -0.0009923927261951638
0.0027164015643057304   -0.006706625905492747   -0.001072456217041774
0.0035010970590960513   -0.012789500894576006   -0.0014154922837476423
0.005565502220719889   -0.006887624191709862   -0.0011366016069925535
0.002704241041242731   -0.0066703275079414495   -0.0011451329389532935
0.0035010970590960513   -0.012789500894576006   -0.0014154922837476423
0.007176663365238217   -0.012901391532669029   -0.0014705059827049127
0.005565502220719889   -0.006887624191709862   -0.0011366016069925535
0.00711441859740664   -0.012856031589736461   -0.0015697323718266338
0.002704241041242731   -0.0066703275079414495   -0.0011451329389532935
0.00546269843464198   -0.006831686931588033   -0.0012989015183911192
0.00711441859740664   -0.012856031589736461   -0.0015697323718266338
0.005565502220719889   -0.006887624191709862   -0.0011366016069925535
0.002704241041242731   -0.0066703275079414495   -0.0011451329389532935
0.00711441859740664   -0.012856031589736461   -0.0015697323718266338
0.0034927055785131515   -0.012760020651108319   -0.00145550948798452
0.0035010970590960513   -0.012789500894576006   -0.0014154922837476423
0.002704241041242731   -0.0066703275079414495   -0.0011451329389532935
0.00711441859740664   -0.012856031589736461   -0.0015697323718266338
0.0035010970590960513   -0.012789500894576006   -0.0014154922837476423
0.005565502220719889   -0.006887624191709862   -0.0011366016069925535
0.002704241041242731   -0.0066703275079414495   -0.0011451329389532935
0.0034927055785131515   -0.012760020651108319   -0.00145550948798452
0.00546269843464198   -0.006831686931588033   -0.0012989015183911192
0.0026974144642764536   -0.006588262992074775   -0.001223719782557445
0.0034927055785131515   -0.012760020651108319   -0.00145550948798452
0.00711441859740664   -0.012856031589736461   -0.0015697323718266338
0.00546269843464198   -0.006831686931588033   -0.0012989015183911192
0.007003371753306961   -0.0127610423245035   -0.0016811205064511986
0.0026974144642764536   -0.006588262992074775   -0.001223719782557445
0.005308399741786084   -0.006707365719409506   -0.001467891132407661
0.007003371753306961   -0.0127610423245035   -0.0016811205064511986
0.00546269843464198   -0.006831686931588033   -0.0012989015183911192
0.0026974144642764536   -0.006588262992074775   -0.001223719782557445
0.007003371753306961   -0.0127610423245035   -0.0016811205064511986
0.0034798689235592123   -0.01269893248004823   -0.0015030630123223222
0.0034927055785131515   -0.012760020651108319   -0.00145550948798452
0.0026974144642764536   -0.006588262992074775   -0.001223719782557445
0.007003371753306961   -0.0127610423245035   -0.0016811205064511986
0.0034927055785131515   -0.012760020651108319   -0.00145550948798452
0.00546269843464198   -0.006831686931588033   -0.0012989015183911192
-0.009666851153793038   -0.012984610765050838   -0.0019438876430785015
-0.011540543188696965   -0.020163332964276224   -0.0020736286659848303
-0.006215468590834003   -0.012812251993396825   -0.0016994962745173097
-0.00983818594456039   -0.013119440185643204   -0.0017751577972806053
-0.011540543188696965   -0.020163332964276224   -0.0020736286659848303
-0.007491821703089805   -0.020053770693175578   -0.0018745478799552142
-0.006215468590834003   -0.012812251993396825   -0.0016994962745173097
-0.007500383697796952   -0.02013854863130009   -0.0017971877588954285
-0.00983818594456039   -0.013119440185643204   -0.0017751577972806053
-0.006228687637097808   -0.012910890293042812   -0.0015913455511366323
-0.007500383697796952   -0.02013854863130009   -0.0017971877588954285
-0.006215468590834003   -0.012812251993396825   -0.0016994962745173097
-0.00983818594456039   -0.013119440185643204   -0.0017751577972806053
-0.007500383697796952   -0.02013854863130009   -0.0017971877588954285
-0.011655702113305163   -0.020278049038783164   -0.001961711390267597
-0.011540543188696965   -0.020163332964276224   -0.0020736286659848303
-0.00983818594456039   -0.013119440185643204   -0.0017751577972806053
-0.007500383697796952   -0.02013854863130009   -0.0017971877588954285
-0.011540543188696965   -0.020163332964276224   -0.0020736286659848303
-0.006215468590834003   -0.012812251993396825   -0.0016994962745173097
-0.00983818594456039   -0.013119440185643204   -0.0017751577972806053
-0.011655702113305163   -0.020278049038783164   -0.001961711390267597
-0.006228687637097808   -0.012910890293042812   -0.0015913455511366323
-0.009946009922521896   -0.013204030044106474   -0.0016179216575979726
-0.011655702113305163   -0.020278049038783164   -0.001961711390267597
-0.007500383697796952   -0.02013854863130009   -0.0017971877588954285
-0.006228687637097808   -0.012910890293042812   -0.0015913455511366323
-0.007506348303972887   -0.020205800429299106   -0.0017275445658745405
-0.009946009922521896   -0.013204030044106474   -0.0016179216575979726
-0.006244303961185416   -0.012979571326757307   -0.0014910367682305766
-0.007506348303972887   -0.020205800429299106   -0.0017275445658745405
-0.006228687637097808   -0.012910890293042812   -0.0015913455511366323
-0.009946009922521896   -0.013204030044106474   -0.0016179216575979726
-0.007506348303972887   -0.020205800429299106   -0.0017275445658745405
-0.011721557072821763   -0.020359262020510322   -0.001860552795258833
-0.011655702113305163   -0.020278049038783164   -0.001961711390267597
-0.009946009922521896   -0.013204030044106474   -0.0016179216575979726
-0.007506348303972887   -0.020205800429299106   -0.0017275445658745405
-0.011655702113305163   -0.020278049038783164   -0.001961711390267597
-0.006228687637097808   -0.012910890293042812   -0.0015913455511366323
-0.009946009922521896   -0.013204030044106474   -0.0016179216575979726
-0.011721557072821763   -0.020359262020510322   -0.001860552795258833
-0.006244303961185416   -0.012979571326757307   -0.0014910367682305766
-0.010068691429450202   -0.01326495856442738   -0.0014732544609063535
-0.011721557072821763   -0.020359262020510322   -0.001860552795258833
-0.007506348303972887   -0.020205800429299106   -0.0017275445658745405
-0.006244303961185416   -0.012979571326757307   -0.0014910367682305766
-0.0074903626500900915   -0.020261107699875897   -0.0016645896139334156
-0.010068691429450202   -0.01326495856442738   -0.0014732544609063535
-0.006232166278527108   -0.013024814522644788   -0.0013968982112965787
-0.0074903626500900915   -0.020261107699875897   -0.0016645896139334156
-0.006244303961185416   -0.012979571326757307   -0.0014910367682305766
-0.010068691429450202   -0.01326495856442738   -0.0014732544609063535
-0.0074903626500900915   -0.020261107699875897   -0.0016645896139334156
-0.01178935344475024   -0.02043214404058625   -0.0017714343613869602
-0.011721557072821763   -0.020359262020510322   -0.001860552795258833
-0.010068691429450202   -0.01326495856442738   -0.0014732544609063535
-0.0074903626500900915   -0.020261107699875897   -0.0016645896139334156
-0.011721557072821763   -0.020359262020510322   -0.001860552795258833
-0.006244303961185416   -0.012979571326757307   -0.0014910367682305766
-0.006215468590834003   -0.012812251993396825   -0.0016994962745173097
-0.007491821703089805   -0.020053770693175578   -0.0018745478799552142
-0.0029618842273290476   -0.012726277011739298   -0.0015297238130586033
-0.006228687637097808   -0.012910890293042812   -0.0015913455511366323
-0.007491821703089805   -0.020053770693175578   -0.0018745478799552142
-0.0036966298662827702   -0.019997070784298115   -0.0017367106407103537
-0.0029618842273290476   -0.012726277011739298   -0.0015297238130586033
-0.0036891703609508194   -0.020050233781069005   -0.0016855824475838538
-0.006228687637097808   -0.012910890293042812   -0.0015913455511366323
-0.0029540623830566102   -0.012789314898438708   -0.0014685603988066915
-0.0036891703609508194   -0.020050233781069005   -0.0016855824475838538
-0.0029618842273290476   -0.012726277011739298   -0.0015297238130586033
-0.006228687637097808   -0.012910890293042812   -0.0015913455511366323
-0.0036891703609508194   -0.020050233781069005   -0.0016855824475838538
-0.007500383697796952   -0.02013854863130009   -0.0017971877588954285
-0.007491821703089805   -0.020053770693175578   -0.0018745478799552142
-0.006228687637097808   -0.012910890293042812   -0.0015913455511366323
-0.0036891703609508194   -0.020050233781069005   -0.0016855824475838538
-0.007491821703089805   -0.020053770693175578   -0.0018745478799552142
-0.0029618842273290476   -0.012726277011739298   -0.0015297238130586033
-0.006228687637097808   -0.012910890293042812   -0.0015913455511366323
-0.007500383697796952   -0.02013854863130009   -0.0017971877588954285
-0.0029540623830566102   -0.012789314898438708   -0.0014685603988066915
-0.006244303961185416   -0.012979571326757307   -0.0014910367682305766
-0.007500383697796952   -0.02013854863130009   -0.0017971877588954285
-0.0036891703609508194   -0.020050233781069005   -0.0016855824475838538
-0.0029540623830566102   -0.012789314898438708   -0.0014685603988066915
-0.003679146281753229   -0.02008870587808182   -0.0016420528793588288
-0.006244303961185416   -0.012979571326757307   -0.0014910367682305766
-0.0029445745135787426   -0.012826357775239336   -0.0014148617063451205
-0.003679146281753229   -0.02008870587808182   -0.0016420528793588288
-0.0029540623830566102   -0.012789314898438708   -0.0014685603988066915
-0.006244303961185416   -0.012979571326757307   -0.0014910367682305766
-0.003679146281753229   -0.02008870587808182   -0.0016420528793588288
-0.007506348303972887   -0.020205800429299106   -0.0017275445658745405
-0.007500383697796952   -0.02013854863130009   -0.0017971877588954285
-0.006244303961185416   -0.012979571326757307   -0.0014910367682305766
-0.003679146281753229   -0.02008870587808182   -0.0016420528793588288
-0.007500383697796952   -0.02013854863130009   -0.0017971877588954285
-0.0029540623830566102   -0.012789314898438708   -0.0014685603988066915
-0.006244303961185416   -0.012979571326757307   -0.0014910367682305766
-0.007506348303972887   -0.020205800429299106   -0.0017275445658745405
-0.0029445745135787426   -0.012826357775239336   -0.0014148617063451205
-0.006232166278527108   -0.013024814522644788   -0.0013968982112965787
-0.007506348303972887   -0.020205800429299106   -0.0017275445658745405
-0.003679146281753229   -0.02008870587808182   -0.0016420528793588288
-0.0029445745135787426   -0.012826357775239336   -0.0014148617063451205
-0.003664400579096486   -0.020112739748421076   -0.0016062495327436215
-0.006232166278527108   -0.013024814522644788   -0.0013968982112965787
-0.0029292303308388347   -0.012837935115905216   -0.0013686067183551344
-0.003664400579096486   -0.020112739748421076   -0.0016062495327436215
-0.0029445745135787426   -0.012826357775239336   -0.0014148617063451205
-0.006232166278527108   -0.013024814522644788   -0.0013968982112965787
-0.003664400579096486   -0.020112739748421076   -0.0016062495327436215
-0.0074903626500900915   -0.020261107699875897   -0.0016645896139334156
-0.007506348303972887   -0.020205800429299106   -0.0017275445658745405
-0.006232166278527108   -0.013024814522644788   -0.0013968982112965787
-0.003664400579096486   -0.020112739748421076   -0.0016062495327436215
-0.007506348303972887   -0.020205800429299106   -0.0017275445658745405
-0.0029445745135787426   -0.012826357775239336   -0.0014148617063451205
-0.0029618842273290476   -0.012726277011739298   -0.0015297238130586033
-0.0036966298662827702   -0.019997070784298115   -0.0017367106407103537
0.0001959709815021292   -0.012721693497565655   -0.0014245572322613355
-0.0029540623830566102   -0.012789314898438708   -0.0014685603988066915
-0.0036966298662827702   -0.019997070784298115   -0.0017367106407103537
-4.607156927753673e-06   -0.01998727422952246   -0.0016565351197617196
0.0001959709815021292   -0.012721693497565655   -0.0014245572322613355
9.064514576644748e-06   -0.020008637959235926   -0.0016318481995554082
-0.0029540623830566102   -0.012789314898438708   -0.0014685603988066915
0.0002100326231894523   -0.012749678602808252   -0.0014101320741285086
9.064514576644748e-06   -0.020008637959235926   -0.0016318481995554082
0.0001959709815021292   -0.012721693497565655   -0.0014245572322613355
-0.0029540623830566102   -0.012789314898438708   -0.0014685603988066915
9.064514576644748e-06   -0.020008637959235926   -0.0016318481995554082
-0.0036891703609508194   -0.020050233781069005   -0.0016855824475838538
-0.0036966298662827702   -0.019997070784298115   -0.0017367106407103537
-0.0029540623830566102   -0.012789314898438708   -0.0014685603988066915
9.064514576644748e-06   -0.020008637959235926   -0.0016318481995554082
-0.0036966298662827702   -0.019997070784298115   -0.0017367106407103537
0.0001959709815021292   -0.012721693497565655   -0.0014245572322613355
-0.0029540623830566102   -0.012789314898438708   -0.0014685603988066915
-0.0036891703609508194   -0.020050233781069005   -0.0016855824475838538
0.0002100326231894523   -0.012749678602808252   -0.0014101320741285086
-0.0029445745135787426   -0.012826357775239336   -0.0014148617063451205
-0.0036891703609508194   -0.020050233781069005   -0.0016855824475838538
9.064514576644748e-06   -0.020008637959235926   -0.0016318481995554082
0.0002100326231894523   -0.012749678602808252   -0.0014101320741285086
1.892128672075262e-05   -0.0200152089301072   -0.001614665203818495
-0.0029445745135787426   -0.012826357775239336   -0.0014148617063451205
0.00021919147739346515   -0.01275177220380708   -0.0014029780619391574
1.892128672075262e-05   -0.0200152089301072   -0.001614665203818495
0.0002100326231894523   -0.012749678602808252   -0.0014101320741285086
-0.0029445745135787426   -0.012826357775239336   -0.0014148617063451205
1.892128672075262e-05   -0.0200152089301072   -0.001614665203818495
-0.003679146281753229   -0.02008870587808182   -0.0016420528793588288
-0.0036891703609508194   -0.020050233781069005   -0.0016855824475838538
-0.0029445745135787426   -0.012826357775239336   -0.0014148617063451205
1.892128672075262e-05   -0.0200152089301072   -0.001614665203818495
-0.0036891703609508194   -0.020050233781069005   -0.0016855824475838538
0.0002100326231894523   -0.012749678602808252   -0.0014101320741285086
-0.0029445745135787426   -0.012826357775239336   -0.0014148617063451205
-0.003679146281753229   -0.02008870587808182   -0.0016420528793588288
0.00021919147739346515   -0.01275177220380708   -0.0014029780619391574
-0.0029292303308388347   -0.012837935115905216   -0.0013686067183551344
-0.003679146281753229   -0.02008870587808182   -0.0016420528793588288
1.892128672075262e-05   -0.0200152089301072   -0.001614665203818495
0.00021919147739346515   -0.01275177220380708   -0.0014029780619391574
2.5345551771616836e-05   -0.020006783922104945   -0.001605316841398436
-0.0029292303308388347   -0.012837935115905216   -0.0013686067183551344
0.00022593304171421422   -0.012727588849158257   -0.0014035354886413535
2.5345551771616836e-05   -0.020006783922104945   -0.001605316841398436
0.00021919147739346515   -0.01275177220380708   -0.0014029780619391574
-0.0029292303308388347   -0.012837935115905216   -0.0013686067183551344
2.5345551771616836e-05   -0.020006783922104945   -0.001605316841398436
-0.003664400579096486   -0.020112739748421076   -0.0016062495327436215
-0.003679146281753229   -0.02008870587808182   -0.0016420528793588288
-0.0029292303308388347   -0.012837935115905216   -0.0013686067183551344
2.5345551771616836e-05   -0.020006783922104945   -0.001605316841398436
-0.003679146281753229   -0.02008870587808182   -0.0016420528793588288
0.00021919147739346515   -0.01275177220380708   -0.0014029780619391574
0.0001959709815021292   -0.012721693497565655   -0.0014245572322613355
-4.607156927753673e-06   -0.01998727422952246   -0.0016565351197617196
0.0034887216831641778   -0.012793659643684185   -0.0013822119516400193
0.0002100326231894523   -0.012749678602808252   -0.0014101320741285086
-4.607156927753673e-06   -0.01998727422952246   -0.0016565351197617196
0.0038144026762450722   -0.02002036313135516   -0.00163371457931939
0.0034887216831641778   -0.012793659643684185   -0.0013822119516400193
0.00383107009791117   -0.02001176225849633   -0.0016360226987647557
0.0002100326231894523   -0.012749678602808252   -0.0014101320741285086
0.0035010970590960513   -0.012789500894576006   -0.0014154922837476423
0.00383107009791117   -0.02001176225849633   -0.0016360226987647557
0.0034887216831641778   -0.012793659643684185   -0.0013822119516400193
0.0002100326231894523   -0.012749678602808252   -0.0014101320741285086
0.00383107009791117   -0.02001176225849633   -0.0016360226987647557
9.064514576644748e-06   -0.020008637959235926   -0.0016318481995554082
-4.607156927753673e-06   -0.01998727422952246   -0.0016565351197617196
0.0002100326231894523   -0.012749678602808252   -0.0014101320741285086
0.00383107009791117   -0.02001176225849633   -0.0016360226987647557
-4.607156927753673e-06   -0.01998727422952246   -0.0016565351197617196
0.0034887216831641778   -0.012793659643684185   -0.0013822119516400193
0.0002100326231894523   -0.012749678602808252   -0.0014101320741285086
9.064514576644748e-06   -0.020008637959235926   -0.0016318481995554082
0.0035010970590960513   -0.012789500894576006   -0.0014154922837476423
0.00021919147739346515   -0.01275177220380708   -0.0014029780619391574
9.064514576644748e-06   -0.020008637959235926   -0.0016318481995554082
0.00383107009791117   -0.02001176225849633   -0.0016360226987647557
0.0035010970590960513   -0.012789500894576006   -0.0014154922837476423
0.0038328284138285118   -0.019989518136922957   -0.001645429589744597
0.00021919147739346515   -0.01275177220380708   -0.0014029780619391574
0.0034927055785131515   -0.012760020651108319   -0.00145550948798452
0.0038328284138285118   -0.019989518136922957   -0.001645429589744597
0.0035010970590960513   -0.012789500894576006   -0.0014154922837476423
0.00021919147739346515   -0.01275177220380708   -0.0014029780619391574
0.0038328284138285118   -0.019989518136922957   -0.001645429589744597
1.892128672075262e-05   -0.0200152089301072   -0.001614665203818495
9.064514576644748e-06   -0.020008637959235926   -0.0016318481995554082
0.00021919147739346515   -0.01275177220380708   -0.0014029780619391574
0.0038328284138285118   -0.019989518136922957   -0.001645429589744597
9.064514576644748e-06   -0.020008637959235926   -0.0016318481995554082
0.0035010970590960513   -0.012789500894576006   -0.0014154922837476423
0.00021919147739346515   -0.01275177220380708   -0.0014029780619391574
1.892128672075262e-05   -0.0200152089301072   -0.001614665203818495
0.0034927055785131515   -0.012760020651108319   -0.00145550948798452
0.00022593304171421422   -0.012727588849158257   -0.0014035354886413535
1.892128672075262e-05   -0.0200152089301072   -0.001614665203818495
0.0038328284138285118   -0.019989518136922957   -0.001645429589744597
0.0034927055785131515   -0.012760020651108319   -0.00145550948798452
0.0038249679389817082   -0.01994808032031756   -0.001662207181279077
0.00022593304171421422   -0.012727588849158257   -0.0014035354886413535
0.0034798689235592123   -0.01269893248004823   -0.0015030630123223222
0.0038249679389817082   -0.01994808032031756   -0.001662207181279077
0.0034927055785131515   -0.012760020651108319   -0.00145550948798452
0.00022593304171421422   -0.012727588849158257   -0.0014035354886413535
0.0038249679389817082   -0.01994808032031756   -0.001662207181279077
2.5345551771616836e-05   -0.020006783922104945   -0.001605316841398436
1.892128672075262e-05   -0.0200152089301072   -0.001614665203818495
0.00022593304171421422   -0.012727588849158257   -0.0014035354886413535
0.0038249679389817082   -0.01994808032031756   -0.001662207181279077
1.892128672075262e-05   -0.0200152089301072   -0.001614665203818495
0.0034927055785131515   -0.012760020651108319   -0.00145550948798452
0.0034887216831641778   -0.012793659643684185   -0.0013822119516400193
0.0038144026762450722   -0.02002036313135516   -0.00163371457931939
0.007238918687594293   -0.012924095042330028   -0.001383428240245281
0.0035010970590960513   -0.012789500894576006   -0.0014154922837476423
0.0038144026762450722   -0.02002036313135516   -0.00163371457931939
0.008031482590850384   -0.02008109259373631   -0.0016558055305072924
0.007238918687594293   -0.012924095042330028   -0.001383428240245281
0.008024863284341821   -0.020052179416487636   -0.0016871891334771655
0.0035010970590960513   -0.012789500894576006   -0.0014154922837476423
0.007176663365238217   -0.012901391532669029   -0.0014705059827049127
0.008024863284341821   -0.020052179416487636   -0.0016871891334771655
0.007238918687594293   -0.012924095042330028   -0.001383428240245281
0.0035010970590960513   -0.012789500894576006   -0.0014154922837476423
0.008024863284341821   -0.020052179416487636   -0.0016871891334771655
0.00383107009791117   -0.02001176225849633   -0.0016360226987647557
0.0038144026762450722   -0.02002036313135516   -0.00163371457931939
0.0035010970590960513   -0.012789500894576006   -0.0014154922837476423
0.008024863284341821   -0.020052179416487636   -0.0016871891334771655
0.0038144026762450722   -0.02002036313135516   -0.00163371457931939
0.007238918687594293   -0.012924095042330028   -0.001383428240245281
0.0035010970590960513   -0.012789500894576006   -0.0014154922837476423
0.00383107009791117   -0.02001176225849633   -0.0016360226987647557
0.007176663365238217   -0.012901391532669029   -0.0014705059827049127
0.0034927055785131515   -0.012760020651108319   -0.00145550948798452
0.00383107009791117   -0.02001176225849633   -0.0016360226987647557
0.008024863284341821   -0.020052179416487636   -0.0016871891334771655
0.007176663365238217   -0.012901391532669029   -0.0014705059827049127
0.008005465396997704   -0.02001592714878536   -0.0017300932576111232
0.0034927055785131515   -0.012760020651108319   -0.00145550948798452
0.00711441859740664   -0.012856031589736461   -0.0015697323718266338
0.008005465396997704   -0.02001592714878536   -0.0017300932576111232
0.007176663365238217   -0.012901391532669029   -0.0014705059827049127
0.0034927055785131515   -0.012760020651108319   -0.00145550948798452
0.008005465396997704   -0.02001592714878536   -0.0017300932576111232
0.0038328284138285118   -0.019989518136922957   -0.001645429589744597
0.00383107009791117   -0.02001176225849633   -0.0016360226987647557
0.0034927055785131515   -0.012760020651108319   -0.00145550948798452
0.008005465396997704   -0.02001592714878536   -0.0017300932576111232
0.00383107009791117   -0.02001176225849633   -0.0016360226987647557
0.007176663365238217   -0.012901391532669029   -0.0014705059827049127
0.0034927055785131515   -0.012760020651108319   -0.00145550948798452
0.0038328284138285118   -0.019989518136922957   -0.001645429589744597
0.00711441859740664   -0.012856031589736461   -0.0015697323718266338
0.0034798689235592123   -0.01269893248004823   -0.0015030630123223222
0.0038328284138285118   -0.019989518136922957   -0.001645429589744597
0.008005465396997704   -0.02001592714878536   -0.0017300932576111232
0.00711441859740664   -0.012856031589736461   -0.0015697323718266338
0.007951392285716487   -0.019946979491106277   -0.0017844342972431404
0.0034798689235592123   -0.01269893248004823   -0.0015030630123223222
0.007003371753306961   -0.0127610423245035   -0.0016811205064511986
0.007951392285716487   -0.019946979491106277   -0.0017844342972431404
0.00711441859740664   -0.012856031589736461   -0.0015697323718266338
0.0034798689235592123   -0.01269893248004823   -0.0015030630123223222
0.007951392285716487   -0.019946979491106277   -0.0017844342972431404
0.0038249679389817082   -0.01994808032031756   -0.001662207181279077
0.0038328284138285118   -0.019989518136922957   -0.001645429589744597
0.0034798689235592123   -0.01269893248004823   -0.0015030630123223222
0.007951392285716487   -0.019946979491106277   -0.0017844342972431404
0.0038328284138285118   -0.019989518136922957   -0.001645429589744597
0.00711441859740664   -0.012856031589736461   -0.0015697323718266338
-0.011540543188696965   -0.020163332964276224   -0.0020736286659848303
-0.012673425991987633   -0.027973780679849118   -0.0021121790880408793
-0.007491821703089805   -0.020053770693175578   -0.0018745478799552142
-0.011655702113305163   -0.020278049038783164   -0.001961711390267597
-0.012673425991987633   -0.027973780679849118   -0.0021121790880408793
-0.008329142989041919   -0.027929224035640517   -0.0019537626794365382
-0.007491821703089805   -0.020053770693175578   -0.0018745478799552142
-0.008325435459768406   -0.028001470995997892   -0.0019063502161154678
-0.011655702113305163   -0.020278049038783164   -0.001961711390267597
-0.007500383697796952   -0.02013854863130009   -0.0017971877588954285
-0.008325435459768406   -0.028001470995997892   -0.0019063502161154678
-0.007491821703089805   -0.020053770693175578   -0.0018745478799552142
-0.011655702113305163   -0.020278049038783164   -0.001961711390267597
-0.008325435459768406   -0.028001470995997892   -0.0019063502161154678
-0.012726925621411547   -0.02807092157088081   -0.0020545799112151935
-0.012673425991987633   -0.027973780679849118   -0.0021121790880408793
-0.011655702113305163   -0.020278049038783164   -0.001961711390267597
-0.008325435459768406   -0.028001470995997892   -0.0019063502161154678
-0.012673425991987633   -0.027973780679849118   -0.0021121790880408793
-0.007491821703089805   -0.020053770693175578   -0.0018745478799552142
-0.011655702113305163   -0.020278049038783164   -0.001961711390267597
-0.012726925621411547   -0.02807092157088081   -0.0020545799112151935
-0.007500383697796952   -0.02013854863130009   -0.0017971877588954285
-0.011721557072821763   -0.020359262020510322   -0.001860552795258833
-0.012726925621411547   -0.02807092157088081   -0.0020545799112151935
-0.008325435459768406   -0.028001470995997892   -0.0019063502161154678
-0.007500383697796952   -0.02013854863130009   -0.0017971877588954285
-0.008313874512022661   -0.028068169011967653   -0.0018668119727771892
-0.011721557072821763   -0.020359262020510322   -0.001860552795258833
-0.007506348303972887   -0.020205800429299106   -0.0017275445658745405
-0.008313874512022661   -0.028068169011967653   -0.0018668119727771892
-0.007500383697796952   -0.02013854863130009   -0.0017971877588954285
-0.011721557072821763   -0.020359262020510322   -0.001860552795258833
-0.008313874512022661   -0.028068169011967653   -0.0018668119727771892
-0.012743638289537566   -0.028150212939628886   -0.0020083128091385343
-0.012726925621411547   -0.02807092157088081   -0.0020545799112151935
-0.011721557072821763   -0.020359262020510322   -0.001860552795258833
-0.008313874512022661   -0.028068169011967653   -0.0018668119727771892
-0.012726925621411547   -0.02807092157088081   -0.0020545799112151935
-0.007500383697796952   -0.02013854863130009   -0.0017971877588954285
-0.011721557072821763   -0.020359262020510322   -0.001860552795258833
-0.012743638289537566   -0.028150212939628886   -0.0020083128091385343
-0.007506348303972887   -0.020205800429299106   -0.0017275445658745405
-0.01178935344475024   -0.02043214404058625   -0.0017714343613869602
-0.012743638289537566   -0.028150212939628886   -0.0020083128091385343
-0.008313874512022661   -0.028068169011967653   -0.0018668119727771892
-0.007506348303972887   -0.020205800429299106   -0.0017275445658745405
-0.008285985883491378   -0.028134406919514254   -0.0018345918980201173
-0.01178935344475024   -0.02043214404058625   -0.0017714343613869602
-0.0074903626500900915   -0.020261107699875897   -0.0016645896139334156
-0.008285985883491378   -0.028134406919514254   -0.0018345918980201173
-0.007506348303972887   -0.020205800429299106   -0.0017275445658745405
-0.01178935344475024   -0.02043214404058625   -0.0017714343613869602
-0.008285985883491378   -0.028134406919514254   -0.0018345918980201173
-0.012748869040733036   -0.02823640700632922   -0.0019743559068072045
-0.012743638289537566   -0.028150212939628886   -0.0020083128091385343
-0.01178935344475024   -0.02043214404058625   -0.0017714343613869602
-0.008285985883491378   -0.028134406919514254   -0.0018345918980201173
-0.012743638289537566   -0.028150212939628886   -0.0020083128091385343
-0.007506348303972887   -0.020205800429299106   -0.0017275445658745405
-0.007491821703089805   -0.020053770693175578   -0.0018745478799552142
-0.008329142989041919   -0.027929224035640517   -0.0019537626794365382
-0.0036966298662827702   -0.019997070784298115   -0.0017367106407103537
-0.007500383697796952   -0.02013854863130009   -0.0017971877588954285
-0.008329142989041919   -0.027929224035640517   -0.0019537626794365382
-0.0042937014445505   -0.027903558663774537   -0.0018459282202039065
-0.0036966298662827702   -0.019997070784298115   -0.0017367106407103537
-0.0042782400152272795   -0.027947252289886464   -0.0018045249624241916
-0.007500383697796952   -0.02013854863130009   -0.0017971877588954285
-0.0036891703609508194   -0.020050233781069005   -0.0016855824475838538
-0.0042782400152272795   -0.027947252289886464   -0.0018045249624241916
-0.0036966298662827702   -0.019997070784298115   -0.0017367106407103537
-0.007500383697796952   -0.02013854863130009   -0.0017971877588954285
-0.0042782400152272795   -0.027947252289886464   -0.0018045249624241916
-0.008325435459768406   -0.028001470995997892   -0.0019063502161154678
-0.008329142989041919   -0.027929224035640517   -0.0019537626794365382
-0.007500383697796952   -0.02013854863130009   -0.0017971877588954285
-0.0042782400152272795   -0.027947252289886464   -0.0018045249624241916
-0.008329142989041919   -0.027929224035640517   -0.0019537626794365382
-0.0036966298662827702   -0.019997070784298115   -0.0017367106407103537
-0.007500383697796952   -0.02013854863130009   -0.0017971877588954285
-0.008325435459768406   -0.028001470995997892   -0.0019063502161154678
-0.0036891703609508194   -0.020050233781069005   -0.0016855824475838538
-0.007506348303972887   -0.020205800429299106   -0.0017275445658745405
-0.008325435459768406   -0.028001470995997892   -0.0019063502161154678
-0.0042782400152272795   -0.027947252289886464   -0.0018045249624241916
-0.0036891703609508194   -0.020050233781069005   -0.0016855824475838538
-0.004259374205766581   -0.027987387016896004   -0.00177100016665106
-0.007506348303972887   -0.020205800429299106   -0.0017275445658745405
-0.003679146281753229   -0.02008870587808182   -0.0016420528793588288
-0.004259374205766581   -0.027987387016896004   -0.00177100016665106
-0.0036891703609508194   -0.020050233781069005   -0.0016855824475838538
-0.007506348303972887   -0.020205800429299106   -0.0017275445658745405
-0.004259374205766581   -0.027987387016896004   -0.00177100016665106
-0.008313874512022661   -0.028068169011967653   -0.0018668119727771892
-0.008325435459768406   -0.028001470995997892   -0.0019063502161154678
-0.007506348303972887   -0.020205800429299106   -0.0017275445658745405
-0.004259374205766581   -0.027987387016896004   -0.00177100016665106
-0.008325435459768406   -0.028001470995997892   -0.0019063502161154678
-0.0036891703609508194   -0.020050233781069005   -0.0016855824475838538
-0.007506348303972887   -0.020205800429299106   -0.0017275445658745405
-0.008313874512022661   -0.028068169011967653   -0.0018668119727771892
-0.003679146281753229   -0.02008870587808182   -0.0016420528793588288
-0.0074903626500900915   -0.020261107699875897   -0.0016645896139334156
-0.008313874512022661   -0.028068169011967653   -0.0018668119727771892
-0.004259374205766581   -0.027987387016896004   -0.00177100016665106
-0.003679146281753229   -0.02008870587808182   -0.0016420528793588288
-0.004236777758515833   -0.028024095650066642   -0.0017455453740079622
-0.0074903626500900915   -0.020261107699875897   -0.0016645896139334156
-0.003664400579096486   -0.020112739748421076   -0.0016062495327436215
-0.004236777758515833   -0.028024095650066642   -0.0017455453740079622
-0.003679146281753229   -0.02008870587808182   -0.0016420528793588288
-0.0074903626500900915   -0.020261107699875897   -0.0016645896139334156
-0.004236777758515833   -0.028024095650066642   -0.0017455453740079622
-0.008285985883491378   -0.028134406919514254   -0.0018345918980201173
-0.008313874512022661   -0.028068169011967653   -0.0018668119727771892
-0.0074903626500900915   -0.020261107699875897   -0.0016645896139334156
-0.004236777758515833   -0.028024095650066642   -0.0017455453740079622
-0.008313874512022661   -0.028068169011967653   -0.0018668119727771892
-0.003679146281753229   -0.02008870587808182   -0.0016420528793588288
-0.0036966298662827702   -0.019997070784298115   -0.0017367106407103537
-0.0042937014445505   -0.027903558663774537   -0.0018459282202039065
-4.607156927753673e-06   -0.01998727422952246   -0.0016565351197617196
-0.0036891703609508194   -0.020050233781069005   -0.0016855824475838538
-0.0042937014445505   -0.027903558663774537   -0.0018459282202039065
-0.00036747987997946894   -0.02788879318690636   -0.0017902641636703494
-4.607156927753673e-06   -0.01998727422952246   -0.0016565351197617196
-0.0003460173655767931   -0.027903389935313026   -0.001755288897663698
-0.0036891703609508194   -0.020050233781069005   -0.0016855824475838538
9.064514576644748e-06   -0.020008637959235926   -0.0016318481995554082
-0.0003460173655767931   -0.027903389935313026   -0.001755288897663698
-4.607156927753673e-06   -0.01998727422952246   -0.0016565351197617196
-0.0036891703609508194   -0.020050233781069005   -0.0016855824475838538
-0.0003460173655767931   -0.027903389935313026   -0.001755288897663698
-0.0042782400152272795   -0.027947252289886464   -0.0018045249624241916
-0.0042937014445505   -0.027903558663774537   -0.0018459282202039065
-0.0036891703609508194   -0.020050233781069005   -0.0016855824475838538
-0.0003460173655767931   -0.027903389935313026   -0.001755288897663698
-0.0042937014445505   -0.027903558663774537   -0.0018459282202039065
-4.607156927753673e-06   -0.01998727422952246   -0.0016565351197617196
-0.0036891703609508194   -0.020050233781069005   -0.0016855824475838538
-0.0042782400152272795   -0.027947252289886464   -0.0018045249624241916
9.064514576644748e-06   -0.020008637959235926   -0.0016318481995554082
-0.003679146281753229   -0.02008870587808182   -0.0016420528793588288
-0.0042782400152272795   -0.027947252289886464   -0.0018045249624241916
-0.0003460173655767931   -0.027903389935313026   -0.001755288897663698
9.064514576644748e-06   -0.020008637959235926   -0.0016318481995554082
-0.00032738127303519614   -0.027914173559163046   -0.0017281259700538943
-0.003679146281753229   -0.02008870587808182   -0.0016420528793588288
1.892128672075262e-05   -0.0200152089301072   -0.001614665203818495
-0.00032738127303519614   -0.027914173559163046   -0.0017281259700538943
9.064514576644748e-06   -0.020008637959235926   -0.0016318481995554082
-0.003679146281753229   -0.02008870587808182   -0.0016420528793588288
-0.00032738127303519614   -0.027914173559163046   -0.0017281259700538943
-0.004259374205766581   -0.027987387016896004   -0.00177100016665106
-0.0042782400152272795   -0.027947252289886464   -0.0018045249624241916
-0.003679146281753229   -0.02008870587808182   -0.0016420528793588288
-0.00032738127303519614   -0.027914173559163046   -0.0017281259700538943
-0.0042782400152272795   -0.027947252289886464   -0.0018045249624241916
9.064514576644748e-06   -0.020008637959235926   -0.0016318481995554082
-0.003679146281753229   -0.02008870587808182   -0.0016420528793588288
-0.004259374205766581   -0.027987387016896004   -0.00177100016665106
1.892128672075262e-05   -0.0200152089301072   -0.001614665203818495
-0.003664400579096486   -0.020112739748421076   -0.0016062495327436215
-0.004259374205766581   -0.027987387016896004   -0.00177100016665106
-0.00032738127303519614   -0.027914173559163046   -0.0017281259700538943
1.892128672075262e-05   -0.0200152089301072   -0.001614665203818495
-0.0003130735041194455   -0.027921087349498726   -0.0017090590417896446
-0.003664400579096486   -0.020112739748421076   -0.0016062495327436215
2.5345551771616836e-05   -0.020006783922104945   -0.001605316841398436
-0.0003130735041194455   -0.027921087349498726   -0.0017090590417896446
1.892128672075262e-05   -0.0200152089301072   -0.001614665203818495
-0.003664400579096486   -0.020112739748421076   -0.0016062495327436215
-0.0003130735041194455   -0.027921087349498726   -0.0017090590417896446
-0.004236777758515833   -0.028024095650066642   -0.0017455453740079622
-0.004259374205766581   -0.027987387016896004   -0.00177100016665106
-0.003664400579096486   -0.020112739748421076   -0.0016062495327436215
-0.0003130735041194455   -0.027921087349498726   -0.0017090590417896446
-0.004259374205766581   -0.027987387016896004   -0.00177100016665106
1.892128672075262e-05   -0.0200152089301072   -0.001614665203818495
-4.607156927753673e-06   -0.01998727422952246   -0.0016565351197617196
-0.00036747987997946894   -0.02788879318690636   -0.0017902641636703494
0.0038144026762450722   -0.02002036313135516   -0.00163371457931939
9.064514576644748e-06   -0.020008637959235926   -0.0016318481995554082
-0.00036747987997946894   -0.02788879318690636   -0.0017902641636703494
0.0036784859211397704   -0.027882380674356062   -0.0017872777730278072
0.0038144026762450722   -0.02002036313135516   -0.00163371457931939
0.0037068276662254544   -0.027868780909392817   -0.0017590507708758443
9.064514576644748e-06   -0.020008637959235926   -0.0016318481995554082
0.00383107009791117   -0.02001176225849633   -0.0016360226987647557
0.0037068276662254544   -0.027868780909392817   -0.0017590507708758443
0.0038144026762450722   -0.02002036313135516   -0.00163371457931939
9.064514576644748e-06   -0.020008637959235926   -0.0016318481995554082
0.0037068276662254544   -0.027868780909392817   -0.0017590507708758443
-0.0003460173655767931   -0.027903389935313026   -0.001755288897663698
-0.00036747987997946894   -0.02788879318690636   -0.0017902641636703494
9.064514576644748e-06   -0.020008637959235926   -0.0016318481995554082
0.0037068276662254544   -0.027868780909392817   -0.0017590507708758443
-0.00036747987997946894   -0.02788879318690636   -0.0017902641636703494
0.0038144026762450722   -0.02002036313135516   -0.00163371457931939
9.064514576644748e-06   -0.020008637959235926   -0.0016318481995554082
-0.0003460173655767931   -0.027903389935313026   -0.001755288897663698
0.00383107009791117   -0.02001176225849633   -0.0016360226987647557
1.892128672075262e-05   -0.0200152089301072   -0.001614665203818495
-0.0003460173655767931   -0.027903389935313026   -0.001755288897663698
0.0037068276662254544   -0.027868780909392817   -0.0017590507708758443
0.00383107009791117   -0.02001176225849633   -0.0016360226987647557
0.0037259738106851094   -0.027853004842581172   -0.0017384107606139715
1.892128672075262e-05   -0.0200152089301072   -0.001614665203818495
0.0038328284138285118   -0.019989518136922957   -0.001645429589744597
0.0037259738106851094   -0.027853004842581172   -0.0017384107606139715
0.00383107009791117   -0.02001176225849633   -0.0016360226987647557
1.892128672075262e-05   -0.0200152089301072   -0.001614665203818495
0.0037259738106851094   -0.027853004842581172   -0.0017384107606139715
-0.00032738127303519614   -0.027914173559163046   -0.0017281259700538943
-0.0003460173655767931   -0.027903389935313026   -0.001755288897663698
1.892128672075262e-05   -0.0200152089301072   -0.001614665203818495
0.0037259738106851094   -0.027853004842581172   -0.0017384107606139715
-0.0003460173655767931   -0.027903389935313026   -0.001755288897663698
0.00383107009791117   -0.02001176225849633   -0.0016360226987647557
1.892128672075262e-05   -0.0200152089301072   -0.001614665203818495
-0.00032738127303519614   -0.027914173559163046   -0.0017281259700538943
0.0038328284138285118   -0.019989518136922957   -0.001645429589744597
2.5345551771616836e-05   -0.020006783922104945   -0.001605316841398436
-0.00032738127303519614   -0.027914173559163046   -0.0017281259700538943
0.0037259738106851094   -0.027853004842581172   -0.0017384107606139715
0.0038328284138285118   -0.019989518136922957   -0.001645429589744597
0.003730244191023639   -0.027829901069723443   -0.0017252032179407044
2.5345551771616836e-05   -0.020006783922104945   -0.001605316841398436
0.0038249679389817082   -0.01994808032031756   -0.001662207181279077
0.003730244191023639   -0.027829901069723443   -0.0017252032179407044
0.0038328284138285118   -0.019989518136922957   -0.001645429589744597
2.5345551771616836e-05   -0.020006783922104945   -0.001605316841398436
0.003730244191023639   -0.027829901069723443   -0.0017252032179407044
-0.0003130735041194455   -0.027921087349498726   -0.0017090590417896446
-0.00032738127303519614   -0.027914173559163046   -0.0017281259700538943
2.5345551771616836e-05   -0.020006783922104945   -0.001605316841398436
0.003730244191023639   -0.027829901069723443   -0.0017252032179407044
-0.00032738127303519614   -0.027914173559163046   -0.0017281259700538943
0.0038328284138285118   -0.019989518136922957   -0.001645429589744597
0.0038144026762450722   -0.02002036313135516   -0.00163371457931939
0.0036784859211397704   -0.027882380674356062   -0.0017872777730278072
0.008031482590850384   -0.02008109259373631   -0.0016558055305072924
0.00383107009791117   -0.02001176225849633   -0.0016360226987647557
0.0036784859211397704   -0.027882380674356062   -0.0017872777730278072
0.008062737565835709   -0.027873375577928745   -0.0018317582447306064
0.008031482590850384   -0.02008109259373631   -0.0016558055305072924
0.008118073238650778   -0.027837475426654875   -0.0018084641231660811
0.00383107009791117   -0.02001176225849633   -0.0016360226987647557
0.008024863284341821   -0.020052179416487636   -0.0016871891334771655
0.008118073238650778   -0.027837475426654875   -0.0018084641231660811
0.008031482590850384   -0.02008109259373631   -0.0016558055305072924
0.00383107009791117   -0.02001176225849633   -0.0016360226987647557
0.008118073238650778   -0.027837475426654875   -0.0018084641231660811
0.0037068276662254544   -0.027868780909392817   -0.0017590507708758443
0.0036784859211397704   -0.027882380674356062   -0.0017872777730278072
0.00383107009791117   -0.02001176225849633   -0.0016360226987647557
0.008118073238650778   -0.027837475426654875   -0.0018084641231660811
0.0036784859211397704   -0.027882380674356062   -0.0017872777730278072
0.008031482590850384   -0.02008109259373631   -0.0016558055305072924
0.00383107009791117   -0.02001176225849633   -0.0016360226987647557
0.0037068276662254544   -0.027868780909392817   -0.0017590507708758443
0.008024863284341821   -0.020052179416487636   -0.0016871891334771655
0.0038328284138285118   -0.019989518136922957   -0.001645429589744597
0.0037068276662254544   -0.027868780909392817   -0.0017590507708758443
0.008118073238650778   -0.027837475426654875   -0.0018084641231660811
0.008024863284341821   -0.020052179416487636   -0.0016871891334771655
0.008147603014016286   -0.02780916488145158   -0.0017967029373364568
0.0038328284138285118   -0.019989518136922957   -0.001645429589744597
0.008005465396997704   -0.02001592714878536   -0.0017300932576111232
0.008147603014016286   -0.02780916488145158   -0.0017967029373364568
0.008024863284341821   -0.020052179416487636   -0.0016871891334771655
0.0038328284138285118   -0.019989518136922957   -0.001645429589744597
0.008147603014016286   -0.02780916488145158   -0.0017967029373364568
0.0037259738106851094   -0.027853004842581172   -0.0017384107606139715
0.0037068276662254544   -0.027868780909392817   -0.0017590507708758443
0.0038328284138285118   -0.019989518136922957   -0.001645429589744597
0.008147603014016286   -0.02780916488145158   -0.0017967029373364568
0.0037068276662254544   -0.027868780909392817   -0.0017590507708758443
0.008024863284341821   -0.020052179416487636   -0.0016871891334771655
0.0038328284138285118   -0.019989518136922957   -0.001645429589744597
0.0037259738106851094   -0.027853004842581172   -0.0017384107606139715
0.008005465396997704   -0.02001592714878536   -0.0017300932576111232
0.0038249679389817082   -0.01994808032031756   -0.001662207181279077
0.0037259738106851094   -0.027853004842581172   -0.0017384107606139715
0.008147603014016286   -0.02780916488145158   -0.0017967029373364568
0.008005465396997704   -0.02001592714878536   -0.0017300932576111232
0.008155316802011202   -0.02776386648322891   -0.0017966714233974672
0.0038249679389817082   -0.01994808032031756   -0.001662207181279077
0.007951392285716487   -0.019946979491106277   -0.0017844342972431404
0.008155316802011202   -0.02776386648322891   -0.0017966714233974672
0.008005465396997704   -0.02001592714878536   -0.0017300932576111232
0.0038249679389817082   -0.01994808032031756   -0.001662207181279077
0.008155316802011202   -0.02776386648322891   -0.0017966714233974672
0.003730244191023639   -0.027829901069723443   -0.0017252032179407044
0.0037259738106851094   -0.027853004842581172   -0.0017384107606139715
0.0038249679389817082   -0.01994808032031756   -0.001662207181279077
0.008155316802011202   -0.02776386648322891   -0.0017966714233974672
0.0037259738106851094   -0.027853004842581172   -0.0017384107606139715
0.008005465396997704   -0.02001592714878536   -0.0017300932576111232
-0.012673425991987633   -0.027973780679849118   -0.0021121790880408793
-0.013066633919702276   -0.03592139876820721   -0.002077056440795788
-0.008329142989041919   -0.027929224035640517   -0.0019537626794365382
-0.012726925621411547   -0.02807092157088081   -0.0020545799112151935
-0.013066633919702276   -0.03592139876820721   -0.002077056440795788
-0.008729048176218744   -0.03594225071958239   -0.0019600585574491517
-0.008329142989041919   -0.027929224035640517   -0.0019537626794365382
-0.008705392251771742   -0.0360017382085363   -0.0019421016416985507
-0.012726925621411547   -0.02807092157088081   -0.0020545799112151935
-0.008325435459768406   -0.028001470995997892   -0.0019063502161154678
-0.008705392251771742   -0.0360017382085363   -0.0019421016416985507
-0.008329142989041919   -0.027929224035640517   -0.0019537626794365382
-0.012726925621411547   -0.02807092157088081   -0.0020545799112151935
-0.008705392251771742   -0.0360017382085363   -0.0019421016416985507
-0.013051192893650903   -0.0360010078129066   -0.0020734771664913465
-0.013066633919702276   -0.03592139876820721   -0.002077056440795788
-0.012726925621411547   -0.02807092157088081   -0.0020545799112151935
-0.008705392251771742   -0.0360017382085363   -0.0019421016416985507
-0.013066633919702276   -0.03592139876820721   -0.002077056440795788
-0.008329142989041919   -0.027929224035640517   -0.0019537626794365382
-0.012726925621411547   -0.02807092157088081   -0.0020545799112151935
-0.013051192893650903   -0.0360010078129066   -0.0020734771664913465
-0.008325435459768406   -0.028001470995997892   -0.0019063502161154678
-0.012743638289537566   -0.028150212939628886   -0.0020083128091385343
-0.013051192893650903   -0.0360010078129066   -0.0020734771664913465
-0.008705392251771742   -0.0360017382085363   -0.0019421016416985507
-0.008325435459768406   -0.028001470995997892   -0.0019063502161154678
-0.008668650482749833   -0.0360677104498244   -0.0019322481906082936
-0.012743638289537566   -0.028150212939628886   -0.0020083128091385343
-0.008313874512022661   -0.028068169011967653   -0.0018668119727771892
-0.008668650482749833   -0.0360677104498244   -0.0019322481906082936
-0.008325435459768406   -0.028001470995997892   -0.0019063502161154678
-0.012743638289537566   -0.028150212939628886   -0.0020083128091385343
-0.008668650482749833   -0.0360677104498244   -0.0019322481906082936
-0.013010943076313735   -0.03607838062729545   -0.0020820060742623037
-0.013051192893650903   -0.0360010078129066   -0.0020734771664913465
-0.012743638289537566   -0.028150212939628886   -0.0020083128091385343
-0.008668650482749833   -0.0360677104498244   -0.0019322481906082936
-0.013051192893650903   -0.0360010078129066   -0.0020734771664913465
-0.008325435459768406   -0.028001470995997892   -0.0019063502161154678
-0.012743638289537566   -0.028150212939628886   -0.0020083128091385343
-0.013010943076313735   -0.03607838062729545   -0.0020820060742623037
-0.008313874512022661   -0.028068169011967653   -0.0018668119727771892
-0.012748869040733036   -0.02823640700632922   -0.0019743559068072045
-0.013010943076313735   -0.03607838062729545   -0.0020820060742623037
-0.008668650482749833   -0.0360677104498244   -0.0019322481906082936
-0.008313874512022661   -0.028068169011967653   -0.0018668119727771892
-0.008621161380245261   -0.03614471438330397   -0.0019303622544272585
-0.012748869040733036   -0.02823640700632922   -0.0019743559068072045
-0.008285985883491378   -0.028134406919514254   -0.0018345918980201173
-0.008621161380245261   -0.03614471438330397   -0.0019303622544272585
-0.008313874512022661   -0.028068169011967653   -0.0018668119727771892
-0.012748869040733036   -0.02823640700632922   -0.0019743559068072045
-0.008621161380245261   -0.03614471438330397   -0.0019303622544272585
-0.012945843388337448   -0.03617811598661616   -0.0021032610382784095
-0.013010943076313735   -0.03607838062729545   -0.0020820060742623037
-0.012748869040733036   -0.02823640700632922   -0.0019743559068072045
-0.008621161380245261   -0.03614471438330397   -0.0019303622544272585
-0.013010943076313735   -0.03607838062729545   -0.0020820060742623037
-0.008313874512022661   -0.028068169011967653   -0.0018668119727771892
-0.008329142989041919   -0.027929224035640517   -0.0019537626794365382
-0.008729048176218744   -0.03594225071958239   -0.0019600585574491517
-0.0042937014445505   -0.027903558663774537   -0.0018459282202039065
-0.008325435459768406   -0.028001470995997892   -0.0019063502161154678
-0.008729048176218744   -0.03594225071958239   -0.0019600585574491517
-0.00475556740883297   -0.035946708740940615   -0.0018823110869137056
-0.0042937014445505   -0.027903558663774537   -0.0018459282202039065
-0.0047240200492507265   -0.03598079616412976   -0.0018503385501642022
-0.008325435459768406   -0.028001470995997892   -0.0019063502161154678
-0.0042782400152272795   -0.027947252289886464   -0.0018045249624241916
-0.0047240200492507265   -0.03598079616412976   -0.0018503385501642022
-0.0042937014445505   -0.027903558663774537   -0.0018459282202039065
-0.008325435459768406   -0.028001470995997892   -0.0019063502161154678
-0.0047240200492507265   -0.03598079616412976   -0.0018503385501642022
-0.008705392251771742   -0.0360017382085363   -0.0019421016416985507
-0.008729048176218744   -0.03594225071958239   -0.0019600585574491517
-0.008325435459768406   -0.028001470995997892   -0.0019063502161154678
-0.0047240200492507265   -0.03598079616412976   -0.0018503385501642022
-0.008729048176218744   -0.03594225071958239   -0.0019600585574491517
-0.0042937014445505   -0.027903558663774537   -0.0018459282202039065
-0.008325435459768406   -0.028001470995997892   -0.0019063502161154678
-0.008705392251771742   -0.0360017382085363   -0.0019421016416985507
-0.0042782400152272795   -0.027947252289886464   -0.0018045249624241916
-0.008313874512022661   -0.028068169011967653   -0.0018668119727771892
-0.008705392251771742   -0.0360017382085363   -0.0019421016416985507
-0.0047240200492507265   -0.03598079616412976   -0.0018503385501642022
-0.0042782400152272795   -0.027947252289886464   -0.0018045249624241916
-0.004688421322927894   -0.03602230189311451   -0.0018264983937092752
-0.008313874512022661   -0.028068169011967653   -0.0018668119727771892
-0.004259374205766581   -0.027987387016896004   -0.00177100016665106
-0.004688421322927894   -0.03602230189311451   -0.0018264983937092752
-0.0042782400152272795   -0.027947252289886464   -0.0018045249624241916
-0.008313874512022661   -0.028068169011967653   -0.0018668119727771892
-0.004688421322927894   -0.03602230189311451   -0.0018264983937092752
-0.008668650482749833   -0.0360677104498244   -0.0019322481906082936
-0.008705392251771742   -0.0360017382085363   -0.0019421016416985507
-0.008313874512022661   -0.028068169011967653   -0.0018668119727771892
-0.004688421322927894   -0.03602230189311451   -0.0018264983937092752
-0.008705392251771742   -0.0360017382085363   -0.0019421016416985507
-0.0042782400152272795   -0.027947252289886464   -0.0018045249624241916
-0.008313874512022661   -0.028068169011967653   -0.0018668119727771892
-0.008668650482749833   -0.0360677104498244   -0.0019322481906082936
-0.004259374205766581   -0.027987387016896004   -0.00177100016665106
-0.008285985883491378   -0.028134406919514254   -0.0018345918980201173
-0.008668650482749833   -0.0360677104498244   -0.0019322481906082936
-0.004688421322927894   -0.03602230189311451   -0.0018264983937092752
-0.004259374205766581   -0.027987387016896004   -0.00177100016665106
-0.004650076667584949   -0.03607135545950967   -0.0018110567518069601
-0.008285985883491378   -0.028134406919514254   -0.0018345918980201173
-0.004236777758515833   -0.028024095650066642   -0.0017455453740079622
-0.004650076667584949   -0.03607135545950967   -0.0018110567518069601
-0.004259374205766581   -0.027987387016896004   -0.00177100016665106
-0.008285985883491378   -0.028134406919514254   -0.0018345918980201173
-0.004650076667584949   -0.03607135545950967   -0.0018110567518069601
-0.008621161380245261   -0.03614471438330397   -0.0019303622544272585
-0.008668650482749833   -0.0360677104498244   -0.0019322481906082936
-0.008285985883491378   -0.028134406919514254   -0.0018345918980201173
-0.004650076667584949   -0.03607135545950967   -0.0018110567518069601
-0.008668650482749833   -0.0360677104498244   -0.0019322481906082936
-0.004259374205766581   -0.027987387016896004   -0.00177100016665106
-0.0042937014445505   -0.027903558663774537   -0.0018459282202039065
-0.00475556740883297   -0.035946708740940615   -0.0018823110869137056
-0.00036747987997946894   -0.02788879318690636   -0.0017902641636703494
-0.0042782400152272795   -0.027947252289886464   -0.0018045249624241916
-0.00475556740883297   -0.035946708740940615   -0.0018823110869137056
-0.0008944417919020998   -0.035925562927113124   -0.0018506602060520186
-0.00036747987997946894   -0.02788879318690636   -0.0017902641636703494
-0.0008571782093223491   -0.03593338190296637   -0.0018053704872738115
-0.0042782400152272795   -0.027947252289886464   -0.0018045249624241916
-0.0003460173655767931   -0.027903389935313026   -0.001755288897663698
-0.0008571782093223491   -0.03593338190296637   -0.0018053704872738115
-0.00036747987997946894   -0.02788879318690636   -0.0017902641636703494
-0.0042782400152272795   -0.027947252289886464   -0.0018045249624241916
-0.0008571782093223491   -0.03593338190296637   -0.0018053704872738115
-0.0047240200492507265   -0.03598079616412976   -0.0018503385501642022
-0.00475556740883297   -0.035946708740940615   -0.0018823110869137056
-0.0042782400152272795   -0.027947252289886464   -0.0018045249624241916
-0.0008571782093223491   -0.03593338190296637   -0.0018053704872738115
-0.00475556740883297   -0.035946708740940615   -0.0018823110869137056
-0.00036747987997946894   -0.02788879318690636   -0.0017902641636703494
-0.0042782400152272795   -0.027947252289886464   -0.0018045249624241916
-0.0047240200492507265   -0.03598079616412976   -0.0018503385501642022
-0.0003460173655767931   -0.027903389935313026   -0.001755288897663698
-0.004259374205766581   -0.027987387016896004   -0.00177100016665106
-0.0047240200492507265   -0.03598079616412976   -0.0018503385501642022
-0.0008571782093223491   -0.03593338190296637   -0.0018053704872738115
-0.0003460173655767931   -0.027903389935313026   -0.001755288897663698
-0.0008219114639109938   -0.03594804415945657   -0.0017681576482544994
-0.004259374205766581   -0.027987387016896004   -0.00177100016665106
-0.00032738127303519614   -0.027914173559163046   -0.0017281259700538943
-0.0008219114639109938   -0.03594804415945657   -0.0017681576482544994
-0.0003460173655767931   -0.027903389935313026   -0.001755288897663698
-0.004259374205766581   -0.027987387016896004   -0.00177100016665106
-0.0008219114639109938   -0.03594804415945657   -0.0017681576482544994
-0.004688421322927894   -0.03602230189311451   -0.0018264983937092752
-0.0047240200492507265   -0.03598079616412976   -0.0018503385501642022
-0.004259374205766581   -0.027987387016896004   -0.00177100016665106
-0.0008219114639109938   -0.03594804415945657   -0.0017681576482544994
-0.0047240200492507265   -0.03598079616412976   -0.0018503385501642022
-0.0003460173655767931   -0.027903389935313026   -0.001755288897663698
-0.004259374205766581   -0.027987387016896004   -0.00177100016665106
-0.004688421322927894   -0.03602230189311451   -0.0018264983937092752
-0.00032738127303519614   -0.027914173559163046   -0.0017281259700538943
-0.004236777758515833   -0.028024095650066642   -0.0017455453740079622
-0.004688421322927894   -0.03602230189311451   -0.0018264983937092752
-0.0008219114639109938   -0.03594804415945657   -0.0017681576482544994
-0.00032738127303519614   -0.027914173559163046   -0.0017281259700538943
-0.00079192173452289   -0.03596988156974428   -0.0017393026831899498
-0.004236777758515833   -0.028024095650066642   -0.0017455453740079622
-0.0003130735041194455   -0.027921087349498726   -0.0017090590417896446
-0.00079192173452289   -0.03596988156974428   -0.0017393026831899498
-0.00032738127303519614   -0.027914173559163046   -0.0017281259700538943
-0.004236777758515833   -0.028024095650066642   -0.0017455453740079622
-0.00079192173452289   -0.03596988156974428   -0.0017393026831899498
-0.004650076667584949   -0.03607135545950967   -0.0018110567518069601
-0.004688421322927894   -0.03602230189311451   -0.0018264983937092752
-0.004236777758515833   -0.028024095650066642   -0.0017455453740079622
-0.00079192173452289   -0.03596988156974428   -0.0017393026831899498
-0.004688421322927894   -0.03602230189311451   -0.0018264983937092752
-0.00032738127303519614   -0.027914173559163046   -0.0017281259700538943
-0.00036747987997946894   -0.02788879318690636   -0.0017902641636703494
-0.0008944417919020998   -0.035925562927113124   -0.0018506602060520186
0.0036784859211397704   -0.027882380674356062   -0.0017872777730278072
-0.0003460173655767931   -0.027903389935313026   -0.001755288897663698
-0.0008944417919020998   -0.035925562927113124   -0.0018506602060520186
0.0030826805877546496   -0.03587859665026669   -0.0018666384823014211
0.0036784859211397704   -0.027882380674356062   -0.0017872777730278072
0.003130163888935965   -0.035860050365002734   -0.0018082596953477306
-0.0003460173655767931   -0.027903389935313026   -0.001755288897663698
0.0037068276662254544   -0.027868780909392817   -0.0017590507708758443
0.003130163888935965   -0.035860050365002734   -0.0018082596953477306
0.0036784859211397704   -0.027882380674356062   -0.0017872777730278072
-0.0003460173655767931   -0.027903389935313026   -0.001755288897663698
0.003130163888935965   -0.035860050365002734   -0.0018082596953477306
-0.0008571782093223491   -0.03593338190296637   -0.0018053704872738115
-0.0008944417919020998   -0.035925562927113124   -0.0018506602060520186
-0.0003460173655767931   -0.027903389935313026   -0.001755288897663698
0.003130163888935965   -0.035860050365002734   -0.0018082596953477306
-0.0008944417919020998   -0.035925562927113124   -0.0018506602060520186
0.0036784859211397704   -0.027882380674356062   -0.0017872777730278072
-0.0003460173655767931   -0.027903389935313026   -0.001755288897663698
-0.0008571782093223491   -0.03593338190296637   -0.0018053704872738115
0.0037068276662254544   -0.027868780909392817   -0.0017590507708758443
-0.00032738127303519614   -0.027914173559163046   -0.0017281259700538943
-0.0008571782093223491   -0.03593338190296637   -0.0018053704872738115
0.003130163888935965   -0.035860050365002734   -0.0018082596953477306
0.0037068276662254544   -0.027868780909392817   -0.0017590507708758443
0.003174098796895278   -0.035850400074682966   -0.0017579323260239076
-0.00032738127303519614   -0.027914173559163046   -0.0017281259700538943
0.0037259738106851094   -0.027853004842581172   -0.0017384107606139715
0.003174098796895278   -0.035850400074682966   -0.0017579323260239076
0.0037068276662254544   -0.027868780909392817   -0.0017590507708758443
-0.00032738127303519614   -0.027914173559163046   -0.0017281259700538943
0.003174098796895278   -0.035850400074682966   -0.0017579323260239076
-0.0008219114639109938   -0.03594804415945657   -0.0017681576482544994
-0.0008571782093223491   -0.03593338190296637   -0.0018053704872738115
-0.00032738127303519614   -0.027914173559163046   -0.0017281259700538943
0.003174098796895278   -0.035850400074682966   -0.0017579323260239076
-0.0008571782093223491   -0.03593338190296637   -0.0018053704872738115
0.0037068276662254544   -0.027868780909392817   -0.0017590507708758443
-0.00032738127303519614   -0.027914173559163046   -0.0017281259700538943
-0.0008219114639109938   -0.03594804415945657   -0.0017681576482544994
0.0037259738106851094   -0.027853004842581172   -0.0017384107606139715
-0.0003130735041194455   -0.027921087349498726   -0.0017090590417896446
-0.0008219114639109938   -0.03594804415945657   -0.0017681576482544994
0.003174098796895278   -0.035850400074682966   -0.0017579323260239076
0.0037259738106851094   -0.027853004842581172   -0.0017384107606139715
0.0031978298849435005   -0.035845006027060734   -0.0017151307130737513
-0.0003130735041194455   -0.027921087349498726   -0.0017090590417896446
0.003730244191023639   -0.027829901069723443   -0.0017252032179407044
0.0031978298849435005   -0.035845006027060734   -0.0017151307130737513
0.0037259738106851094   -0.027853004842581172   -0.0017384107606139715
-0.0003130735041194455   -0.027921087349498726   -0.0017090590417896446
0.0031978298849435005   -0.035845006027060734   -0.0017151307130737513
-0.00079192173452289   -0.03596988156974428   -0.0017393026831899498
-0.0008219114639109938   -0.03594804415945657   -0.0017681576482544994
-0.0003130735041194455   -0.027921087349498726   -0.0017090590417896446
0.0031978298849435005   -0.035845006027060734   -0.0017151307130737513
-0.0008219114639109938   -0.03594804415945657   -0.0017681576482544994
0.0037259738106851094   -0.027853004842581172   -0.0017384107606139715
0.0036784859211397704   -0.027882380674356062   -0.0017872777730278072
0.0030826805877546496   -0.03587859665026669   -0.0018666384823014211
0.008062737565835709   -0.027873375577928745   -0.0018317582447306064
0.0037068276662254544   -0.027868780909392817   -0.0017590507708758443
0.0030826805877546496   -0.03587859665026669   -0.0018666384823014211
0.007340185363713566   -0.03579961240665924   -0.0019327903599338813
0.008062737565835709   -0.027873375577928745   -0.0018317582447306064
0.007463841089977948   -0.03575714990829461   -0.0018560857652382822
0.0037068276662254544   -0.027868780909392817   -0.0017590507708758443
0.008118073238650778   -0.027837475426654875   -0.0018084641231660811
0.007463841089977948   -0.03575714990829461   -0.0018560857652382822
0.008062737565835709   -0.027873375577928745   -0.0018317582447306064
0.0037068276662254544   -0.027868780909392817   -0.0017590507708758443
0.007463841089977948   -0.03575714990829461   -0.0018560857652382822
0.003130163888935965   -0.035860050365002734   -0.0018082596953477306
0.0030826805877546496   -0.03587859665026669   -0.0018666384823014211
0.0037068276662254544   -0.027868780909392817   -0.0017590507708758443
0.007463841089977948   -0.03575714990829461   -0.0018560857652382822
0.0030826805877546496   -0.03587859665026669   -0.0018666384823014211
0.008062737565835709   -0.027873375577928745   -0.0018317582447306064
0.0037068276662254544   -0.027868780909392817   -0.0017590507708758443
0.003130163888935965   -0.035860050365002734   -0.0018082596953477306
0.008118073238650778   -0.027837475426654875   -0.0018084641231660811
0.0037259738106851094   -0.027853004842581172   -0.0017384107606139715
0.003130163888935965   -0.035860050365002734   -0.0018082596953477306
0.007463841089977948   -0.03575714990829461   -0.0018560857652382822
0.008118073238650778   -0.027837475426654875   -0.0018084641231660811
0.007548939634508973   -0.035736550317202   -0.0017908529242230515
0.0037259738106851094   -0.027853004842581172   -0.0017384107606139715
0.008147603014016286   -0.02780916488145158   -0.0017967029373364568
0.007548939634508973   -0.035736550317202   -0.0017908529242230515
0.008118073238650778   -0.027837475426654875   -0.0018084641231660811
0.0037259738106851094   -0.027853004842581172   -0.0017384107606139715
0.007548939634508973   -0.035736550317202   -0.0017908529242230515
0.003174098796895278   -0.035850400074682966   -0.0017579323260239076
0.003130163888935965   -0.035860050365002734   -0.0018082596953477306
0.0037259738106851094   -0.027853004842581172   -0.0017384107606139715
0.007548939634508973   -0.035736550317202   -0.0017908529242230515
0.003130163888935965   -0.035860050365002734   -0.0018082596953477306
0.008118073238650778   -0.027837475426654875   -0.0018084641231660811
0.0037259738106851094   -0.027853004842581172   -0.0017384107606139715
0.003174098796895278   -0.035850400074682966   -0.0017579323260239076
0.008147603014016286   -0.02780916488145158   -0.0017967029373364568
0.003730244191023639   -0.027829901069723443   -0.0017252032179407044
0.003174098796895278   -0.035850400074682966   -0.0017579323260239076
0.007548939634508973   -0.035736550317202   -0.0017908529242230515
0.008147603014016286   -0.02780916488145158   -0.0017967029373364568
0.007624673525516981   -0.03571422782656984   -0.0017375694189140352
0.003730244191023639   -0.027829901069723443   -0.0017252032179407044
0.008155316802011202   -0.02776386648322891   -0.0017966714233974672
0.007624673525516981   -0.03571422782656984   -0.0017375694189140352
0.008147603014016286   -0.02780916488145158   -0.0017967029373364568
0.003730244191023639   -0.027829901069723443   -0.0017252032179407044
0.007624673525516981   -0.03571422782656984   -0.0017375694189140352
0.0031978298849435005   -0.035845006027060734   -0.0017151307130737513
0.003174098796895278   -0.035850400074682966   -0.0017579323260239076
0.003730244191023639   -0.027829901069723443   -0.0017252032179407044
0.007624673525516981   -0.03571422782656984   -0.0017375694189140352
0.003174098796895278   -0.035850400074682966   -0.0017579323260239076
0.008147603014016286   -0.02780916488145158   -0.0017967029373364568
-0.013066633919702276   -0.03592139876820721   -0.002077056440795788
-0.012715038740746296   -0.04350743725369396   -0.0019863258018601544
-0.008729048176218744   -0.03594225071958239   -0.0019600585574491517
-0.013051192893650903   -0.0360010078129066   -0.0020734771664913465
-0.012715038740746296   -0.04350743725369396   -0.0019863258018601544
-0.008692712726635542   -0.043594785268059044   -0.001915960959426944
-0.008729048176218744   -0.03594225071958239   -0.0019600585574491517
-0.008641727681344288   -0.04363915935528194   -0.0019266462382679182
-0.013051192893650903   -0.0360010078129066   -0.0020734771664913465
-0.008705392251771742   -0.0360017382085363   -0.0019421016416985507
-0.008641727681344288   -0.04363915935528194   -0.0019266462382679182
-0.008729048176218744   -0.03594225071958239   -0.0019600585574491517
-0.013051192893650903   -0.0360010078129066   -0.0020734771664913465
-0.008641727681344288   -0.04363915935528194   -0.0019266462382679182
-0.012622982296043474   -0.043567357208364174   -0.0020368123953683
-0.012715038740746296   -0.04350743725369396   -0.0019863258018601544
-0.013051192893650903   -0.0360010078129066   -0.0020734771664913465
-0.008641727681344288   -0.04363915935528194   -0.0019266462382679182
-0.012715038740746296   -0.04350743725369396   -0.0019863258018601544
-0.008729048176218744   -0.03594225071958239   -0.0019600585574491517
-0.013051192893650903   -0.0360010078129066   -0.0020734771664913465
-0.012622982296043474   -0.043567357208364174   -0.0020368123953683
-0.008705392251771742   -0.0360017382085363   -0.0019421016416985507
-0.013010943076313735   -0.03607838062729545   -0.0020820060742623037
-0.012622982296043474   -0.043567357208364174   -0.0020368123953683
-0.008641727681344288   -0.04363915935528194   -0.0019266462382679182
-0.008705392251771742   -0.0360017382085363   -0.0019421016416985507
-0.00857275419437346   -0.04370241052835535   -0.0019456287348929835
-0.013010943076313735   -0.03607838062729545   -0.0020820060742623037
-0.008668650482749833   -0.0360677104498244   -0.0019322481906082936
-0.00857275419437346   -0.04370241052835535   -0.0019456287348929835
-0.008705392251771742   -0.0360017382085363   -0.0019421016416985507
-0.013010943076313735   -0.03607838062729545   -0.0020820060742623037
-0.00857275419437346   -0.04370241052835535   -0.0019456287348929835
-0.012518023383519237   -0.04364099333199903   -0.0021003462056670757
-0.012622982296043474   -0.043567357208364174   -0.0020368123953683
-0.013010943076313735   -0.03607838062729545   -0.0020820060742623037
-0.00857275419437346   -0.04370241052835535   -0.0019456287348929835
-0.012622982296043474   -0.043567357208364174   -0.0020368123953683
-0.008705392251771742   -0.0360017382085363   -0.0019421016416985507
-0.013010943076313735   -0.03607838062729545   -0.0020820060742623037
-0.012518023383519237   -0.04364099333199903   -0.0021003462056670757
-0.008668650482749833   -0.0360677104498244   -0.0019322481906082936
-0.012945843388337448   -0.03617811598661616   -0.0021032610382784095
-0.012518023383519237   -0.04364099333199903   -0.0021003462056670757
-0.00857275419437346   -0.04370241052835535   -0.0019456287348929835
-0.008668650482749833   -0.0360677104498244   -0.0019322481906082936
-0.00849877131308957   -0.043788400902941914   -0.001973149275137936
-0.012945843388337448   -0.03617811598661616   -0.0021032610382784095
-0.008621161380245261   -0.03614471438330397   -0.0019303622544272585
-0.00849877131308957   -0.043788400902941914   -0.001973149275137936
-0.008668650482749833   -0.0360677104498244   -0.0019322481906082936
-0.012945843388337448   -0.03617811598661616   -0.0021032610382784095
-0.00849877131308957   -0.043788400902941914   -0.001973149275137936
-0.012375187411193974   -0.043753130891435975   -0.002177173992015031
-0.012518023383519237   -0.04364099333199903   -0.0021003462056670757
-0.012945843388337448   -0.03617811598661616   -0.0021032610382784095
-0.00849877131308957   -0.043788400902941914   -0.001973149275137936
-0.012518023383519237   -0.04364099333199903   -0.0021003462056670757
-0.008668650482749833   -0.0360677104498244   -0.0019322481906082936
-0.008729048176218744   -0.03594225071958239   -0.0019600585574491517
-0.008692712726635542   -0.043594785268059044   -0.001915960959426944
-0.00475556740883297   -0.035946708740940615   -0.0018823110869137056
-0.008705392251771742   -0.0360017382085363   -0.0019421016416985507
-0.008692712726635542   -0.043594785268059044   -0.001915960959426944
-0.005086498571921407   -0.04362925024254869   -0.0018709483825953153
-0.00475556740883297   -0.035946708740940615   -0.0018823110869137056
-0.005031008451532923   -0.043652287869409424   -0.0018476634031544532
-0.008705392251771742   -0.0360017382085363   -0.0019421016416985507
-0.0047240200492507265   -0.03598079616412976   -0.0018503385501642022
-0.005031008451532923   -0.043652287869409424   -0.0018476634031544532
-0.00475556740883297   -0.035946708740940615   -0.0018823110869137056
-0.008705392251771742   -0.0360017382085363   -0.0019421016416985507
-0.005031008451532923   -0.043652287869409424   -0.0018476634031544532
-0.008641727681344288   -0.04363915935528194   -0.0019266462382679182
-0.008692712726635542   -0.043594785268059044   -0.001915960959426944
-0.008705392251771742   -0.0360017382085363   -0.0019421016416985507
-0.005031008451532923   -0.043652287869409424   -0.0018476634031544532
-0.008692712726635542   -0.043594785268059044   -0.001915960959426944
-0.00475556740883297   -0.035946708740940615   -0.0018823110869137056
-0.008705392251771742   -0.0360017382085363   -0.0019421016416985507
-0.008641727681344288   -0.04363915935528194   -0.0019266462382679182
-0.0047240200492507265   -0.03598079616412976   -0.0018503385501642022
-0.008668650482749833   -0.0360677104498244   -0.0019322481906082936
-0.008641727681344288   -0.04363915935528194   -0.0019266462382679182
-0.005031008451532923   -0.043652287869409424   -0.0018476634031544532
-0.0047240200492507265   -0.03598079616412976   -0.0018503385501642022
-0.004971329159915767   -0.043693469361054345   -0.0018325738172728853
-0.008668650482749833   -0.0360677104498244   -0.0019322481906082936
-0.004688421322927894   -0.03602230189311451   -0.0018264983937092752
-0.004971329159915767   -0.043693469361054345   -0.0018325738172728853
-0.0047240200492507265   -0.03598079616412976   -0.0018503385501642022
-0.008668650482749833   -0.0360677104498244   -0.0019322481906082936
-0.004971329159915767   -0.043693469361054345   -0.0018325738172728853
-0.00857275419437346   -0.04370241052835535   -0.0019456287348929835
-0.008641727681344288   -0.04363915935528194   -0.0019266462382679182
-0.008668650482749833   -0.0360677104498244   -0.0019322481906082936
-0.004971329159915767   -0.043693469361054345   -0.0018325738172728853
-0.008641727681344288   -0.04363915935528194   -0.0019266462382679182
-0.0047240200492507265   -0.03598079616412976   -0.0018503385501642022
-0.008668650482749833   -0.0360677104498244   -0.0019322481906082936
-0.00857275419437346   -0.04370241052835535   -0.0019456287348929835
-0.004688421322927894   -0.03602230189311451   -0.0018264983937092752
-0.008621161380245261   -0.03614471438330397   -0.0019303622544272585
-0.00857275419437346   -0.04370241052835535   -0.0019456287348929835
-0.004971329159915767   -0.043693469361054345   -0.0018325738172728853
-0.004688421322927894   -0.03602230189311451   -0.0018264983937092752
-0.004909986566142869   -0.04375331238520188   -0.0018260829288412493
-0.008621161380245261   -0.03614471438330397   -0.0019303622544272585
-0.004650076667584949   -0.03607135545950967   -0.0018110567518069601
-0.004909986566142869   -0.04375331238520188   -0.0018260829288412493
-0.004688421322927894   -0.03602230189311451   -0.0018264983937092752
-0.008621161380245261   -0.03614471438330397   -0.0019303622544272585
-0.004909986566142869   -0.04375331238520188   -0.0018260829288412493
-0.00849877131308957   -0.043788400902941914   -0.001973149275137936
-0.00857275419437346   -0.04370241052835535   -0.0019456287348929835
-0.008621161380245261   -0.03614471438330397   -0.0019303622544272585
-0.004909986566142869   -0.04375331238520188   -0.0018260829288412493
-0.00857275419437346   -0.04370241052835535   -0.0019456287348929835
-0.004688421322927894   -0.03602230189311451   -0.0018264983937092752
-0.00475556740883297   -0.035946708740940615   -0.0018823110869137056
-0.005086498571921407   -0.04362925024254869   -0.0018709483825953153
-0.0008944417919020998   -0.035925562927113124   -0.0018506602060520186
-0.0047240200492507265   -0.03598079616412976   -0.0018503385501642022
-0.005086498571921407   -0.04362925024254869   -0.0018709483825953153
-0.0015893957313722908   -0.04360259960489416   -0.001863666276181177
-0.0008944417919020998   -0.035925562927113124   -0.0018506602060520186
-0.0015280259753534743   -0.0436030481842566   -0.001807576242451712
-0.0047240200492507265   -0.03598079616412976   -0.0018503385501642022
-0.0008571782093223491   -0.03593338190296637   -0.0018053704872738115
-0.0015280259753534743   -0.0436030481842566   -0.001807576242451712
-0.0008944417919020998   -0.035925562927113124   -0.0018506602060520186
-0.0047240200492507265   -0.03598079616412976   -0.0018503385501642022
-0.0015280259753534743   -0.0436030481842566   -0.001807576242451712
-0.005031008451532923   -0.043652287869409424   -0.0018476634031544532
-0.005086498571921407   -0.04362925024254869   -0.0018709483825953153
-0.0047240200492507265   -0.03598079616412976   -0.0018503385501642022
-0.0015280259753534743   -0.0436030481842566   -0.001807576242451712
-0.005086498571921407   -0.04362925024254869   -0.0018709483825953153
-0.0008944417919020998   -0.035925562927113124   -0.0018506602060520186
-0.0047240200492507265   -0.03598079616412976   -0.0018503385501642022
-0.005031008451532923   -0.043652287869409424   -0.0018476634031544532
-0.0008571782093223491   -0.03593338190296637   -0.0018053704872738115
-0.004688421322927894   -0.03602230189311451   -0.0018264983937092752
-0.005031008451532923   -0.043652287869409424   -0.0018476634031544532
-0.0015280259753534743   -0.0436030481842566   -0.001807576242451712
-0.0008571782093223491   -0.03593338190296637   -0.0018053704872738115
-0.0014682561651843317   -0.04362032077466675   -0.0017597035688603957
-0.004688421322927894   -0.03602230189311451   -0.0018264983937092752
-0.0008219114639109938   -0.03594804415945657   -0.0017681576482544994
-0.0014682561651843317   -0.04362032077466675   -0.0017597035688603957
-0.0008571782093223491   -0.03593338190296637   -0.0018053704872738115
-0.004688421322927894   -0.03602230189311451   -0.0018264983937092752
-0.0014682561651843317   -0.04362032077466675   -0.0017597035688603957
-0.004971329159915767   -0.043693469361054345   -0.0018325738172728853
-0.005031008451532923   -0.043652287869409424   -0.0018476634031544532
-0.004688421322927894   -0.03602230189311451   -0.0018264983937092752
-0.0014682561651843317   -0.04362032077466675   -0.0017597035688603957
-0.005031008451532923   -0.043652287869409424   -0.0018476634031544532
-0.0008571782093223491   -0.03593338190296637   -0.0018053704872738115
-0.004688421322927894   -0.03602230189311451   -0.0018264983937092752
-0.004971329159915767   -0.043693469361054345   -0.0018325738172728853
-0.0008219114639109938   -0.03594804415945657   -0.0017681576482544994
-0.004650076667584949   -0.03607135545950967   -0.0018110567518069601
-0.004971329159915767   -0.043693469361054345   -0.0018325738172728853
-0.0014682561651843317   -0.04362032077466675   -0.0017597035688603957
-0.0008219114639109938   -0.03594804415945657   -0.0017681576482544994
-0.0014149031282555385   -0.04365584089518024   -0.0017203331589888205
-0.004650076667584949   -0.03607135545950967   -0.0018110567518069601
-0.00079192173452289   -0.03596988156974428   -0.0017393026831899498
-0.0014149031282555385   -0.04365584089518024   -0.0017203331589888205
-0.0008219114639109938   -0.03594804415945657   -0.0017681576482544994
-0.004650076667584949   -0.03607135545950967   -0.0018110567518069601
-0.0014149031282555385   -0.04365584089518024   -0.0017203331589888205
-0.004909986566142869   -0.04375331238520188   -0.0018260829288412493
-0.004971329159915767   -0.043693469361054345   -0.0018325738172728853
-0.004650076667584949   -0.03607135545950967   -0.0018110567518069601
-0.0014149031282555385   -0.04365584089518024   -0.0017203331589888205
-0.004971329159915767   -0.043693469361054345   -0.0018325738172728853
-0.0008219114639109938   -0.03594804415945657   -0.0017681576482544994
-0.0008944417919020998   -0.035925562927113124   -0.0018506602060520186
-0.0015893957313722908   -0.04360259960489416   -0.001863666276181177
0.0030826805877546496   -0.03587859665026669   -0.0018666384823014211
-0.0008571782093223491   -0.03593338190296637   -0.0018053704872738115
-0.0015893957313722908   -0.04360259960489416   -0.001863666276181177
0.002027822367819535   -0.04351659361402411   -0.0018970732801286826
0.0030826805877546496   -0.03587859665026669   -0.0018666384823014211
0.002102866229769465   -0.043492929409616035   -0.0018084787101709386
-0.0008571782093223491   -0.03593338190296637   -0.0018053704872738115
0.003130163888935965   -0.035860050365002734   -0.0018082596953477306
0.002102866229769465   -0.043492929409616035   -0.0018084787101709386
0.0030826805877546496   -0.03587859665026669   -0.0018666384823014211
-0.0008571782093223491   -0.03593338190296637   -0.0018053704872738115
0.002102866229769465   -0.043492929409616035   -0.0018084787101709386
-0.0015280259753534743   -0.0436030481842566   -0.001807576242451712
-0.0015893957313722908   -0.04360259960489416   -0.001863666276181177
-0.0008571782093223491   -0.03593338190296637   -0.0018053704872738115
0.002102866229769465   -0.043492929409616035   -0.0018084787101709386
-0.0015893957313722908   -0.04360259960489416   -0.001863666276181177
0.0030826805877546496   -0.03587859665026669   -0.0018666384823014211
-0.0008571782093223491   -0.03593338190296637   -0.0018053704872738115
-0.0015280259753534743   -0.0436030481842566   -0.001807576242451712
0.003130163888935965   -0.035860050365002734   -0.0018082596953477306
-0.0008219114639109938   -0.03594804415945657   -0.0017681576482544994
-0.0015280259753534743   -0.0436030481842566   -0.001807576242451712
0.002102866229769465   -0.043492929409616035   -0.0018084787101709386
0.003130163888935965   -0.035860050365002734   -0.0018082596953477306
0.002179846857357241   -0.04348849016064182   -0.0017286255664243036
-0.0008219114639109938   -0.03594804415945657   -0.0017681576482544994
0.003174098796895278   -0.035850400074682966   -0.0017579323260239076
0.002179846857357241   -0.04348849016064182   -0.0017286255664243036
0.003130163888935965   -0.035860050365002734   -0.0018082596953477306
-0.0008219114639109938   -0.03594804415945657   -0.0017681576482544994
0.002179846857357241   -0.04348849016064182   -0.0017286255664243036
-0.0014682561651843317   -0.04362032077466675   -0.0017597035688603957
-0.0015280259753534743   -0.0436030481842566   -0.001807576242451712
-0.0008219114639109938   -0.03594804415945657   -0.0017681576482544994
0.002179846857357241   -0.04348849016064182   -0.0017286255664243036
-0.0015280259753534743   -0.0436030481842566   -0.001807576242451712
0.003130163888935965   -0.035860050365002734   -0.0018082596953477306
-0.0008219114639109938   -0.03594804415945657   -0.0017681576482544994
-0.0014682561651843317   -0.04362032077466675   -0.0017597035688603957
0.003174098796895278   -0.035850400074682966   -0.0017579323260239076
-0.00079192173452289   -0.03596988156974428   -0.0017393026831899498
-0.0014682561651843317   -0.04362032077466675   -0.0017597035688603957
0.002179846857357241   -0.04348849016064182   -0.0017286255664243036
0.003174098796895278   -0.035850400074682966   -0.0017579323260239076
0.002231097043507345   -0.04349973525718179   -0.0016563604028506473
-0.00079192173452289   -0.03596988156974428   -0.0017393026831899498
0.0031978298849435005   -0.035845006027060734   -0.0017151307130737513
0.002231097043507345   -0.04349973525718179   -0.0016563604028506473
0.003174098796895278   -0.035850400074682966   -0.0017579323260239076
-0.00079192173452289   -0.03596988156974428   -0.0017393026831899498
0.002231097043507345   -0.04349973525718179   -0.0016563604028506473
-0.0014149031282555385   -0.04365584089518024   -0.0017203331589888205
-0.0014682561651843317   -0.04362032077466675   -0.0017597035688603957
-0.00079192173452289   -0.03596988156974428   -0.0017393026831899498
0.002231097043507345   -0.04349973525718179   -0.0016563604028506473
-0.0014682561651843317   -0.04362032077466675   -0.0017597035688603957
0.003174098796895278   -0.035850400074682966   -0.0017579323260239076
0.0030826805877546496   -0.03587859665026669   -0.0018666384823014211
0.002027822367819535   -0.04351659361402411   -0.0018970732801286826
0.007340185363713566   -0.03579961240665924   -0.0019327903599338813
0.003130163888935965   -0.035860050365002734   -0.0018082596953477306
0.002027822367819535   -0.04351659361402411   -0.0018970732801286826
0.00587491190253036   -0.043368703807530135   -0.0019830048865782084
0.007340185363713566   -0.03579961240665924   -0.0019327903599338813
0.006074603555355158   -0.04331999135896311   -0.001854044290940465
0.003130163888935965   -0.035860050365002734   -0.0018082596953477306
0.007463841089977948   -0.03575714990829461   -0.0018560857652382822
0.006074603555355158   -0.04331999135896311   -0.001854044290940465
0.007340185363713566   -0.03579961240665924   -0.0019327903599338813
0.003130163888935965   -0.035860050365002734   -0.0018082596953477306
0.006074603555355158   -0.04331999135896311   -0.001854044290940465
0.002102866229769465   -0.043492929409616035   -0.0018084787101709386
0.002027822367819535   -0.04351659361402411   -0.0018970732801286826
0.003130163888935965   -0.035860050365002734   -0.0018082596953477306
0.006074603555355158   -0.04331999135896311   -0.001854044290940465
0.002027822367819535   -0.04351659361402411   -0.0018970732801286826
0.007340185363713566   -0.03579961240665924   -0.0019327903599338813
0.003130163888935965   -0.035860050365002734   -0.0018082596953477306
0.002102866229769465   -0.043492929409616035   -0.0018084787101709386
0.007463841089977948   -0.03575714990829461   -0.0018560857652382822
0.003174098796895278   -0.035850400074682966   -0.0017579323260239076
0.002102866229769465   -0.043492929409616035   -0.0018084787101709386
0.006074603555355158   -0.04331999135896311   -0.001854044290940465
0.007463841089977948   -0.03575714990829461   -0.0018560857652382822
0.006222544494220319   -0.04330657241991347   -0.0017367133995946778
0.003174098796895278   -0.035850400074682966   -0.0017579323260239076
0.007548939634508973   -0.035736550317202   -0.0017908529242230515
0.006222544494220319   -0.04330657241991347   -0.0017367133995946778
0.007463841089977948   -0.03575714990829461   -0.0018560857652382822
0.003174098796895278   -0.035850400074682966   -0.0017579323260239076
0.006222544494220319   -0.04330657241991347   -0.0017367133995946778
0.002179846857357241   -0.04348849016064182   -0.0017286255664243036
0.002102866229769465   -0.043492929409616035   -0.0018084787101709386
0.003174098796895278   -0.035850400074682966   -0.0017579323260239076
0.006222544494220319   -0.04330657241991347   -0.0017367133995946778
0.002102866229769465   -0.043492929409616035   -0.0018084787101709386
0.007463841089977948   -0.03575714990829461   -0.0018560857652382822
0.003174098796895278   -0.035850400074682966   -0.0017579323260239076
0.002179846857357241   -0.04348849016064182   -0.0017286255664243036
0.007548939634508973   -0.035736550317202   -0.0017908529242230515
0.0031978298849435005   -0.035845006027060734   -0.0017151307130737513
0.002179846857357241   -0.04348849016064182   -0.0017286255664243036
0.006222544494220319   -0.04330657241991347   -0.0017367133995946778
0.007548939634508973   -0.035736550317202   -0.0017908529242230515
0.006372657156957034   -0.0433064703375666   -0.001631545664916644
0.0031978298849435005   -0.035845006027060734   -0.0017151307130737513
0.007624673525516981   -0.03571422782656984   -0.0017375694189140352
0.006372657156957034   -0.0433064703375666   -0.001631545664916644
0.007548939634508973   -0.035736550317202   -0.0017908529242230515
0.0031978298849435005   -0.035845006027060734   -0.0017151307130737513
0.006372657156957034   -0.0433064703375666   -0.001631545664916644
0.002231097043507345   -0.04349973525718179   -0.0016563604028506473
0.002179846857357241   -0.04348849016064182   -0.0017286255664243036
0.0031978298849435005   -0.035845006027060734   -0.0017151307130737513
0.006372657156957034   -0.0433064703375666   -0.001631545664916644
0.002179846857357241   -0.04348849016064182   -0.0017286255664243036
0.007548939634508973   -0.035736550317202   -0.0017908529242230515
-0.012715038740746296   -0.04350743725369396   -0.0019863258018601544
-0.011604519579394812   -0.050217493605929996   -0.0018526720344169813
-0.008692712726635542   -0.043594785268059044   -0.001915960959426944
-0.012622982296043474   -0.043567357208364174   -0.0020368123953683
-0.011604519579394812   -0.050217493605929996   -0.0018526720344169813
-0.008219813324307244   -0.05037488256094052   -0.0018413979968065104
-0.008692712726635542   -0.043594785268059044   -0.001915960959426944
-0.00813550953135613   -0.05039763444186112   -0.0018786423261925157
-0.012622982296043474   -0.043567357208364174   -0.0020368123953683
-0.008641727681344288   -0.04363915935528194   -0.0019266462382679182
-0.00813550953135613   -0.05039763444186112   -0.0018786423261925157
-0.008692712726635542   -0.043594785268059044   -0.001915960959426944
-0.012622982296043474   -0.043567357208364174   -0.0020368123953683
-0.00813550953135613   -0.05039763444186112   -0.0018786423261925157
-0.011428785105897904   -0.05025124191047947   -0.0019570040315020224
-0.011604519579394812   -0.050217493605929996   -0.0018526720344169813
-0.012622982296043474   -0.043567357208364174   -0.0020368123953683
-0.00813550953135613   -0.05039763444186112   -0.0018786423261925157
-0.011604519579394812   -0.050217493605929996   -0.0018526720344169813
-0.008692712726635542   -0.043594785268059044   -0.001915960959426944
-0.012622982296043474   -0.043567357208364174   -0.0020368123953683
-0.011428785105897904   -0.05025124191047947   -0.0019570040315020224
-0.008641727681344288   -0.04363915935528194   -0.0019266462382679182
-0.012518023383519237   -0.04364099333199903   -0.0021003462056670757
-0.011428785105897904   -0.05025124191047947   -0.0019570040315020224
-0.00813550953135613   -0.05039763444186112   -0.0018786423261925157
-0.008641727681344288   -0.04363915935528194   -0.0019266462382679182
-0.008029615813217995   -0.05045220663684829   -0.0019242962895305237
-0.012518023383519237   -0.04364099333199903   -0.0021003462056670757
-0.00857275419437346   -0.04370241052835535   -0.0019456287348929835
-0.008029615813217995   -0.05045220663684829   -0.0019242962895305237
-0.008641727681344288   -0.04363915935528194   -0.0019266462382679182
-0.012518023383519237   -0.04364099333199903   -0.0021003462056670757
-0.008029615813217995   -0.05045220663684829   -0.0019242962895305237
-0.011253573221389437   -0.050315288995473245   -0.002075028459790492
-0.011428785105897904   -0.05025124191047947   -0.0019570040315020224
-0.012518023383519237   -0.04364099333199903   -0.0021003462056670757
-0.008029615813217995   -0.05045220663684829   -0.0019242962895305237
-0.011428785105897904   -0.05025124191047947   -0.0019570040315020224
-0.008641727681344288   -0.04363915935528194   -0.0019266462382679182
-0.012518023383519237   -0.04364099333199903   -0.0021003462056670757
-0.011253573221389437   -0.050315288995473245   -0.002075028459790492
-0.00857275419437346   -0.04370241052835535   -0.0019456287348929835
-0.012375187411193974   -0.043753130891435975   -0.002177173992015031
-0.011253573221389437   -0.050315288995473245   -0.002075028459790492
-0.008029615813217995   -0.05045220663684829   -0.0019242962895305237
-0.00857275419437346   -0.04370241052835535   -0.0019456287348929835
-0.007925146959425334   -0.05054170008364498   -0.001978280698897797
-0.012375187411193974   -0.043753130891435975   -0.002177173992015031
-0.00849877131308957   -0.043788400902941914   -0.001973149275137936
-0.007925146959425334   -0.05054170008364498   -0.001978280698897797
-0.00857275419437346   -0.04370241052835535   -0.0019456287348929835
-0.012375187411193974   -0.043753130891435975   -0.002177173992015031
-0.007925146959425334   -0.05054170008364498   -0.001978280698897797
-0.011029159825365379   -0.050434718457944   -0.0022064990089431464
-0.011253573221389437   -0.050315288995473245   -0.002075028459790492
-0.012375187411193974   -0.043753130891435975   -0.002177173992015031
-0.007925146959425334   -0.05054170008364498   -0.001978280698897797
-0.011253573221389437   -0.050315288995473245   -0.002075028459790492
-0.00857275419437346   -0.04370241052835535   -0.0019456287348929835
-0.008692712726635542   -0.043594785268059044   -0.001915960959426944
-0.008219813324307244   -0.05037488256094052   -0.0018413979968065104
-0.005086498571921407   -0.04362925024254869   -0.0018709483825953153
-0.008641727681344288   -0.04363915935528194   -0.0019266462382679182
-0.008219813324307244   -0.05037488256094052   -0.0018413979968065104
-0.005288141833476788   -0.050448462014935004   -0.0018369686775012964
-0.005086498571921407   -0.04362925024254869   -0.0018709483825953153
-0.005201674381941201   -0.050455900640383036   -0.0018202665875417363
-0.008641727681344288   -0.04363915935528194   -0.0019266462382679182
-0.005031008451532923   -0.043652287869409424   -0.0018476634031544532
-0.005201674381941201   -0.050455900640383036   -0.0018202665875417363
-0.005086498571921407   -0.04362925024254869   -0.0018709483825953153
-0.008641727681344288   -0.04363915935528194   -0.0019266462382679182
-0.005201674381941201   -0.050455900640383036   -0.0018202665875417363
-0.00813550953135613   -0.05039763444186112   -0.0018786423261925157
-0.008219813324307244   -0.05037488256094052   -0.0018413979968065104
-0.008641727681344288   -0.04363915935528194   -0.0019266462382679182
-0.005201674381941201   -0.050455900640383036   -0.0018202665875417363
-0.008219813324307244   -0.05037488256094052   -0.0018413979968065104
-0.005086498571921407   -0.04362925024254869   -0.0018709483825953153
-0.008641727681344288   -0.04363915935528194   -0.0019266462382679182
-0.00813550953135613   -0.05039763444186112   -0.0018786423261925157
-0.005031008451532923   -0.043652287869409424   -0.0018476634031544532
-0.00857275419437346   -0.04370241052835535   -0.0019456287348929835
-0.00813550953135613   -0.05039763444186112   -0.0018786423261925157
-0.005201674381941201   -0.050455900640383036   -0.0018202665875417363
-0.005031008451532923   -0.043652287869409424   -0.0018476634031544532
-0.005112418972517537   -0.05049175817934653   -0.0018117249942269504
-0.00857275419437346   -0.04370241052835535   -0.0019456287348929835
-0.004971329159915767   -0.043693469361054345   -0.0018325738172728853
-0.005112418972517537   -0.05049175817934653   -0.0018117249942269504
-0.005031008451532923   -0.043652287869409424   -0.0018476634031544532
-0.00857275419437346   -0.04370241052835535   -0.0019456287348929835
-0.005112418972517537   -0.05049175817934653   -0.0018117249942269504
-0.008029615813217995   -0.05045220663684829   -0.0019242962895305237
-0.00813550953135613   -0.05039763444186112   -0.0018786423261925157
-0.00857275419437346   -0.04370241052835535   -0.0019456287348929835
-0.005112418972517537   -0.05049175817934653   -0.0018117249942269504
-0.00813550953135613   -0.05039763444186112   -0.0018786423261925157
-0.005031008451532923   -0.043652287869409424   -0.0018476634031544532
-0.00857275419437346   -0.04370241052835535   -0.0019456287348929835
-0.008029615813217995   -0.05045220663684829   -0.0019242962895305237
-0.004971329159915767   -0.043693469361054345   -0.0018325738172728853
-0.00849877131308957   -0.043788400902941914   -0.001973149275137936
-0.008029615813217995   -0.05045220663684829   -0.0019242962895305237
-0.005112418972517537   -0.05049175817934653   -0.0018117249942269504
-0.004971329159915767   -0.043693469361054345   -0.0018325738172728853
-0.005023303861762528   -0.05055769575723185   -0.001811243637106749
-0.00849877131308957   -0.043788400902941914   -0.001973149275137936
-0.004909986566142869   -0.04375331238520188   -0.0018260829288412493
-0.005023303861762528   -0.05055769575723185   -0.001811243637106749
-0.004971329159915767   -0.043693469361054345   -0.0018325738172728853
-0.00849877131308957   -0.043788400902941914   -0.001973149275137936
-0.005023303861762528   -0.05055769575723185   -0.001811243637106749
-0.007925146959425334   -0.05054170008364498   -0.001978280698897797
-0.008029615813217995   -0.05045220663684829   -0.0019242962895305237
-0.00849877131308957   -0.043788400902941914   -0.001973149275137936
-0.005023303861762528   -0.05055769575723185   -0.001811243637106749
-0.008029615813217995   -0.05045220663684829   -0.0019242962895305237
-0.004971329159915767   -0.043693469361054345   -0.0018325738172728853
-0.005086498571921407   -0.04362925024254869   -0.0018709483825953153
-0.005288141833476788   -0.050448462014935004   -0.0018369686775012964
-0.0015893957313722908   -0.04360259960489416   -0.001863666276181177
-0.005031008451532923   -0.043652287869409424   -0.0018476634031544532
-0.005288141833476788   -0.050448462014935004   -0.0018369686775012964
-0.002453698764476574   -0.050434818804319215   -0.0018581134084522104
-0.0015893957313722908   -0.04360259960489416   -0.001863666276181177
-0.0023589895952446033   -0.0504250484114089   -0.0017893547613012997
-0.005031008451532923   -0.043652287869409424   -0.0018476634031544532
-0.0015280259753534743   -0.0436030481842566   -0.001807576242451712
-0.0023589895952446033   -0.0504250484114089   -0.0017893547613012997
-0.0015893957313722908   -0.04360259960489416   -0.001863666276181177
-0.005031008451532923   -0.043652287869409424   -0.0018476634031544532
-0.0023589895952446033   -0.0504250484114089   -0.0017893547613012997
-0.005201674381941201   -0.050455900640383036   -0.0018202665875417363
-0.005288141833476788   -0.050448462014935004   -0.0018369686775012964
-0.005031008451532923   -0.043652287869409424   -0.0018476634031544532
-0.0023589895952446033   -0.0504250484114089   -0.0017893547613012997
-0.005288141833476788   -0.050448462014935004   -0.0018369686775012964
-0.0015893957313722908   -0.04360259960489416   -0.001863666276181177
-0.005031008451532923   -0.043652287869409424   -0.0018476634031544532
-0.005201674381941201   -0.050455900640383036   -0.0018202665875417363
-0.0015280259753534743   -0.0436030481842566   -0.001807576242451712
-0.004971329159915767   -0.043693469361054345   -0.0018325738172728853
-0.005201674381941201   -0.050455900640383036   -0.0018202665875417363
-0.0023589895952446033   -0.0504250484114089   -0.0017893547613012997
-0.0015280259753534743   -0.0436030481842566   -0.001807576242451712
-0.0022670576877422783   -0.05044099205226477   -0.001729295442574017
-0.004971329159915767   -0.043693469361054345   -0.0018325738172728853
-0.0014682561651843317   -0.04362032077466675   -0.0017597035688603957
-0.0022670576877422783   -0.05044099205226477   -0.001729295442574017
-0.0015280259753534743   -0.0436030481842566   -0.001807576242451712
-0.004971329159915767   -0.043693469361054345   -0.0018325738172728853
-0.0022670576877422783   -0.05044099205226477   -0.001729295442574017
-0.005112418972517537   -0.05049175817934653   -0.0018117249942269504
-0.005201674381941201   -0.050455900640383036   -0.0018202665875417363
-0.004971329159915767   -0.043693469361054345   -0.0018325738172728853
-0.0022670576877422783   -0.05044099205226477   -0.001729295442574017
-0.005201674381941201   -0.050455900640383036   -0.0018202665875417363
-0.0015280259753534743   -0.0436030481842566   -0.001807576242451712
-0.004971329159915767   -0.043693469361054345   -0.0018325738172728853
-0.005112418972517537   -0.05049175817934653   -0.0018117249942269504
-0.0014682561651843317   -0.04362032077466675   -0.0017597035688603957
-0.004909986566142869   -0.04375331238520188   -0.0018260829288412493
-0.005112418972517537   -0.05049175817934653   -0.0018117249942269504
-0.0022670576877422783   -0.05044099205226477   -0.001729295442574017
-0.0014682561651843317   -0.04362032077466675   -0.0017597035688603957
-0.002183986107100756   -0.05048635202025096   -0.0016771843929838848
-0.004909986566142869   -0.04375331238520188   -0.0018260829288412493
-0.0014149031282555385   -0.04365584089518024   -0.0017203331589888205
-0.002183986107100756   -0.05048635202025096   -0.0016771843929838848
-0.0014682561651843317   -0.04362032077466675   -0.0017597035688603957
-0.004909986566142869   -0.04375331238520188   -0.0018260829288412493
-0.002183986107100756   -0.05048635202025096   -0.0016771843929838848
-0.005023303861762528   -0.05055769575723185   -0.001811243637106749
-0.005112418972517537   -0.05049175817934653   -0.0018117249942269504
-0.004909986566142869   -0.04375331238520188   -0.0018260829288412493
-0.002183986107100756   -0.05048635202025096   -0.0016771843929838848
-0.005112418972517537   -0.05049175817934653   -0.0018117249942269504
-0.0014682561651843317   -0.04362032077466675   -0.0017597035688603957
-0.0015893957313722908   -0.04360259960489416   -0.001863666276181177
-0.002453698764476574   -0.050434818804319215   -0.0018581134084522104
0.002027822367819535   -0.04351659361402411   -0.0018970732801286826
-0.0015280259753534743   -0.0436030481842566   -0.001807576242451712
-0.002453698764476574   -0.050434818804319215   -0.0018581134084522104
0.0005128910204608115   -0.05033082693339493   -0.0019094296900695317
0.002027822367819535   -0.04351659361402411   -0.0018970732801286826
0.0006281347399321013   -0.05029922115625155   -0.0017887847392091048
-0.0015280259753534743   -0.0436030481842566   -0.001807576242451712
0.002102866229769465   -0.043492929409616035   -0.0018084787101709386
0.0006281347399321013   -0.05029922115625155   -0.0017887847392091048
0.002027822367819535   -0.04351659361402411   -0.0018970732801286826
-0.0015280259753534743   -0.0436030481842566   -0.001807576242451712
0.0006281347399321013   -0.05029922115625155   -0.0017887847392091048
-0.0023589895952446033   -0.0504250484114089   -0.0017893547613012997
-0.002453698764476574   -0.050434818804319215   -0.0018581134084522104
-0.0015280259753534743   -0.0436030481842566   -0.001807576242451712
0.0006281347399321013   -0.05029922115625155   -0.0017887847392091048
-0.002453698764476574   -0.050434818804319215   -0.0018581134084522104
0.002027822367819535   -0.04351659361402411   -0.0018970732801286826
-0.0015280259753534743   -0.0436030481842566   -0.001807576242451712
-0.0023589895952446033   -0.0504250484114089   -0.0017893547613012997
0.002102866229769465   -0.043492929409616035   -0.0018084787101709386
-0.0014682561651843317   -0.04362032077466675   -0.0017597035688603957
-0.0023589895952446033   -0.0504250484114089   -0.0017893547613012997
0.0006281347399321013   -0.05029922115625155   -0.0017887847392091048
0.002102866229769465   -0.043492929409616035   -0.0018084787101709386
0.0007496324319671353   -0.05029636294365972   -0.0016791632725857808
-0.0014682561651843317   -0.04362032077466675   -0.0017597035688603957
0.002179846857357241   -0.04348849016064182   -0.0017286255664243036
0.0007496324319671353   -0.05029636294365972   -0.0016791632725857808
0.002102866229769465   -0.043492929409616035   -0.0018084787101709386
-0.0014682561651843317   -0.04362032077466675   -0.0017597035688603957
0.0007496324319671353   -0.05029636294365972   -0.0016791632725857808
-0.0022670576877422783   -0.05044099205226477   -0.001729295442574017
-0.0023589895952446033   -0.0504250484114089   -0.0017893547613012997
-0.0014682561651843317   -0.04362032077466675   -0.0017597035688603957
0.0007496324319671353   -0.05029636294365972   -0.0016791632725857808
-0.0023589895952446033   -0.0504250484114089   -0.0017893547613012997
0.002102866229769465   -0.043492929409616035   -0.0018084787101709386
-0.0014682561651843317   -0.04362032077466675   -0.0017597035688603957
-0.0022670576877422783   -0.05044099205226477   -0.001729295442574017
0.002179846857357241   -0.04348849016064182   -0.0017286255664243036
-0.0014149031282555385   -0.04365584089518024   -0.0017203331589888205
-0.0022670576877422783   -0.05044099205226477   -0.001729295442574017
0.0007496324319671353   -0.05029636294365972   -0.0016791632725857808
0.002179846857357241   -0.04348849016064182   -0.0017286255664243036
0.0008384905067607691   -0.05032093713343128   -0.0015771301913691117
-0.0014149031282555385   -0.04365584089518024   -0.0017203331589888205
0.002231097043507345   -0.04349973525718179   -0.0016563604028506473
0.0008384905067607691   -0.05032093713343128   -0.0015771301913691117
0.002179846857357241   -0.04348849016064182   -0.0017286255664243036
-0.0014149031282555385   -0.04365584089518024   -0.0017203331589888205
0.0008384905067607691   -0.05032093713343128   -0.0015771301913691117
-0.002183986107100756   -0.05048635202025096   -0.0016771843929838848
-0.0022670576877422783   -0.05044099205226477   -0.001729295442574017
-0.0014149031282555385   -0.04365584089518024   -0.0017203331589888205
0.0008384905067607691   -0.05032093713343128   -0.0015771301913691117
-0.0022670576877422783   -0.05044099205226477   -0.001729295442574017
0.002179846857357241   -0.04348849016064182   -0.0017286255664243036
0.002027822367819535   -0.04351659361402411   -0.0018970732801286826
0.0005128910204608115   -0.05033082693339493   -0.0019094296900695317
0.00587491190253036   -0.043368703807530135   -0.0019830048865782084
0.002102866229769465   -0.043492929409616035   -0.0018084787101709386
0.0005128910204608115   -0.05033082693339493   -0.0019094296900695317
0.0036743287675036177   -0.050126646687421256   -0.0020189141869759817
0.00587491190253036   -0.043368703807530135   -0.0019830048865782084
0.003966593042988395   -0.050066026003563704   -0.0018342488973810392
0.002102866229769465   -0.043492929409616035   -0.0018084787101709386
0.006074603555355158   -0.04331999135896311   -0.001854044290940465
0.003966593042988395   -0.050066026003563704   -0.0018342488973810392
0.00587491190253036   -0.043368703807530135   -0.0019830048865782084
0.002102866229769465   -0.043492929409616035   -0.0018084787101709386
0.003966593042988395   -0.050066026003563704   -0.0018342488973810392
0.0006281347399321013   -0.05029922115625155   -0.0017887847392091048
0.0005128910204608115   -0.05033082693339493   -0.0019094296900695317
0.002102866229769465   -0.043492929409616035   -0.0018084787101709386
0.003966593042988395   -0.050066026003563704   -0.0018342488973810392
0.0005128910204608115   -0.05033082693339493   -0.0019094296900695317
0.00587491190253036   -0.043368703807530135   -0.0019830048865782084
0.002102866229769465   -0.043492929409616035   -0.0018084787101709386
0.0006281347399321013   -0.05029922115625155   -0.0017887847392091048
0.006074603555355158   -0.04331999135896311   -0.001854044290940465
0.002179846857357241   -0.04348849016064182   -0.0017286255664243036
0.0006281347399321013   -0.05029922115625155   -0.0017887847392091048
0.003966593042988395   -0.050066026003563704   -0.0018342488973810392
0.006074603555355158   -0.04331999135896311   -0.001854044290940465
0.004190706397828314   -0.05005552767148037   -0.001663255324290075
0.002179846857357241   -0.04348849016064182   -0.0017286255664243036
0.006222544494220319   -0.04330657241991347   -0.0017367133995946778
0.004190706397828314   -0.05005552767148037   -0.001663255324290075
0.006074603555355158   -0.04331999135896311   -0.001854044290940465
0.002179846857357241   -0.04348849016064182   -0.0017286255664243036
0.004190706397828314   -0.05005552767148037   -0.001663255324290075
0.0007496324319671353   -0.05029636294365972   -0.0016791632725857808
0.0006281347399321013   -0.05029922115625155   -0.0017887847392091048
0.002179846857357241   -0.04348849016064182   -0.0017286255664243036
0.004190706397828314   -0.05005552767148037   -0.001663255324290075
0.0006281347399321013   -0.05029922115625155   -0.0017887847392091048
0.006074603555355158   -0.04331999135896311   -0.001854044290940465
0.002179846857357241   -0.04348849016064182   -0.0017286255664243036
0.0007496324319671353   -0.05029636294365972   -0.0016791632725857808
0.006222544494220319   -0.04330657241991347   -0.0017367133995946778
0.002231097043507345   -0.04349973525718179   -0.0016563604028506473
0.0007496324319671353   -0.05029636294365972   -0.0016791632725857808
0.004190706397828314   -0.05005552767148037   -0.001663255324290075
0.006222544494220319   -0.04330657241991347   -0.0017367133995946778
0.004423056971368079   -0.050073565010978136   -0.0015073276564096948
0.002231097043507345   -0.04349973525718179   -0.0016563604028506473
0.006372657156957034   -0.0433064703375666   -0.001631545664916644
0.004423056971368079   -0.050073565010978136   -0.0015073276564096948
0.006222544494220319   -0.04330657241991347   -0.0017367133995946778
0.002231097043507345   -0.04349973525718179   -0.0016563604028506473
0.004423056971368079   -0.050073565010978136   -0.0015073276564096948
0.0008384905067607691   -0.05032093713343128   -0.0015771301913691117
0.0007496324319671353   -0.05029636294365972   -0.0016791632725857808
0.002231097043507345   -0.04349973525718179   -0.0016563604028506473
0.004423056971368079   -0.050073565010978136   -0.0015073276564096948
0.0007496324319671353   -0.05029636294365972   -0.0016791632725857808
0.006222544494220319   -0.04330657241991347   -0.0017367133995946778
-0.011604519579394812   -0.050217493605929996   -0.0018526720344169813
-0.00972245245493576   -0.055483415086641355   -0.0016811870139888112
-0.008219813324307244   -0.05037488256094052   -0.0018413979968065104
-0.011428785105897904   -0.05025124191047947   -0.0019570040315020224
-0.00972245245493576   -0.055483415086641355   -0.0016811870139888112
-0.0073132922165755985   -0.05571626948548009   -0.0017509866196856521
-0.008219813324307244   -0.05037488256094052   -0.0018413979968065104
-0.007192075859853307   -0.0557043457125388   -0.001808293275566723
-0.011428785105897904   -0.05025124191047947   -0.0019570040315020224
-0.00813550953135613   -0.05039763444186112   -0.0018786423261925157
-0.007192075859853307   -0.0557043457125388   -0.001808293275566723
-0.008219813324307244   -0.05037488256094052   -0.0018413979968065104
-0.011428785105897904   -0.05025124191047947   -0.0019570040315020224
-0.007192075859853307   -0.0557043457125388   -0.001808293275566723
-0.009460835835437623   -0.05547690663328477   -0.0018356863840309258
-0.00972245245493576   -0.055483415086641355   -0.0016811870139888112
-0.011428785105897904   -0.05025124191047947   -0.0019570040315020224
-0.007192075859853307   -0.0557043457125388   -0.001808293275566723
-0.00972245245493576   -0.055483415086641355   -0.0016811870139888112
-0.008219813324307244   -0.05037488256094052   -0.0018413979968065104
-0.011428785105897904   -0.05025124191047947   -0.0019570040315020224
-0.009460835835437623   -0.05547690663328477   -0.0018356863840309258
-0.00813550953135613   -0.05039763444186112   -0.0018786423261925157
-0.011253573221389437   -0.050315288995473245   -0.002075028459790492
-0.009460835835437623   -0.05547690663328477   -0.0018356863840309258
-0.007192075859853307   -0.0557043457125388   -0.001808293275566723
-0.00813550953135613   -0.05039763444186112   -0.0018786423261925157
-0.007049457050598139   -0.05573798459824895   -0.0018741826448767443
-0.011253573221389437   -0.050315288995473245   -0.002075028459790492
-0.008029615813217995   -0.05045220663684829   -0.0019242962895305237
-0.007049457050598139   -0.05573798459824895   -0.0018741826448767443
-0.00813550953135613   -0.05039763444186112   -0.0018786423261925157
-0.011253573221389437   -0.050315288995473245   -0.002075028459790492
-0.007049457050598139   -0.05573798459824895   -0.0018741826448767443
-0.009219731466623205   -0.05551844918594937   -0.002002276935264904
-0.009460835835437623   -0.05547690663328477   -0.0018356863840309258
-0.011253573221389437   -0.050315288995473245   -0.002075028459790492
-0.007049457050598139   -0.05573798459824895   -0.0018741826448767443
-0.009460835835437623   -0.05547690663328477   -0.0018356863840309258
-0.00813550953135613   -0.05039763444186112   -0.0018786423261925157
-0.011253573221389437   -0.050315288995473245   -0.002075028459790492
-0.009219731466623205   -0.05551844918594937   -0.002002276935264904
-0.008029615813217995   -0.05045220663684829   -0.0019242962895305237
-0.011029159825365379   -0.050434718457944   -0.0022064990089431464
-0.009219731466623205   -0.05551844918594937   -0.002002276935264904
-0.007049457050598139   -0.05573798459824895   -0.0018741826448767443
-0.008029615813217995   -0.05045220663684829   -0.0019242962895305237
-0.006920076540274181   -0.055817960079546716   -0.0019481068018178376
-0.011029159825365379   -0.050434718457944   -0.0022064990089431464
-0.007925146959425334   -0.05054170008364498   -0.001978280698897797
-0.006920076540274181   -0.055817960079546716   -0.0019481068018178376
-0.008029615813217995   -0.05045220663684829   -0.0019242962895305237
-0.011029159825365379   -0.050434718457944   -0.0022064990089431464
-0.006920076540274181   -0.055817960079546716   -0.0019481068018178376
-0.008925630485017962   -0.0556292250177753   -0.0021802520421170236
-0.009219731466623205   -0.05551844918594937   -0.002002276935264904
-0.011029159825365379   -0.050434718457944   -0.0022064990089431464
-0.006920076540274181   -0.055817960079546716   -0.0019481068018178376
-0.009219731466623205   -0.05551844918594937   -0.002002276935264904
-0.008029615813217995   -0.05045220663684829   -0.0019242962895305237
-0.008219813324307244   -0.05037488256094052   -0.0018413979968065104
-0.0073132922165755985   -0.05571626948548009   -0.0017509866196856521
-0.005288141833476788   -0.050448462014935004   -0.0018369686775012964
-0.00813550953135613   -0.05039763444186112   -0.0018786423261925157
-0.0073132922165755985   -0.05571626948548009   -0.0017509866196856521
-0.005343840687254065   -0.05586687224192701   -0.0018056228548166914
-0.005288141833476788   -0.050448462014935004   -0.0018369686775012964
-0.005219500876735412   -0.05584769723624517   -0.0017881012679453348
-0.00813550953135613   -0.05039763444186112   -0.0018786423261925157
-0.005201674381941201   -0.050455900640383036   -0.0018202665875417363
-0.005219500876735412   -0.05584769723624517   -0.0017881012679453348
-0.005288141833476788   -0.050448462014935004   -0.0018369686775012964
-0.00813550953135613   -0.05039763444186112   -0.0018786423261925157
-0.005219500876735412   -0.05584769723624517   -0.0017881012679453348
-0.007192075859853307   -0.0557043457125388   -0.001808293275566723
-0.0073132922165755985   -0.05571626948548009   -0.0017509866196856521
-0.00813550953135613   -0.05039763444186112   -0.0018786423261925157
-0.005219500876735412   -0.05584769723624517   -0.0017881012679453348
-0.0073132922165755985   -0.05571626948548009   -0.0017509866196856521
-0.005288141833476788   -0.050448462014935004   -0.0018369686775012964
-0.00813550953135613   -0.05039763444186112   -0.0018786423261925157
-0.007192075859853307   -0.0557043457125388   -0.001808293275566723
-0.005201674381941201   -0.050455900640383036   -0.0018202665875417363
-0.008029615813217995   -0.05045220663684829   -0.0019242962895305237
-0.007192075859853307   -0.0557043457125388   -0.001808293275566723
-0.005219500876735412   -0.05584769723624517   -0.0017881012679453348
-0.005201674381941201   -0.050455900640383036   -0.0018202665875417363
-0.005096881783839956   -0.055867866191912564   -0.001778919181836822
-0.008029615813217995   -0.05045220663684829   -0.0019242962895305237
-0.005112418972517537   -0.05049175817934653   -0.0018117249942269504
-0.005096881783839956   -0.055867866191912564   -0.001778919181836822
-0.005201674381941201   -0.050455900640383036   -0.0018202665875417363
-0.008029615813217995   -0.05045220663684829   -0.0019242962895305237
-0.005096881783839956   -0.055867866191912564   -0.001778919181836822
-0.007049457050598139   -0.05573798459824895   -0.0018741826448767443
-0.007192075859853307   -0.0557043457125388   -0.001808293275566723
-0.008029615813217995   -0.05045220663684829   -0.0019242962895305237
-0.005096881783839956   -0.055867866191912564   -0.001778919181836822
-0.007192075859853307   -0.0557043457125388   -0.001808293275566723
-0.005201674381941201   -0.050455900640383036   -0.0018202665875417363
-0.008029615813217995   -0.05045220663684829   -0.0019242962895305237
-0.007049457050598139   -0.05573798459824895   -0.0018741826448767443
-0.005112418972517537   -0.05049175817934653   -0.0018117249942269504
-0.007925146959425334   -0.05054170008364498   -0.001978280698897797
-0.007049457050598139   -0.05573798459824895   -0.0018741826448767443
-0.005096881783839956   -0.055867866191912564   -0.001778919181836822
-0.005112418972517537   -0.05049175817934653   -0.0018117249942269504
-0.0049840274609677755   -0.05592867465861494   -0.0017798186287479923
-0.007925146959425334   -0.05054170008364498   -0.001978280698897797
-0.005023303861762528   -0.05055769575723185   -0.001811243637106749
-0.0049840274609677755   -0.05592867465861494   -0.0017798186287479923
-0.005112418972517537   -0.05049175817934653   -0.0018117249942269504
-0.007925146959425334   -0.05054170008364498   -0.001978280698897797
-0.0049840274609677755   -0.05592867465861494   -0.0017798186287479923
-0.006920076540274181   -0.055817960079546716   -0.0019481068018178376
-0.007049457050598139   -0.05573798459824895   -0.0018741826448767443
-0.007925146959425334   -0.05054170008364498   -0.001978280698897797
-0.0049840274609677755   -0.05592867465861494   -0.0017798186287479923
-0.007049457050598139   -0.05573798459824895   -0.0018741826448767443
-0.005112418972517537   -0.05049175817934653   -0.0018117249942269504
-0.005288141833476788   -0.050448462014935004   -0.0018369686775012964
-0.005343840687254065   -0.05586687224192701   -0.0018056228548166914
-0.002453698764476574   -0.050434818804319215   -0.0018581134084522104
-0.005201674381941201   -0.050455900640383036   -0.0018202665875417363
-0.005343840687254065   -0.05586687224192701   -0.0018056228548166914
-0.0034574057720623613   -0.05594549537196538   -0.0018702964834283614
-0.002453698764476574   -0.050434818804319215   -0.0018581134084522104
-0.003317250180702099   -0.055917763692240725   -0.0017821876042807335
-0.005201674381941201   -0.050455900640383036   -0.0018202665875417363
-0.0023589895952446033   -0.0504250484114089   -0.0017893547613012997
-0.003317250180702099   -0.055917763692240725   -0.0017821876042807335
-0.002453698764476574   -0.050434818804319215   -0.0018581134084522104
-0.005201674381941201   -0.050455900640383036   -0.0018202665875417363
-0.003317250180702099   -0.055917763692240725   -0.0017821876042807335
-0.005219500876735412   -0.05584769723624517   -0.0017881012679453348
-0.005343840687254065   -0.05586687224192701   -0.0018056228548166914
-0.005201674381941201   -0.050455900640383036   -0.0018202665875417363
-0.003317250180702099   -0.055917763692240725   -0.0017821876042807335
-0.005343840687254065   -0.05586687224192701   -0.0018056228548166914
-0.002453698764476574   -0.050434818804319215   -0.0018581134084522104
-0.005201674381941201   -0.050455900640383036   -0.0018202665875417363
-0.005219500876735412   -0.05584769723624517   -0.0017881012679453348
-0.0023589895952446033   -0.0504250484114089   -0.0017893547613012997
-0.005112418972517537   -0.05049175817934653   -0.0018117249942269504
-0.005219500876735412   -0.05584769723624517   -0.0017881012679453348
-0.003317250180702099   -0.055917763692240725   -0.0017821876042807335
-0.0023589895952446033   -0.0504250484114089   -0.0017893547613012997
-0.003183624315488144   -0.05592465551679191   -0.001701461999438476
-0.005112418972517537   -0.05049175817934653   -0.0018117249942269504
-0.0022670576877422783   -0.05044099205226477   -0.001729295442574017
-0.003183624315488144   -0.05592465551679191   -0.001701461999438476
-0.0023589895952446033   -0.0504250484114089   -0.0017893547613012997
-0.005112418972517537   -0.05049175817934653   -0.0018117249942269504
-0.003183624315488144   -0.05592465551679191   -0.001701461999438476
-0.005096881783839956   -0.055867866191912564   -0.001778919181836822
-0.005219500876735412   -0.05584769723624517   -0.0017881012679453348
-0.005112418972517537   -0.05049175817934653   -0.0018117249942269504
-0.003183624315488144   -0.05592465551679191   -0.001701461999438476
-0.005219500876735412   -0.05584769723624517   -0.0017881012679453348
-0.0023589895952446033   -0.0504250484114089   -0.0017893547613012997
-0.005112418972517537   -0.05049175817934653   -0.0018117249942269504
-0.005096881783839956   -0.055867866191912564   -0.001778919181836822
-0.0022670576877422783   -0.05044099205226477   -0.001729295442574017
-0.005023303861762528   -0.05055769575723185   -0.001811243637106749
-0.005096881783839956   -0.055867866191912564   -0.001778919181836822
-0.003183624315488144   -0.05592465551679191   -0.001701461999438476
-0.0022670576877422783   -0.05044099205226477   -0.001729295442574017
-0.0030724465305461816   -0.055972867248385676   -0.0016327059913488987
-0.005023303861762528   -0.05055769575723185   -0.001811243637106749
-0.002183986107100756   -0.05048635202025096   -0.0016771843929838848
-0.0030724465305461816   -0.055972867248385676   -0.0016327059913488987
-0.0022670576877422783   -0.05044099205226477   -0.001729295442574017
-0.005023303861762528   -0.05055769575723185   -0.001811243637106749
-0.0030724465305461816   -0.055972867248385676   -0.0016327059913488987
-0.0049840274609677755   -0.05592867465861494   -0.0017798186287479923
-0.005096881783839956   -0.055867866191912564   -0.001778919181836822
-0.005023303861762528   -0.05055769575723185   -0.001811243637106749
-0.0030724465305461816   -0.055972867248385676   -0.0016327059913488987
-0.005096881783839956   -0.055867866191912564   -0.001778919181836822
-0.0022670576877422783   -0.05044099205226477   -0.001729295442574017
-0.002453698764476574   -0.050434818804319215   -0.0018581134084522104
-0.0034574057720623613   -0.05594549537196538   -0.0018702964834283614
0.0005128910204608115   -0.05033082693339493   -0.0019094296900695317
-0.0023589895952446033   -0.0504250484114089   -0.0017893547613012997
-0.0034574057720623613   -0.05594549537196538   -0.0018702964834283614
-0.0014521432527184088   -0.05592455716519657   -0.0019465715074398087
0.0005128910204608115   -0.05033082693339493   -0.0019094296900695317
-0.001272193319976777   -0.055881063909473096   -0.0017909063099431927
-0.0023589895952446033   -0.0504250484114089   -0.0017893547613012997
0.0006281347399321013   -0.05029922115625155   -0.0017887847392091048
-0.001272193319976777   -0.055881063909473096   -0.0017909063099431927
0.0005128910204608115   -0.05033082693339493   -0.0019094296900695317
-0.0023589895952446033   -0.0504250484114089   -0.0017893547613012997
-0.001272193319976777   -0.055881063909473096   -0.0017909063099431927
-0.003317250180702099   -0.055917763692240725   -0.0017821876042807335
-0.0034574057720623613   -0.05594549537196538   -0.0018702964834283614
-0.0023589895952446033   -0.0504250484114089   -0.0017893547613012997
-0.001272193319976777   -0.055881063909473096   -0.0017909063099431927
-0.0034574057720623613   -0.05594549537196538   -0.0018702964834283614
0.0005128910204608115   -0.05033082693339493   -0.0019094296900695317
-0.0023589895952446033   -0.0504250484114089   -0.0017893547613012997
-0.003317250180702099   -0.055917763692240725   -0.0017821876042807335
0.0006281347399321013   -0.05029922115625155   -0.0017887847392091048
-0.0022670576877422783   -0.05044099205226477   -0.001729295442574017
-0.003317250180702099   -0.055917763692240725   -0.0017821876042807335
-0.001272193319976777   -0.055881063909473096   -0.0017909063099431927
0.0006281347399321013   -0.05029922115625155   -0.0017887847392091048
-0.0010881103260850938   -0.055873452511340835   -0.0016431325583498482
-0.0022670576877422783   -0.05044099205226477   -0.001729295442574017
0.0007496324319671353   -0.05029636294365972   -0.0016791632725857808
-0.0010881103260850938   -0.055873452511340835   -0.0016431325583498482
0.0006281347399321013   -0.05029922115625155   -0.0017887847392091048
-0.0022670576877422783   -0.05044099205226477   -0.001729295442574017
-0.0010881103260850938   -0.055873452511340835   -0.0016431325583498482
-0.003183624315488144   -0.05592465551679191   -0.001701461999438476
-0.003317250180702099   -0.055917763692240725   -0.0017821876042807335
-0.0022670576877422783   -0.05044099205226477   -0.001729295442574017
-0.0010881103260850938   -0.055873452511340835   -0.0016431325583498482
-0.003317250180702099   -0.055917763692240725   -0.0017821876042807335
0.0006281347399321013   -0.05029922115625155   -0.0017887847392091048
-0.0022670576877422783   -0.05044099205226477   -0.001729295442574017
-0.003183624315488144   -0.05592465551679191   -0.001701461999438476
0.0007496324319671353   -0.05029636294365972   -0.0016791632725857808
-0.002183986107100756   -0.05048635202025096   -0.0016771843929838848
-0.003183624315488144   -0.05592465551679191   -0.001701461999438476
-0.0010881103260850938   -0.055873452511340835   -0.0016431325583498482
0.0007496324319671353   -0.05029636294365972   -0.0016791632725857808
-0.0009518266121820191   -0.05590940954951391   -0.0015088689161120276
-0.002183986107100756   -0.05048635202025096   -0.0016771843929838848
0.0008384905067607691   -0.05032093713343128   -0.0015771301913691117
-0.0009518266121820191   -0.05590940954951391   -0.0015088689161120276
0.0007496324319671353   -0.05029636294365972   -0.0016791632725857808
-0.002183986107100756   -0.05048635202025096   -0.0016771843929838848
-0.0009518266121820191   -0.05590940954951391   -0.0015088689161120276
-0.0030724465305461816   -0.055972867248385676   -0.0016327059913488987
-0.003183624315488144   -0.05592465551679191   -0.001701461999438476
-0.002183986107100756   -0.05048635202025096   -0.0016771843929838848
-0.0009518266121820191   -0.05590940954951391   -0.0015088689161120276
-0.003183624315488144   -0.05592465551679191   -0.001701461999438476
0.0007496324319671353   -0.05029636294365972   -0.0016791632725857808
0.0005128910204608115   -0.05033082693339493   -0.0019094296900695317
-0.0014521432527184088   -0.05592455716519657   -0.0019465715074398087
0.0036743287675036177   -0.050126646687421256   -0.0020189141869759817
0.0006281347399321013   -0.05029922115625155   -0.0017887847392091048
-0.0014521432527184088   -0.05592455716519657   -0.0019465715074398087
0.000704616864311019   -0.05573160415957088   -0.002102558925724872
0.0036743287675036177   -0.050126646687421256   -0.0020189141869759817
0.00112480412023175   -0.055637062163462384   -0.001847978329238502
0.0006281347399321013   -0.05029922115625155   -0.0017887847392091048
0.003966593042988395   -0.050066026003563704   -0.0018342488973810392
0.00112480412023175   -0.055637062163462384   -0.001847978329238502
0.0036743287675036177   -0.050126646687421256   -0.0020189141869759817
0.0006281347399321013   -0.05029922115625155   -0.0017887847392091048
0.00112480412023175   -0.055637062163462384   -0.001847978329238502
-0.001272193319976777   -0.055881063909473096   -0.0017909063099431927
-0.0014521432527184088   -0.05592455716519657   -0.0019465715074398087
0.0006281347399321013   -0.05029922115625155   -0.0017887847392091048
0.00112480412023175   -0.055637062163462384   -0.001847978329238502
-0.0014521432527184088   -0.05592455716519657   -0.0019465715074398087
0.0036743287675036177   -0.050126646687421256   -0.0020189141869759817
0.0006281347399321013   -0.05029922115625155   -0.0017887847392091048
-0.001272193319976777   -0.055881063909473096   -0.0017909063099431927
0.003966593042988395   -0.050066026003563704   -0.0018342488973810392
0.0007496324319671353   -0.05029636294365972   -0.0016791632725857808
-0.001272193319976777   -0.055881063909473096   -0.0017909063099431927
0.00112480412023175   -0.055637062163462384   -0.001847978329238502
0.003966593042988395   -0.050066026003563704   -0.0018342488973810392
0.0014549745521975032   -0.05561796616279642   -0.001608876733401434
0.0007496324319671353   -0.05029636294365972   -0.0016791632725857808
0.004190706397828314   -0.05005552767148037   -0.001663255324290075
0.0014549745521975032   -0.05561796616279642   -0.001608876733401434
0.003966593042988395   -0.050066026003563704   -0.0018342488973810392
0.0007496324319671353   -0.05029636294365972   -0.0016791632725857808
0.0014549745521975032   -0.05561796616279642   -0.001608876733401434
-0.0010881103260850938   -0.055873452511340835   -0.0016431325583498482
-0.001272193319976777   -0.055881063909473096   -0.0017909063099431927
0.0007496324319671353   -0.05029636294365972   -0.0016791632725857808
0.0014549745521975032   -0.05561796616279642   -0.001608876733401434
-0.001272193319976777   -0.055881063909473096   -0.0017909063099431927
0.003966593042988395   -0.050066026003563704   -0.0018342488973810392
0.0007496324319671353   -0.05029636294365972   -0.0016791632725857808
-0.0010881103260850938   -0.055873452511340835   -0.0016431325583498482
0.004190706397828314   -0.05005552767148037   -0.001663255324290075
0.0008384905067607691   -0.05032093713343128   -0.0015771301913691117
-0.0010881103260850938   -0.055873452511340835   -0.0016431325583498482
0.0014549745521975032   -0.05561796616279642   -0.001608876733401434
0.004190706397828314   -0.05005552767148037   -0.001663255324290075
0.0017982895786264731   -0.055634277957124924   -0.001390430931163038
0.0008384905067607691   -0.05032093713343128   -0.0015771301913691117
0.004423056971368079   -0.050073565010978136   -0.0015073276564096948
0.0017982895786264731   -0.055634277957124924   -0.001390430931163038
0.004190706397828314   -0.05005552767148037   -0.001663255324290075
0.0008384905067607691   -0.05032093713343128   -0.0015771301913691117
0.0017982895786264731   -0.055634277957124924   -0.001390430931163038
-0.0009518266121820191   -0.05590940954951391   -0.0015088689161120276
-0.0010881103260850938   -0.055873452511340835   -0.0016431325583498482
0.0008384905067607691   -0.05032093713343128   -0.0015771301913691117
0.0017982895786264731   -0.055634277957124924   -0.001390430931163038
-0.0010881103260850938   -0.055873452511340835   -0.0016431325583498482
0.004190706397828314   -0.05005552767148037   -0.001663255324290075
-0.00972245245493576   -0.055483415086641355   -0.0016811870139888112
-0.007137020239970719   -0.05861498943636588   -0.001479687125031562
-0.0073132922165755985   -0.05571626948548009   -0.0017509866196856521
-0.009460835835437623   -0.05547690663328477   -0.0018356863840309258
-0.007137020239970719   -0.05861498943636588   -0.001479687125031562
-0.006014203158081941   -0.05890932143241861   -0.0016563345049931872
-0.0073132922165755985   -0.05571626948548009   -0.0017509866196856521
-0.005861413629253237   -0.05885132621577352   -0.0017173685837756926
-0.009460835835437623   -0.05547690663328477   -0.0018356863840309258
-0.007192075859853307   -0.0557043457125388   -0.001808293275566723
-0.005861413629253237   -0.05885132621577352   -0.0017173685837756926
-0.0073132922165755985   -0.05571626948548009   -0.0017509866196856521
-0.009460835835437623   -0.05547690663328477   -0.0018356863840309258
-0.005861413629253237   -0.05885132621577352   -0.0017173685837756926
-0.0068111947829287926   -0.058549630161601245   -0.0016650041137740539
-0.007137020239970719   -0.05861498943636588   -0.001479687125031562
-0.009460835835437623   -0.05547690663328477   -0.0018356863840309258
-0.005861413629253237   -0.05885132621577352   -0.0017173685837756926
-0.007137020239970719   -0.05861498943636588   -0.001479687125031562
-0.0073132922165755985   -0.05571626948548009   -0.0017509866196856521
-0.009460835835437623   -0.05547690663328477   -0.0018356863840309258
-0.0068111947829287926   -0.058549630161601245   -0.0016650041137740539
-0.007192075859853307   -0.0557043457125388   -0.001808293275566723
-0.009219731466623205   -0.05551844918594937   -0.002002276935264904
-0.0068111947829287926   -0.058549630161601245   -0.0016650041137740539
-0.005861413629253237   -0.05885132621577352   -0.0017173685837756926
-0.007192075859853307   -0.0557043457125388   -0.001808293275566723
-0.00569211163296522   -0.05885441041322496   -0.0017790250234341744
-0.009219731466623205   -0.05551844918594937   -0.002002276935264904
-0.007049457050598139   -0.05573798459824895   -0.0018741826448767443
-0.00569211163296522   -0.05885441041322496   -0.0017790250234341744
-0.007192075859853307   -0.0557043457125388   -0.001808293275566723
-0.009219731466623205   -0.05551844918594937   -0.002002276935264904
-0.00569211163296522   -0.05885441041322496   -0.0017790250234341744
-0.006530091859560767   -0.05855546715000918   -0.001849626618834195
-0.0068111947829287926   -0.058549630161601245   -0.0016650041137740539
-0.009219731466623205   -0.05551844918594937   -0.002002276935264904
-0.00569211163296522   -0.05885441041322496   -0.0017790250234341744
-0.0068111947829287926   -0.058549630161601245   -0.0016650041137740539
-0.007192075859853307   -0.0557043457125388   -0.001808293275566723
-0.009219731466623205   -0.05551844918594937   -0.002002276935264904
-0.006530091859560767   -0.05855546715000918   -0.001849626618834195
-0.007049457050598139   -0.05573798459824895   -0.0018741826448767443
-0.008925630485017962   -0.0556292250177753   -0.0021802520421170236
-0.006530091859560767   -0.05855546715000918   -0.001849626618834195
-0.00569211163296522   -0.05885441041322496   -0.0017790250234341744
-0.007049457050598139   -0.05573798459824895   -0.0018741826448767443
-0.0055348779381339044   -0.058918867893014024   -0.0018415614641625467
-0.008925630485017962   -0.0556292250177753   -0.0021802520421170236
-0.006920076540274181   -0.055817960079546716   -0.0019481068018178376
-0.0055348779381339044   -0.058918867893014024   -0.0018415614641625467
-0.007049457050598139   -0.05573798459824895   -0.0018741826448767443
-0.008925630485017962   -0.0556292250177753   -0.0021802520421170236
-0.0055348779381339044   -0.058918867893014024   -0.0018415614641625467
-0.006196604061058372   -0.05863661207111116   -0.0020382197144362354
-0.006530091859560767   -0.05855546715000918   -0.001849626618834195
-0.008925630485017962   -0.0556292250177753   -0.0021802520421170236
-0.0055348779381339044   -0.058918867893014024   -0.0018415614641625467
-0.006530091859560767   -0.05855546715000918   -0.001849626618834195
-0.007049457050598139   -0.05573798459824895   -0.0018741826448767443
-0.0073132922165755985   -0.05571626948548009   -0.0017509866196856521
-0.006014203158081941   -0.05890932143241861   -0.0016563345049931872
-0.005343840687254065   -0.05586687224192701   -0.0018056228548166914
-0.007192075859853307   -0.0557043457125388   -0.001808293275566723
-0.006014203158081941   -0.05890932143241861   -0.0016563345049931872
-0.005191043679051731   -0.059203905610597504   -0.0018123993225244717
-0.005343840687254065   -0.05586687224192701   -0.0018056228548166914
-0.005029921371647422   -0.05914435746662909   -0.0017698713425393872
-0.007192075859853307   -0.0557043457125388   -0.001808293275566723
-0.005219500876735412   -0.05584769723624517   -0.0017881012679453348
-0.005029921371647422   -0.05914435746662909   -0.0017698713425393872
-0.005343840687254065   -0.05586687224192701   -0.0018056228548166914
-0.007192075859853307   -0.0557043457125388   -0.001808293275566723
-0.005029921371647422   -0.05914435746662909   -0.0017698713425393872
-0.005861413629253237   -0.05885132621577352   -0.0017173685837756926
-0.006014203158081941   -0.05890932143241861   -0.0016563345049931872
-0.007192075859853307   -0.0557043457125388   -0.001808293275566723
-0.005029921371647422   -0.05914435746662909   -0.0017698713425393872
-0.006014203158081941   -0.05890932143241861   -0.0016563345049931872
-0.005343840687254065   -0.05586687224192701   -0.0018056228548166914
-0.007192075859853307   -0.0557043457125388   -0.001808293275566723
-0.005861413629253237   -0.05885132621577352   -0.0017173685837756926
-0.005219500876735412   -0.05584769723624517   -0.0017881012679453348
-0.007049457050598139   -0.05573798459824895   -0.0018741826448767443
-0.005861413629253237   -0.05885132621577352   -0.0017173685837756926
-0.005029921371647422   -0.05914435746662909   -0.0017698713425393872
-0.005219500876735412   -0.05584769723624517   -0.0017881012679453348
-0.004874102011975753   -0.05914345208312356   -0.0017268202421484142
-0.007049457050598139   -0.05573798459824895   -0.0018741826448767443
-0.005096881783839956   -0.055867866191912564   -0.001778919181836822
-0.004874102011975753   -0.05914345208312356   -0.0017268202421484142
-0.005219500876735412   -0.05584769723624517   -0.0017881012679453348
-0.007049457050598139   -0.05573798459824895   -0.0018741826448767443
-0.004874102011975753   -0.05914345208312356   -0.0017268202421484142
-0.00569211163296522   -0.05885441041322496   -0.0017790250234341744
-0.005861413629253237   -0.05885132621577352   -0.0017173685837756926
-0.007049457050598139   -0.05573798459824895   -0.0018741826448767443
-0.004874102011975753   -0.05914345208312356   -0.0017268202421484142
-0.005861413629253237   -0.05885132621577352   -0.0017173685837756926
-0.005219500876735412   -0.05584769723624517   -0.0017881012679453348
-0.007049457050598139   -0.05573798459824895   -0.0018741826448767443
-0.00569211163296522   -0.05885441041322496   -0.0017790250234341744
-0.005096881783839956   -0.055867866191912564   -0.001778919181836822
-0.006920076540274181   -0.055817960079546716   -0.0019481068018178376
-0.00569211163296522   -0.05885441041322496   -0.0017790250234341744
-0.004874102011975753   -0.05914345208312356   -0.0017268202421484142
-0.005096881783839956   -0.055867866191912564   -0.001778919181836822
-0.0047116836899982854   -0.059199975428303984   -0.0016854833932023541
-0.006920076540274181   -0.055817960079546716   -0.0019481068018178376
-0.0049840274609677755   -0.05592867465861494   -0.0017798186287479923
-0.0047116836899982854   -0.059199975428303984   -0.0016854833932023541
-0.005096881783839956   -0.055867866191912564   -0.001778919181836822
-0.006920076540274181   -0.055817960079546716   -0.0019481068018178376
-0.0047116836899982854   -0.059199975428303984   -0.0016854833932023541
-0.0055348779381339044   -0.058918867893014024   -0.0018415614641625467
-0.00569211163296522   -0.05885441041322496   -0.0017790250234341744
-0.006920076540274181   -0.055817960079546716   -0.0019481068018178376
-0.0047116836899982854   -0.059199975428303984   -0.0016854833932023541
-0.00569211163296522   -0.05885441041322496   -0.0017790250234341744
-0.005096881783839956   -0.055867866191912564   -0.001778919181836822
-0.005343840687254065   -0.05586687224192701   -0.0018056228548166914
-0.005191043679051731   -0.059203905610597504   -0.0018123993225244717
-0.0034574057720623613   -0.05594549537196538   -0.0018702964834283614
-0.005219500876735412   -0.05584769723624517   -0.0017881012679453348
-0.005191043679051731   -0.059203905610597504   -0.0018123993225244717
-0.004438992412947638   -0.059558541407213846   -0.001984378182051468
-0.0034574057720623613   -0.05594549537196538   -0.0018702964834283614
-0.004241526421718291   -0.05950677387445358   -0.0018324963562223835
-0.005219500876735412   -0.05584769723624517   -0.0017881012679453348
-0.003317250180702099   -0.055917763692240725   -0.0017821876042807335
-0.004241526421718291   -0.05950677387445358   -0.0018324963562223835
-0.0034574057720623613   -0.05594549537196538   -0.0018702964834283614
-0.005219500876735412   -0.05584769723624517   -0.0017881012679453348
-0.004241526421718291   -0.05950677387445358   -0.0018324963562223835
-0.005029921371647422   -0.05914435746662909   -0.0017698713425393872
-0.005191043679051731   -0.059203905610597504   -0.0018123993225244717
-0.005219500876735412   -0.05584769723624517   -0.0017881012679453348
-0.004241526421718291   -0.05950677387445358   -0.0018324963562223835
-0.005191043679051731   -0.059203905610597504   -0.0018123993225244717
-0.0034574057720623613   -0.05594549537196538   -0.0018702964834283614
-0.005219500876735412   -0.05584769723624517   -0.0017881012679453348
-0.005029921371647422   -0.05914435746662909   -0.0017698713425393872
-0.003317250180702099   -0.055917763692240725   -0.0017821876042807335
-0.005096881783839956   -0.055867866191912564   -0.001778919181836822
-0.005029921371647422   -0.05914435746662909   -0.0017698713425393872
-0.004241526421718291   -0.05950677387445358   -0.0018324963562223835
-0.003317250180702099   -0.055917763692240725   -0.0017821876042807335
-0.004058498126204976   -0.05950409792059281   -0.0016810927877540724
-0.005096881783839956   -0.055867866191912564   -0.001778919181836822
-0.003183624315488144   -0.05592465551679191   -0.001701461999438476
-0.004058498126204976   -0.05950409792059281   -0.0016810927877540724
-0.003317250180702099   -0.055917763692240725   -0.0017821876042807335
-0.005096881783839956   -0.055867866191912564   -0.001778919181836822
-0.004058498126204976   -0.05950409792059281   -0.0016810927877540724
-0.004874102011975753   -0.05914345208312356   -0.0017268202421484142
-0.005029921371647422   -0.05914435746662909   -0.0017698713425393872
-0.005096881783839956   -0.055867866191912564   -0.001778919181836822
-0.004058498126204976   -0.05950409792059281   -0.0016810927877540724
-0.005029921371647422   -0.05914435746662909   -0.0017698713425393872
-0.003317250180702099   -0.055917763692240725   -0.0017821876042807335
-0.005096881783839956   -0.055867866191912564   -0.001778919181836822
-0.004874102011975753   -0.05914345208312356   -0.0017268202421484142
-0.003183624315488144   -0.05592465551679191   -0.001701461999438476
-0.0049840274609677755   -0.05592867465861494   -0.0017798186287479923
-0.004874102011975753   -0.05914345208312356   -0.0017268202421484142
-0.004058498126204976   -0.05950409792059281   -0.0016810927877540724
-0.003183624315488144   -0.05592465551679191   -0.001701461999438476
-0.003862072515354711   -0.05954788712593845   -0.0015294112691215478
-0.0049840274609677755   -0.05592867465861494   -0.0017798186287479923
-0.0030724465305461816   -0.055972867248385676   -0.0016327059913488987
-0.003862072515354711   -0.05954788712593845   -0.0015294112691215478
-0.003183624315488144   -0.05592465551679191   -0.001701461999438476
-0.0049840274609677755   -0.05592867465861494   -0.0017798186287479923
-0.003862072515354711   -0.05954788712593845   -0.0015294112691215478
-0.0047116836899982854   -0.059199975428303984   -0.0016854833932023541
-0.004874102011975753   -0.05914345208312356   -0.0017268202421484142
-0.0049840274609677755   -0.05592867465861494   -0.0017798186287479923
-0.003862072515354711   -0.05954788712593845   -0.0015294112691215478
-0.004874102011975753   -0.05914345208312356   -0.0017268202421484142
-0.003183624315488144   -0.05592465551679191   -0.001701461999438476
-0.0034574057720623613   -0.05594549537196538   -0.0018702964834283614
-0.004438992412947638   -0.059558541407213846   -0.001984378182051468
-0.0014521432527184088   -0.05592455716519657   -0.0019465715074398087
-0.003317250180702099   -0.055917763692240725   -0.0017821876042807335
-0.004438992412947638   -0.059558541407213846   -0.001984378182051468
-0.0036988398237658405   -0.06   -0.0021169483152172455
-0.0014521432527184088   -0.05592455716519657   -0.0019465715074398087
-0.003450351657888542   -0.06   -0.00188591272762671
-0.003317250180702099   -0.055917763692240725   -0.0017821876042807335
-0.001272193319976777   -0.055881063909473096   -0.0017909063099431927
-0.003450351657888542   -0.06   -0.00188591272762671
-0.0014521432527184088   -0.05592455716519657   -0.0019465715074398087
-0.003317250180702099   -0.055917763692240725   -0.0017821876042807335
-0.003450351657888542   -0.06   -0.00188591272762671
-0.004241526421718291   -0.05950677387445358   -0.0018324963562223835
-0.004438992412947638   -0.059558541407213846   -0.001984378182051468
-0.003317250180702099   -0.055917763692240725   -0.0017821876042807335
-0.003450351657888542   -0.06   -0.00188591272762671
-0.004438992412947638   -0.059558541407213846   -0.001984378182051468
-0.0014521432527184088   -0.05592455716519657   -0.0019465715074398087
-0.003317250180702099   -0.055917763692240725   -0.0017821876042807335
-0.004241526421718291   -0.05950677387445358   -0.0018324963562223835
-0.001272193319976777   -0.055881063909473096   -0.0017909063099431927
-0.003183624315488144   -0.05592465551679191   -0.001701461999438476
-0.004241526421718291   -0.05950677387445358   -0.0018324963562223835
-0.003450351657888542   -0.06   -0.00188591272762671
-0.001272193319976777   -0.055881063909473096   -0.0017909063099431927
-0.003200579116424562   -0.06   -0.0016521407570648909
-0.003183624315488144   -0.05592465551679191   -0.001701461999438476
-0.0010881103260850938   -0.055873452511340835   -0.0016431325583498482
-0.003200579116424562   -0.06   -0.0016521407570648909
-0.001272193319976777   -0.055881063909473096   -0.0017909063099431927
-0.003183624315488144   -0.05592465551679191   -0.001701461999438476
-0.003200579116424562   -0.06   -0.0016521407570648909
-0.004058498126204976   -0.05950409792059281   -0.0016810927877540724
-0.004241526421718291   -0.05950677387445358   -0.0018324963562223835
-0.003183624315488144   -0.05592465551679191   -0.001701461999438476
-0.003200579116424562   -0.06   -0.0016521407570648909
-0.004241526421718291   -0.05950677387445358   -0.0018324963562223835
-0.001272193319976777   -0.055881063909473096   -0.0017909063099431927
-0.003183624315488144   -0.05592465551679191   -0.001701461999438476
-0.004058498126204976   -0.05950409792059281   -0.0016810927877540724
-0.0010881103260850938   -0.055873452511340835   -0.0016431325583498482
-0.0030724465305461816   -0.055972867248385676   -0.0016327059913488987
-0.004058498126204976   -0.05950409792059281   -0.0016810927877540724
-0.003200579116424562   -0.06   -0.0016521407570648909
-0.0010881103260850938   -0.055873452511340835   -0.0016431325583498482
-0.0029565500887473524   -0.06   -0.001421468234097255
-0.0030724465305461816   -0.055972867248385676   -0.0016327059913488987
-0.0009518266121820191   -0.05590940954951391   -0.0015088689161120276
-0.0029565500887473524   -0.06   -0.001421468234097255
-0.0010881103260850938   -0.055873452511340835   -0.0016431325583498482
-0.0030724465305461816   -0.055972867248385676   -0.0016327059913488987
-0.0029565500887473524   -0.06   -0.001421468234097255
-0.003862072515354711   -0.05954788712593845   -0.0015294112691215478
-0.004058498126204976   -0.05950409792059281   -0.0016810927877540724
-0.0030724465305461816   -0.055972867248385676   -0.0016327059913488987
-0.0029565500887473524   -0.06   -0.001421468234097255
-0.004058498126204976   -0.05950409792059281   -0.0016810927877540724
-0.0010881103260850938   -0.055873452511340835   -0.0016431325583498482
-0.0014521432527184088   -0.05592455716519657   -0.0019465715074398087
-0.0036988398237658405   -0.06   -0.0021169483152172455
0.000704616864311019   -0.05573160415957088   -0.002102558925724872
-0.001272193319976777   -0.055881063909473096   -0.0017909063099431927
-0.0036988398237658405   -0.06   -0.0021169483152172455
-0.0031608176723998977   -0.06   -0.0022775006488726804
0.000704616864311019   -0.05573160415957088   -0.002102558925724872
-0.0026404364168491545   -0.06   -0.0019430764752776234
-0.001272193319976777   -0.055881063909473096   -0.0017909063099431927
0.00112480412023175   -0.055637062163462384   -0.001847978329238502
-0.0026404364168491545   -0.06   -0.0019430764752776234
0.000704616864311019   -0.05573160415957088   -0.002102558925724872
-0.001272193319976777   -0.055881063909473096   -0.0017909063099431927
-0.0026404364168491545   -0.06   -0.0019430764752776234
-0.003450351657888542   -0.06   -0.00188591272762671
-0.0036988398237658405   -0.06   -0.0021169483152172455
-0.001272193319976777   -0.055881063909473096   -0.0017909063099431927
-0.0026404364168491545   -0.06   -0.0019430764752776234
-0.0036988398237658405   -0.06   -0.0021169483152172455
0.000704616864311019   -0.05573160415957088   -0.002102558925724872
-0.001272193319976777   -0.055881063909473096   -0.0017909063099431927
-0.003450351657888542   -0.06   -0.00188591272762671
0.00112480412023175   -0.055637062163462384   -0.001847978329238502
-0.0010881103260850938   -0.055873452511340835   -0.0016431325583498482
-0.003450351657888542   -0.06   -0.00188591272762671
-0.0026404364168491545   -0.06   -0.0019430764752776234
0.00112480412023175   -0.055637062163462384   -0.001847978329238502
-0.002225448432447682   -0.06   -0.0016231684439582676
-0.0010881103260850938   -0.055873452511340835   -0.0016431325583498482
0.0014549745521975032   -0.05561796616279642   -0.001608876733401434
-0.002225448432447682   -0.06   -0.0016231684439582676
0.00112480412023175   -0.055637062163462384   -0.001847978329238502
-0.0010881103260850938   -0.055873452511340835   -0.0016431325583498482
-0.002225448432447682   -0.06   -0.0016231684439582676
-0.003200579116424562   -0.06   -0.0016521407570648909
-0.003450351657888542   -0.06   -0.00188591272762671
-0.0010881103260850938   -0.055873452511340835   -0.0016431325583498482
-0.002225448432447682   -0.06   -0.0016231684439582676
-0.003450351657888542   -0.06   -0.00188591272762671
0.00112480412023175   -0.055637062163462384   -0.001847978329238502
-0.0010881103260850938   -0.055873452511340835   -0.0016431325583498482
-0.003200579116424562   -0.06   -0.0016521407570648909
0.0014549745521975032   -0.05561796616279642   -0.001608876733401434
-0.0009518266121820191   -0.05590940954951391   -0.0015088689161120276
-0.003200579116424562   -0.06   -0.0016521407570648909
-0.002225448432447682   -0.06   -0.0016231684439582676
0.0014549745521975032   -0.05561796616279642   -0.001608876733401434
-0.001712845483375054   -0.06   -0.0012910589241020452
-0.0009518266121820191   -0.05590940954951391   -0.0015088689161120276
0.0017982895786264731   -0.055634277957124924   -0.001390430931163038
-0.001712845483375054   -0.06   -0.0012910589241020452
0.0014549745521975032   -0.05561796616279642   -0.001608876733401434
-0.0009518266121820191   -0.05590940954951391   -0.0015088689161120276
-0.001712845483375054   -0.06   -0.0012910589241020452
-0.0029565500887473524   -0.06   -0.001421468234097255
-0.003200579116424562   -0.06   -0.0016521407570648909
-0.0009518266121820191   -0.05590940954951391   -0.0015088689161120276
-0.001712845483375054   -0.06   -0.0012910589241020452
-0.003200579116424562   -0.06   -0.0016521407570648909
0.0014549745521975032   -0.05561796616279642   -0.001608876733401434
-0.007137020239970719   -0.05861498943636588   -0.001479687125031562
-0.0042766980754163995   -0.058780073167868076   -0.0012666369372596527
-0.006014203158081941   -0.05890932143241861   -0.0016563345049931872
-0.0068111947829287926   -0.058549630161601245   -0.0016650041137740539
-0.0042766980754163995   -0.058780073167868076   -0.0012666369372596527
-0.00453087150773583   -0.059007205779452884   -0.001494106969021205
-0.006014203158081941   -0.05890932143241861   -0.0016563345049931872
-0.004415255957155611   -0.058927969657539374   -0.001577272068639643
-0.0068111947829287926   -0.058549630161601245   -0.0016650041137740539
-0.005861413629253237   -0.05885132621577352   -0.0017173685837756926
-0.004415255957155611   -0.058927969657539374   -0.001577272068639643
-0.006014203158081941   -0.05890932143241861   -0.0016563345049931872
-0.0068111947829287926   -0.058549630161601245   -0.0016650041137740539
-0.004415255957155611   -0.058927969657539374   -0.001577272068639643
-0.003981266516813538   -0.0586783067543044   -0.0014613667752293646
-0.0042766980754163995   -0.058780073167868076   -0.0012666369372596527
-0.0068111947829287926   -0.058549630161601245   -0.0016650041137740539
-0.004415255957155611   -0.058927969657539374   -0.001577272068639643
-0.0042766980754163995   -0.058780073167868076   -0.0012666369372596527
-0.006014203158081941   -0.05890932143241861   -0.0016563345049931872
-0.0068111947829287926   -0.058549630161601245   -0.0016650041137740539
-0.003981266516813538   -0.0586783067543044   -0.0014613667752293646
-0.005861413629253237   -0.05885132621577352   -0.0017173685837756926
-0.006530091859560767   -0.05855546715000918   -0.001849626618834195
-0.003981266516813538   -0.0586783067543044   -0.0014613667752293646
-0.004415255957155611   -0.058927969657539374   -0.001577272068639643
-0.005861413629253237   -0.05885132621577352   -0.0017173685837756926
-0.0042795959183542604   -0.058898939297807845   -0.0016540345465602888
-0.006530091859560767   -0.05855546715000918   -0.001849626618834195
-0.00569211163296522   -0.05885441041322496   -0.0017790250234341744
-0.0042795959183542604   -0.058898939297807845   -0.0016540345465602888
-0.005861413629253237   -0.05885132621577352   -0.0017173685837756926
-0.006530091859560767   -0.05855546715000918   -0.001849626618834195
-0.0042795959183542604   -0.058898939297807845   -0.0016540345465602888
-0.003735366822688766   -0.058647228415149306   -0.00164815328591305
-0.003981266516813538   -0.0586783067543044   -0.0014613667752293646
-0.006530091859560767   -0.05855546715000918   -0.001849626618834195
-0.0042795959183542604   -0.058898939297807845   -0.0016540345465602888
-0.003981266516813538   -0.0586783067543044   -0.0014613667752293646
-0.005861413629253237   -0.05885132621577352   -0.0017173685837756926
-0.006530091859560767   -0.05855546715000918   -0.001849626618834195
-0.003735366822688766   -0.058647228415149306   -0.00164815328591305
-0.00569211163296522   -0.05885441041322496   -0.0017790250234341744
-0.006196604061058372   -0.05863661207111116   -0.0020382197144362354
-0.003735366822688766   -0.058647228415149306   -0.00164815328591305
-0.0042795959183542604   -0.058898939297807845   -0.0016540345465602888
-0.00569211163296522   -0.05885441041322496   -0.0017790250234341744
-0.004163413598740522   -0.058920544308023584   -0.0017239964774680328
-0.006196604061058372   -0.05863661207111116   -0.0020382197144362354
-0.0055348779381339044   -0.058918867893014024   -0.0018415614641625467
-0.004163413598740522   -0.058920544308023584   -0.0017239964774680328
-0.00569211163296522   -0.05885441041322496   -0.0017790250234341744
-0.006196604061058372   -0.05863661207111116   -0.0020382197144362354
-0.004163413598740522   -0.058920544308023584   -0.0017239964774680328
-0.0034570410286125534   -0.058674171236099346   -0.0018261738623784932
-0.003735366822688766   -0.058647228415149306   -0.00164815328591305
-0.006196604061058372   -0.05863661207111116   -0.0020382197144362354
-0.004163413598740522   -0.058920544308023584   -0.0017239964774680328
-0.003735366822688766   -0.058647228415149306   -0.00164815328591305
-0.00569211163296522   -0.05885441041322496   -0.0017790250234341744
-0.006014203158081941   -0.05890932143241861   -0.0016563345049931872
-0.00453087150773583   -0.059007205779452884   -0.001494106969021205
-0.005191043679051731   -0.059203905610597504   -0.0018123993225244717
-0.005861413629253237   -0.05885132621577352   -0.0017173685837756926
-0.00453087150773583   -0.059007205779452884   -0.001494106969021205
-0.004877073590227116   -0.05914727220594985   -0.0016759272230986355
-0.005191043679051731   -0.059203905610597504   -0.0018123993225244717
-0.004774780964342587   -0.05907650360132047   -0.001678054830776795
-0.005861413629253237   -0.05885132621577352   -0.0017173685837756926
-0.005029921371647422   -0.05914435746662909   -0.0017698713425393872
-0.004774780964342587   -0.05907650360132047   -0.001678054830776795
-0.005191043679051731   -0.059203905610597504   -0.0018123993225244717
-0.005861413629253237   -0.05885132621577352   -0.0017173685837756926
-0.004774780964342587   -0.05907650360132047   -0.001678054830776795
-0.004415255957155611   -0.058927969657539374   -0.001577272068639643
-0.00453087150773583   -0.059007205779452884   -0.001494106969021205
-0.005861413629253237   -0.05885132621577352   -0.0017173685837756926
-0.004774780964342587   -0.05907650360132047   -0.001678054830776795
-0.00453087150773583   -0.059007205779452884   -0.001494106969021205
-0.005191043679051731   -0.059203905610597504   -0.0018123993225244717
-0.005861413629253237   -0.05885132621577352   -0.0017173685837756926
-0.004415255957155611   -0.058927969657539374   -0.001577272068639643
-0.005029921371647422   -0.05914435746662909   -0.0017698713425393872
-0.00569211163296522   -0.05885441041322496   -0.0017790250234341744
-0.004415255957155611   -0.058927969657539374   -0.001577272068639643
-0.004774780964342587   -0.05907650360132047   -0.001678054830776795
-0.005029921371647422   -0.05914435746662909   -0.0017698713425393872
-0.004660935666911015   -0.05905120449041494   -0.0016718820556850748
-0.00569211163296522   -0.05885441041322496   -0.0017790250234341744
-0.004874102011975753   -0.05914345208312356   -0.0017268202421484142
-0.004660935666911015   -0.05905120449041494   -0.0016718820556850748
-0.005029921371647422   -0.05914435746662909   -0.0017698713425393872
-0.00569211163296522   -0.05885441041322496   -0.0017790250234341744
-0.004660935666911015   -0.05905120449041494   -0.0016718820556850748
-0.0042795959183542604   -0.058898939297807845   -0.0016540345465602888
-0.004415255957155611   -0.058927969657539374   -0.001577272068639643
-0.00569211163296522   -0.05885441041322496   -0.0017790250234341744
-0.004660935666911015   -0.05905120449041494   -0.0016718820556850748
-0.004415255957155611   -0.058927969657539374   -0.001577272068639643
-0.005029921371647422   -0.05914435746662909   -0.0017698713425393872
-0.00569211163296522   -0.05885441041322496   -0.0017790250234341744
-0.0042795959183542604   -0.058898939297807845   -0.0016540345465602888
-0.004874102011975753   -0.05914345208312356   -0.0017268202421484142
-0.0055348779381339044   -0.058918867893014024   -0.0018415614641625467
-0.0042795959183542604   -0.058898939297807845   -0.0016540345465602888
-0.004660935666911015   -0.05905120449041494   -0.0016718820556850748
-0.004874102011975753   -0.05914345208312356   -0.0017268202421484142
-0.004545200391541282   -0.059069315642482335   -0.0016591952451135983
-0.0055348779381339044   -0.058918867893014024   -0.0018415614641625467
-0.0047116836899982854   -0.059199975428303984   -0.0016854833932023541
-0.004545200391541282   -0.059069315642482335   -0.0016591952451135983
-0.004874102011975753   -0.05914345208312356   -0.0017268202421484142
-0.0055348779381339044   -0.058918867893014024   -0.0018415614641625467
-0.004545200391541282   -0.059069315642482335   -0.0016591952451135983
-0.004163413598740522   -0.058920544308023584   -0.0017239964774680328
-0.0042795959183542604   -0.058898939297807845   -0.0016540345465602888
-0.0055348779381339044   -0.058918867893014024   -0.0018415614641625467
-0.004545200391541282   -0.059069315642482335   -0.0016591952451135983
-0.0042795959183542604   -0.058898939297807845   -0.0016540345465602888
-0.004874102011975753   -0.05914345208312356   -0.0017268202421484142
-0.005191043679051731   -0.059203905610597504   -0.0018123993225244717
-0.004877073590227116   -0.05914727220594985   -0.0016759272230986355
-0.004438992412947638   -0.059558541407213846   -0.001984378182051468
-0.005029921371647422   -0.05914435746662909   -0.0017698713425393872
-0.004877073590227116   -0.05914727220594985   -0.0016759272230986355
-0.0052484839402416675   -0.05920559185822922   -0.0018549375243836065
-0.004438992412947638   -0.059558541407213846   -0.001984378182051468
-0.005142517874127003   -0.05913806758941986   -0.0017791375794646521
-0.005029921371647422   -0.05914435746662909   -0.0017698713425393872
-0.004241526421718291   -0.05950677387445358   -0.0018324963562223835
-0.005142517874127003   -0.05913806758941986   -0.0017791375794646521
-0.004438992412947638   -0.059558541407213846   -0.001984378182051468
-0.005029921371647422   -0.05914435746662909   -0.0017698713425393872
-0.005142517874127003   -0.05913806758941986   -0.0017791375794646521
-0.004774780964342587   -0.05907650360132047   -0.001678054830776795
-0.004877073590227116   -0.05914727220594985   -0.0016759272230986355
-0.005029921371647422   -0.05914435746662909   -0.0017698713425393872
-0.005142517874127003   -0.05913806758941986   -0.0017791375794646521
-0.004877073590227116   -0.05914727220594985   -0.0016759272230986355
-0.004438992412947638   -0.059558541407213846   -0.001984378182051468
-0.005029921371647422   -0.05914435746662909   -0.0017698713425393872
-0.004774780964342587   -0.05907650360132047   -0.001678054830776795
-0.004241526421718291   -0.05950677387445358   -0.0018324963562223835
-0.004874102011975753   -0.05914345208312356   -0.0017268202421484142
-0.004774780964342587   -0.05907650360132047   -0.001678054830776795
-0.005142517874127003   -0.05913806758941986   -0.0017791375794646521
-0.004241526421718291   -0.05950677387445358   -0.0018324963562223835
-0.005015451541300663   -0.059116751359677096   -0.0016932273159839493
-0.004874102011975753   -0.05914345208312356   -0.0017268202421484142
-0.004058498126204976   -0.05950409792059281   -0.0016810927877540724
-0.005015451541300663   -0.059116751359677096   -0.0016932273159839493
-0.004241526421718291   -0.05950677387445358   -0.0018324963562223835
-0.004874102011975753   -0.05914345208312356   -0.0017268202421484142
-0.005015451541300663   -0.059116751359677096   -0.0016932273159839493
-0.004660935666911015   -0.05905120449041494   -0.0016718820556850748
-0.004774780964342587   -0.05907650360132047   -0.001678054830776795
-0.004874102011975753   -0.05914345208312356   -0.0017268202421484142
-0.005015451541300663   -0.059116751359677096   -0.0016932273159839493
-0.004774780964342587   -0.05907650360132047   -0.001678054830776795
-0.004241526421718291   -0.05950677387445358   -0.0018324963562223835
-0.004874102011975753   -0.05914345208312356   -0.0017268202421484142
-0.004660935666911015   -0.05905120449041494   -0.0016718820556850748
-0.004058498126204976   -0.05950409792059281   -0.0016810927877540724
-0.0047116836899982854   -0.059199975428303984   -0.0016854833932023541
-0.004660935666911015   -0.05905120449041494   -0.0016718820556850748
-0.005015451541300663   -0.059116751359677096   -0.0016932273159839493
-0.004058498126204976   -0.05950409792059281   -0.0016810927877540724
-0.004884801492472164   -0.059134427320026293   -0.0016017445967537146
-0.0047116836899982854   -0.059199975428303984   -0.0016854833932023541
-0.003862072515354711   -0.05954788712593845   -0.0015294112691215478
-0.004884801492472164   -0.059134427320026293   -0.0016017445967537146
-0.004058498126204976   -0.05950409792059281   -0.0016810927877540724
-0.0047116836899982854   -0.059199975428303984   -0.0016854833932023541
-0.004884801492472164   -0.059134427320026293   -0.0016017445967537146
-0.004545200391541282   -0.059069315642482335   -0.0016591952451135983
-0.004660935666911015   -0.05905120449041494   -0.0016718820556850748
-0.0047116836899982854   -0.059199975428303984   -0.0016854833932023541
-0.004884801492472164   -0.059134427320026293   -0.0016017445967537146
-0.004660935666911015   -0.05905120449041494   -0.0016718820556850748
-0.004058498126204976   -0.05950409792059281   -0.0016810927877540724
-0.004438992412947638   -0.059558541407213846   -0.001984378182051468
-0.0052484839402416675   -0.05920559185822922   -0.0018549375243836065
-0.0036988398237658405   -0.06   -0.0021169483152172455
-0.004241526421718291   -0.05950677387445358   -0.0018324963562223835
-0.0052484839402416675   -0.05920559185822922   -0.0018549375243836065
-0.005786567958716921   -0.05914122315820651   -0.002025163712267767
-0.0036988398237658405   -0.06   -0.0021169483152172455
-0.0056481706958303535   -0.059077391829084315   -0.0018751360887010124
-0.004241526421718291   -0.05950677387445358   -0.0018324963562223835
-0.003450351657888542   -0.06   -0.00188591272762671
-0.0056481706958303535   -0.059077391829084315   -0.0018751360887010124
-0.0036988398237658405   -0.06   -0.0021169483152172455
-0.004241526421718291   -0.05950677387445358   -0.0018324963562223835
-0.0056481706958303535   -0.059077391829084315   -0.0018751360887010124
-0.005142517874127003   -0.05913806758941986   -0.0017791375794646521
-0.0052484839402416675   -0.05920559185822922   -0.0018549375243836065
-0.004241526421718291   -0.05950677387445358   -0.0018324963562223835
-0.0056481706958303535   -0.059077391829084315   -0.0018751360887010124
-0.0052484839402416675   -0.05920559185822922   -0.0018549375243836065
-0.0036988398237658405   -0.06   -0.0021169483152172455
-0.004241526421718291   -0.05950677387445358   -0.0018324963562223835
-0.005142517874127003   -0.05913806758941986   -0.0017791375794646521
-0.003450351657888542   -0.06   -0.00188591272762671
-0.004058498126204976   -0.05950409792059281   -0.0016810927877540724
-0.005142517874127003   -0.05913806758941986   -0.0017791375794646521
-0.0056481706958303535   -0.059077391829084315   -0.0018751360887010124
-0.003450351657888542   -0.06   -0.00188591272762671
-0.005465472538084728   -0.05906298718858402   -0.001713836523299784
-0.004058498126204976   -0.05950409792059281   -0.0016810927877540724
-0.003200579116424562   -0.06   -0.0016521407570648909
-0.005465472538084728   -0.05906298718858402   -0.001713836523299784
-0.003450351657888542   -0.06   -0.00188591272762671
-0.004058498126204976   -0.05950409792059281   -0.0016810927877540724
-0.005465472538084728   -0.05906298718858402   -0.001713836523299784
-0.005015451541300663   -0.059116751359677096   -0.0016932273159839493
-0.005142517874127003   -0.05913806758941986   -0.0017791375794646521
-0.004058498126204976   -0.05950409792059281   -0.0016810927877540724
-0.005465472538084728   -0.05906298718858402   -0.001713836523299784
-0.005142517874127003   -0.05913806758941986   -0.0017791375794646521
-0.003450351657888542   -0.06   -0.00188591272762671
-0.004058498126204976   -0.05950409792059281   -0.0016810927877540724
-0.005015451541300663   -0.059116751359677096   -0.0016932273159839493
-0.003200579116424562   -0.06   -0.0016521407570648909
-0.003862072515354711   -0.05954788712593845   -0.0015294112691215478
-0.005015451541300663   -0.059116751359677096   -0.0016932273159839493
-0.005465472538084728   -0.05906298718858402   -0.001713836523299784
-0.003200579116424562   -0.06   -0.0016521407570648909
-0.005293744555157255   -0.059088502133459946   -0.0015463388839417403
-0.003862072515354711   -0.05954788712593845   -0.0015294112691215478
-0.0029565500887473524   -0.06   -0.001421468234097255
-0.005293744555157255   -0.059088502133459946   -0.0015463388839417403
-0.003200579116424562   -0.06   -0.0016521407570648909
-0.003862072515354711   -0.05954788712593845   -0.0015294112691215478
-0.005293744555157255   -0.059088502133459946   -0.0015463388839417403
-0.004884801492472164   -0.059134427320026293   -0.0016017445967537146
-0.005015451541300663   -0.059116751359677096   -0.0016932273159839493
-0.003862072515354711   -0.05954788712593845   -0.0015294112691215478
-0.005293744555157255   -0.059088502133459946   -0.0015463388839417403
-0.005015451541300663   -0.059116751359677096   -0.0016932273159839493
-0.003200579116424562   -0.06   -0.0016521407570648909
-0.0036988398237658405   -0.06   -0.0021169483152172455
-0.005786567958716921   -0.05914122315820651   -0.002025163712267767
-0.0031608176723998977   -0.06   -0.0022775006488726804
-0.003450351657888542   -0.06   -0.00188591272762671
-0.005786567958716921   -0.05914122315820651   -0.002025163712267767
-0.0068345335224721145   -0.05885198178080297   -0.0022059455220689687
-0.0031608176723998977   -0.06   -0.0022775006488726804
-0.006465721342830258   -0.05879804171797855   -0.001959823984354937
-0.003450351657888542   -0.06   -0.00188591272762671
-0.0026404364168491545   -0.06   -0.0019430764752776234
-0.006465721342830258   -0.05879804171797855   -0.001959823984354937
-0.0031608176723998977   -0.06   -0.0022775006488726804
-0.003450351657888542   -0.06   -0.00188591272762671
-0.006465721342830258   -0.05879804171797855   -0.001959823984354937
-0.0056481706958303535   -0.059077391829084315   -0.0018751360887010124
-0.005786567958716921   -0.05914122315820651   -0.002025163712267767
-0.003450351657888542   -0.06   -0.00188591272762671
-0.006465721342830258   -0.05879804171797855   -0.001959823984354937
-0.005786567958716921   -0.05914122315820651   -0.002025163712267767
-0.0031608176723998977   -0.06   -0.0022775006488726804
-0.003450351657888542   -0.06   -0.00188591272762671
-0.0056481706958303535   -0.059077391829084315   -0.0018751360887010124
-0.0026404364168491545   -0.06   -0.0019430764752776234
-0.003200579116424562   -0.06   -0.0016521407570648909
-0.0056481706958303535   -0.059077391829084315   -0.0018751360887010124
-0.006465721342830258   -0.05879804171797855   -0.001959823984354937
-0.0026404364168491545   -0.06   -0.0019430764752776234
-0.006127036703987384   -0.058790731951083426   -0.0016971998858435703
-0.003200579116424562   -0.06   -0.0016521407570648909
-0.002225448432447682   -0.06   -0.0016231684439582676
-0.006127036703987384   -0.058790731951083426   -0.0016971998858435703
-0.0026404364168491545   -0.06   -0.0019430764752776234
-0.003200579116424562   -0.06   -0.0016521407570648909
-0.006127036703987384   -0.058790731951083426   -0.0016971998858435703
-0.005465472538084728   -0.05906298718858402   -0.001713836523299784
-0.0056481706958303535   -0.059077391829084315   -0.0018751360887010124
-0.003200579116424562   -0.06   -0.0016521407570648909
-0.006127036703987384   -0.058790731951083426   -0.0016971998858435703
-0.0056481706958303535   -0.059077391829084315   -0.0018751360887010124
-0.0026404364168491545   -0.06   -0.0019430764752776234
-0.003200579116424562   -0.06   -0.0016521407570648909
-0.005465472538084728   -0.05906298718858402   -0.001713836523299784
-0.002225448432447682   -0.06   -0.0016231684439582676
-0.0029565500887473524   -0.06   -0.001421468234097255
-0.005465472538084728   -0.05906298718858402   -0.001713836523299784
-0.006127036703987384   -0.058790731951083426   -0.0016971998858435703
-0.002225448432447682   -0.06   -0.0016231684439582676
-0.005699280910509998   -0.05886148466790541   -0.0014226061277881322
-0.0029565500887473524   -0.06   -0.001421468234097255
-0.001712845483375054   -0.06   -0.0012910589241020452
-0.005699280910509998   -0.05886148466790541   -0.0014226061277881322
-0.002225448432447682   -0.06   -0.0016231684439582676
-0.0029565500887473524   -0.06   -0.001421468234097255
-0.005699280910509998   -0.05886148466790541   -0.0014226061277881322
-0.005293744555157255   -0.059088502133459946   -0.0015463388839417403
-0.005465472538084728   -0.05906298718858402   -0.001713836523299784
-0.0029565500887473524   -0.06   -0.001421468234097255
-0.005699280910509998   -0.05886148466790541   -0.0014226061277881322
-0.005465472538084728   -0.05906298718858402   -0.001713836523299784
-0.002225448432447682   -0.06   -0.0016231684439582676
-0.0042766980754163995   -0.058780073167868076   -0.0012666369372596527
-0.0017585200043270088   -0.05657073157362785   -0.0010940646748510043
-0.00453087150773583   -0.059007205779452884   -0.001494106969021205
-0.003981266516813538   -0.0586783067543044   -0.0014613667752293646
-0.0017585200043270088   -0.05657073157362785   -0.0010940646748510043
-0.003257775101472709   -0.056742303687481184   -0.0013357383050147944
-0.00453087150773583   -0.059007205779452884   -0.001494106969021205
-0.003175617898958247   -0.05664640937857007   -0.0014099417150389482
-0.003981266516813538   -0.0586783067543044   -0.0014613667752293646
-0.004415255957155611   -0.058927969657539374   -0.001577272068639643
-0.003175617898958247   -0.05664640937857007   -0.0014099417150389482
-0.00453087150773583   -0.059007205779452884   -0.001494106969021205
-0.003981266516813538   -0.0586783067543044   -0.0014613667752293646
-0.003175617898958247   -0.05664640937857007   -0.0014099417150389482
-0.0015227630617504551   -0.056452023980917566   -0.0012625136581424
-0.0017585200043270088   -0.05657073157362785   -0.0010940646748510043
-0.003981266516813538   -0.0586783067543044   -0.0014613667752293646
-0.003175617898958247   -0.05664640937857007   -0.0014099417150389482
-0.0017585200043270088   -0.05657073157362785   -0.0010940646748510043
-0.00453087150773583   -0.059007205779452884   -0.001494106969021205
-0.003981266516813538   -0.0586783067543044   -0.0014613667752293646
-0.0015227630617504551   -0.056452023980917566   -0.0012625136581424
-0.004415255957155611   -0.058927969657539374   -0.001577272068639643
-0.003735366822688766   -0.058647228415149306   -0.00164815328591305
-0.0015227630617504551   -0.056452023980917566   -0.0012625136581424
-0.003175617898958247   -0.05664640937857007   -0.0014099417150389482
-0.004415255957155611   -0.058927969657539374   -0.001577272068639643
-0.003083068269700718   -0.0565934922321637   -0.0014774858022503817
-0.003735366822688766   -0.058647228415149306   -0.00164815328591305
-0.0042795959183542604   -0.058898939297807845   -0.0016540345465602888
-0.003083068269700718   -0.0565934922321637   -0.0014774858022503817
-0.004415255957155611   -0.058927969657539374   -0.001577272068639643
-0.003735366822688766   -0.058647228415149306   -0.00164815328591305
-0.003083068269700718   -0.0565934922321637   -0.0014774858022503817
-0.0013372446329218712   -0.05639573295504078   -0.0014210935833311332
-0.0015227630617504551   -0.056452023980917566   -0.0012625136581424
-0.003735366822688766   -0.058647228415149306   -0.00164815328591305
-0.003083068269700718   -0.0565934922321637   -0.0014774858022503817
-0.0015227630617504551   -0.056452023980917566   -0.0012625136581424
-0.004415255957155611   -0.058927969657539374   -0.001577272068639643
-0.003735366822688766   -0.058647228415149306   -0.00164815328591305
-0.0013372446329218712   -0.05639573295504078   -0.0014210935833311332
-0.0042795959183542604   -0.058898939297807845   -0.0016540345465602888
-0.0034570410286125534   -0.058674171236099346   -0.0018261738623784932
-0.0013372446329218712   -0.05639573295504078   -0.0014210935833311332
-0.003083068269700718   -0.0565934922321637   -0.0014774858022503817
-0.0042795959183542604   -0.058898939297807845   -0.0016540345465602888
-0.0030121269096876255   -0.05658207122483788   -0.0015385852225550053
-0.0034570410286125534   -0.058674171236099346   -0.0018261738623784932
-0.004163413598740522   -0.058920544308023584   -0.0017239964774680328
-0.0030121269096876255   -0.05658207122483788   -0.0015385852225550053
-0.0042795959183542604   -0.058898939297807845   -0.0016540345465602888
-0.0034570410286125534   -0.058674171236099346   -0.0018261738623784932
-0.0030121269096876255   -0.05658207122483788   -0.0015385852225550053
-0.001134511977912332   -0.056385638754550306   -0.001569389677126322
-0.0013372446329218712   -0.05639573295504078   -0.0014210935833311332
-0.0034570410286125534   -0.058674171236099346   -0.0018261738623784932
-0.0030121269096876255   -0.05658207122483788   -0.0015385852225550053
-0.0013372446329218712   -0.05639573295504078   -0.0014210935833311332
-0.0042795959183542604   -0.058898939297807845   -0.0016540345465602888
-0.00453087150773583   -0.059007205779452884   -0.001494106969021205
-0.003257775101472709   -0.056742303687481184   -0.0013357383050147944
-0.004877073590227116   -0.05914727220594985   -0.0016759272230986355
-0.004415255957155611   -0.058927969657539374   -0.001577272068639643
-0.003257775101472709   -0.056742303687481184   -0.0013357383050147944
-0.004738694304176384   -0.05680274806721864   -0.0015327707252247877
-0.004877073590227116   -0.05914727220594985   -0.0016759272230986355
-0.004669652774179613   -0.056719096076007496   -0.001536805994347621
-0.004415255957155611   -0.058927969657539374   -0.001577272068639643
-0.004774780964342587   -0.05907650360132047   -0.001678054830776795
-0.004669652774179613   -0.056719096076007496   -0.001536805994347621
-0.004877073590227116   -0.05914727220594985   -0.0016759272230986355
-0.004415255957155611   -0.058927969657539374   -0.001577272068639643
-0.004669652774179613   -0.056719096076007496   -0.001536805994347621
-0.003175617898958247   -0.05664640937857007   -0.0014099417150389482
-0.003257775101472709   -0.056742303687481184   -0.0013357383050147944
-0.004415255957155611   -0.058927969657539374   -0.001577272068639643
-0.004669652774179613   -0.056719096076007496   -0.001536805994347621
-0.003257775101472709   -0.056742303687481184   -0.0013357383050147944
-0.004877073590227116   -0.05914727220594985   -0.0016759272230986355
-0.004415255957155611   -0.058927969657539374   -0.001577272068639643
-0.003175617898958247   -0.05664640937857007   -0.0014099417150389482
-0.004774780964342587   -0.05907650360132047   -0.001678054830776795
-0.0042795959183542604   -0.058898939297807845   -0.0016540345465602888
-0.003175617898958247   -0.05664640937857007   -0.0014099417150389482
-0.004669652774179613   -0.056719096076007496   -0.001536805994347621
-0.004774780964342587   -0.05907650360132047   -0.001678054830776795
-0.0045982384175193534   -0.05667418337796942   -0.0015346731331837675
-0.0042795959183542604   -0.058898939297807845   -0.0016540345465602888
-0.004660935666911015   -0.05905120449041494   -0.0016718820556850748
-0.0045982384175193534   -0.05667418337796942   -0.0015346731331837675
-0.004774780964342587   -0.05907650360132047   -0.001678054830776795
-0.0042795959183542604   -0.058898939297807845   -0.0016540345465602888
-0.0045982384175193534   -0.05667418337796942   -0.0015346731331837675
-0.003083068269700718   -0.0565934922321637   -0.0014774858022503817
-0.003175617898958247   -0.05664640937857007   -0.0014099417150389482
-0.0042795959183542604   -0.058898939297807845   -0.0016540345465602888
-0.0045982384175193534   -0.05667418337796942   -0.0015346731331837675
-0.003175617898958247   -0.05664640937857007   -0.0014099417150389482
-0.004774780964342587   -0.05907650360132047   -0.001678054830776795
-0.0042795959183542604   -0.058898939297807845   -0.0016540345465602888
-0.003083068269700718   -0.0565934922321637   -0.0014774858022503817
-0.004660935666911015   -0.05905120449041494   -0.0016718820556850748
-0.004163413598740522   -0.058920544308023584   -0.0017239964774680328
-0.003083068269700718   -0.0565934922321637   -0.0014774858022503817
-0.0045982384175193534   -0.05667418337796942   -0.0015346731331837675
-0.004660935666911015   -0.05905120449041494   -0.0016718820556850748
-0.004529374327675593   -0.056666157565638656   -0.0015263180732867935
-0.004163413598740522   -0.058920544308023584   -0.0017239964774680328
-0.004545200391541282   -0.059069315642482335   -0.0016591952451135983
-0.004529374327675593   -0.056666157565638656   -0.0015263180732867935
-0.004660935666911015   -0.05905120449041494   -0.0016718820556850748
-0.004163413598740522   -0.058920544308023584   -0.0017239964774680328
-0.004529374327675593   -0.056666157565638656   -0.0015263180732867935
-0.0030121269096876255   -0.05658207122483788   -0.0015385852225550053
-0.003083068269700718   -0.0565934922321637   -0.0014774858022503817
-0.004163413598740522   -0.058920544308023584   -0.0017239964774680328
-0.004529374327675593   -0.056666157565638656   -0.0015263180732867935
-0.003083068269700718   -0.0565934922321637   -0.0014774858022503817
-0.004660935666911015   -0.05905120449041494   -0.0016718820556850748
-0.004877073590227116   -0.05914727220594985   -0.0016759272230986355
-0.004738694304176384   -0.05680274806721864   -0.0015327707252247877
-0.0052484839402416675   -0.05920559185822922   -0.0018549375243836065
-0.004774780964342587   -0.05907650360132047   -0.001678054830776795
-0.004738694304176384   -0.05680274806721864   -0.0015327707252247877
-0.006209513025246283   -0.056748824072829857   -0.001717196570897464
-0.0052484839402416675   -0.05920559185822922   -0.0018549375243836065
-0.006141017304219585   -0.05667451021296711   -0.0016539419548972862
-0.004774780964342587   -0.05907650360132047   -0.001678054830776795
-0.005142517874127003   -0.05913806758941986   -0.0017791375794646521
-0.006141017304219585   -0.05667451021296711   -0.0016539419548972862
-0.0052484839402416675   -0.05920559185822922   -0.0018549375243836065
-0.004774780964342587   -0.05907650360132047   -0.001678054830776795
-0.006141017304219585   -0.05667451021296711   -0.0016539419548972862
-0.004669652774179613   -0.056719096076007496   -0.001536805994347621
-0.004738694304176384   -0.05680274806721864   -0.0015327707252247877
-0.004774780964342587   -0.05907650360132047   -0.001678054830776795
-0.006141017304219585   -0.05667451021296711   -0.0016539419548972862
-0.004738694304176384   -0.05680274806721864   -0.0015327707252247877
-0.0052484839402416675   -0.05920559185822922   -0.0018549375243836065
-0.004774780964342587   -0.05907650360132047   -0.001678054830776795
-0.004669652774179613   -0.056719096076007496   -0.001536805994347621
-0.005142517874127003   -0.05913806758941986   -0.0017791375794646521
-0.004660935666911015   -0.05905120449041494   -0.0016718820556850748
-0.004669652774179613   -0.056719096076007496   -0.001536805994347621
-0.006141017304219585   -0.05667451021296711   -0.0016539419548972862
-0.005142517874127003   -0.05913806758941986   -0.0017791375794646521
-0.006064150892646493   -0.056638289986122275   -0.0015846122496856602
-0.004660935666911015   -0.05905120449041494   -0.0016718820556850748
-0.005015451541300663   -0.059116751359677096   -0.0016932273159839493
-0.006064150892646493   -0.056638289986122275   -0.0015846122496856602
-0.005142517874127003   -0.05913806758941986   -0.0017791375794646521
-0.004660935666911015   -0.05905120449041494   -0.0016718820556850748
-0.006064150892646493   -0.056638289986122275   -0.0015846122496856602
-0.0045982384175193534   -0.05667418337796942   -0.0015346731331837675
-0.004669652774179613   -0.056719096076007496   -0.001536805994347621
-0.004660935666911015   -0.05905120449041494   -0.0016718820556850748
-0.006064150892646493   -0.056638289986122275   -0.0015846122496856602
-0.004669652774179613   -0.056719096076007496   -0.001536805994347621
-0.005142517874127003   -0.05913806758941986   -0.0017791375794646521
-0.004660935666911015   -0.05905120449041494   -0.0016718820556850748
-0.0045982384175193534   -0.05667418337796942   -0.0015346731331837675
-0.005015451541300663   -0.059116751359677096   -0.0016932273159839493
-0.004545200391541282   -0.059069315642482335   -0.0016591952451135983
-0.0045982384175193534   -0.05667418337796942   -0.0015346731331837675
-0.006064150892646493   -0.056638289986122275   -0.0015846122496856602
-0.005015451541300663   -0.059116751359677096   -0.0016932273159839493
-0.005986984358117368   -0.05663651737710865   -0.0015084676018466338
-0.004545200391541282   -0.059069315642482335   -0.0016591952451135983
-0.004884801492472164   -0.059134427320026293   -0.0016017445967537146
-0.005986984358117368   -0.05663651737710865   -0.0015084676018466338
-0.005015451541300663   -0.059116751359677096   -0.0016932273159839493
-0.004545200391541282   -0.059069315642482335   -0.0016591952451135983
-0.005986984358117368   -0.05663651737710865   -0.0015084676018466338
-0.004529374327675593   -0.056666157565638656   -0.0015263180732867935
-0.0045982384175193534   -0.05667418337796942   -0.0015346731331837675
-0.004545200391541282   -0.059069315642482335   -0.0016591952451135983
-0.005986984358117368   -0.05663651737710865   -0.0015084676018466338
-0.0045982384175193534   -0.05667418337796942   -0.0015346731331837675
-0.005015451541300663   -0.059116751359677096   -0.0016932273159839493
-0.0052484839402416675   -0.05920559185822922   -0.0018549375243836065
-0.006209513025246283   -0.056748824072829857   -0.001717196570897464
-0.005786567958716921   -0.05914122315820651   -0.002025163712267767
-0.005142517874127003   -0.05913806758941986   -0.0017791375794646521
-0.006209513025246283   -0.056748824072829857   -0.001717196570897464
-0.007825057539895323   -0.05657342398141453   -0.0018866692454216297
-0.005786567958716921   -0.05914122315820651   -0.002025163712267767
-0.007741158969575256   -0.05650845398124072   -0.001757604184083638
-0.005142517874127003   -0.05913806758941986   -0.0017791375794646521
-0.0056481706958303535   -0.059077391829084315   -0.0018751360887010124
-0.007741158969575256   -0.05650845398124072   -0.001757604184083638
-0.005786567958716921   -0.05914122315820651   -0.002025163712267767
-0.005142517874127003   -0.05913806758941986   -0.0017791375794646521
-0.007741158969575256   -0.05650845398124072   -0.001757604184083638
-0.006141017304219585   -0.05667451021296711   -0.0016539419548972862
-0.006209513025246283   -0.056748824072829857   -0.001717196570897464
-0.005142517874127003   -0.05913806758941986   -0.0017791375794646521
-0.007741158969575256   -0.05650845398124072   -0.001757604184083638
-0.006209513025246283   -0.056748824072829857   -0.001717196570897464
-0.005786567958716921   -0.05914122315820651   -0.002025163712267767
-0.005142517874127003   -0.05913806758941986   -0.0017791375794646521
-0.006141017304219585   -0.05667451021296711   -0.0016539419548972862
-0.0056481706958303535   -0.059077391829084315   -0.0018751360887010124
-0.005015451541300663   -0.059116751359677096   -0.0016932273159839493
-0.006141017304219585   -0.05667451021296711   -0.0016539419548972862
-0.007741158969575256   -0.05650845398124072   -0.001757604184083638
-0.0056481706958303535   -0.059077391829084315   -0.0018751360887010124
-0.007625274736978463   -0.05648089171400554   -0.0016229150305733582
-0.005015451541300663   -0.059116751359677096   -0.0016932273159839493
-0.005465472538084728   -0.05906298718858402   -0.001713836523299784
-0.007625274736978463   -0.05648089171400554   -0.0016229150305733582
-0.0056481706958303535   -0.059077391829084315   -0.0018751360887010124
-0.005015451541300663   -0.059116751359677096   -0.0016932273159839493
-0.007625274736978463   -0.05648089171400554   -0.0016229150305733582
-0.006064150892646493   -0.056638289986122275   -0.0015846122496856602
-0.006141017304219585   -0.05667451021296711   -0.0016539419548972862
-0.005015451541300663   -0.059116751359677096   -0.0016932273159839493
-0.007625274736978463   -0.05648089171400554   -0.0016229150305733582
-0.006141017304219585   -0.05667451021296711   -0.0016539419548972862
-0.0056481706958303535   -0.059077391829084315   -0.0018751360887010124
-0.005015451541300663   -0.059116751359677096   -0.0016932273159839493
-0.006064150892646493   -0.056638289986122275   -0.0015846122496856602
-0.005465472538084728   -0.05906298718858402   -0.001713836523299784
-0.004884801492472164   -0.059134427320026293   -0.0016017445967537146
-0.006064150892646493   -0.056638289986122275   -0.0015846122496856602
-0.007625274736978463   -0.05648089171400554   -0.0016229150305733582
-0.005465472538084728   -0.05906298718858402   -0.001713836523299784
-0.007524212765737604   -0.05649077667500287   -0.001478862349153884
-0.004884801492472164   -0.059134427320026293   -0.0016017445967537146
-0.005293744555157255   -0.059088502133459946   -0.0015463388839417403
-0.007524212765737604   -0.05649077667500287   -0.001478862349153884
-0.005465472538084728   -0.05906298718858402   -0.001713836523299784
-0.004884801492472164   -0.059134427320026293   -0.0016017445967537146
-0.007524212765737604   -0.05649077667500287   -0.001478862349153884
-0.005986984358117368   -0.05663651737710865   -0.0015084676018466338
-0.006064150892646493   -0.056638289986122275   -0.0015846122496856602
-0.004884801492472164   -0.059134427320026293   -0.0016017445967537146
-0.007524212765737604   -0.05649077667500287   -0.001478862349153884
-0.006064150892646493   -0.056638289986122275   -0.0015846122496856602
-0.005465472538084728   -0.05906298718858402   -0.001713836523299784
-0.005786567958716921   -0.05914122315820651   -0.002025163712267767
-0.007825057539895323   -0.05657342398141453   -0.0018866692454216297
-0.0068345335224721145   -0.05885198178080297   -0.0022059455220689687
-0.0056481706958303535   -0.059077391829084315   -0.0018751360887010124
-0.007825057539895323   -0.05657342398141453   -0.0018866692454216297
-0.009905412609063139   -0.056288165809956665   -0.0020495376220713343
-0.0068345335224721145   -0.05885198178080297   -0.0022059455220689687
-0.009634474514967828   -0.05621764126322685   -0.0018457438924336892
-0.0056481706958303535   -0.059077391829084315   -0.0018751360887010124
-0.006465721342830258   -0.05879804171797855   -0.001959823984354937
-0.009634474514967828   -0.05621764126322685   -0.0018457438924336892
-0.0068345335224721145   -0.05885198178080297   -0.0022059455220689687
-0.0056481706958303535   -0.059077391829084315   -0.0018751360887010124
-0.009634474514967828   -0.05621764126322685   -0.0018457438924336892
-0.007741158969575256   -0.05650845398124072   -0.001757604184083638
-0.007825057539895323   -0.05657342398141453   -0.0018866692454216297
-0.0056481706958303535   -0.059077391829084315   -0.0018751360887010124
-0.009634474514967828   -0.05621764126322685   -0.0018457438924336892
-0.007825057539895323   -0.05657342398141453   -0.0018866692454216297
-0.0068345335224721145   -0.05885198178080297   -0.0022059455220689687
-0.0056481706958303535   -0.059077391829084315   -0.0018751360887010124
-0.007741158969575256   -0.05650845398124072   -0.001757604184083638
-0.006465721342830258   -0.05879804171797855   -0.001959823984354937
-0.005465472538084728   -0.05906298718858402   -0.001713836523299784
-0.007741158969575256   -0.05650845398124072   -0.001757604184083638
-0.009634474514967828   -0.05621764126322685   -0.0018457438924336892
-0.006465721342830258   -0.05879804171797855   -0.001959823984354937
-0.00939176706992154   -0.056192147052845004   -0.0016301447667415908
-0.005465472538084728   -0.05906298718858402   -0.001713836523299784
-0.006127036703987384   -0.058790731951083426   -0.0016971998858435703
-0.00939176706992154   -0.056192147052845004   -0.0016301447667415908
-0.006465721342830258   -0.05879804171797855   -0.001959823984354937
-0.005465472538084728   -0.05906298718858402   -0.001713836523299784
-0.00939176706992154   -0.056192147052845004   -0.0016301447667415908
-0.007625274736978463   -0.05648089171400554   -0.0016229150305733582
-0.007741158969575256   -0.05650845398124072   -0.001757604184083638
-0.005465472538084728   -0.05906298718858402   -0.001713836523299784
-0.00939176706992154   -0.056192147052845004   -0.0016301447667415908
-0.007741158969575256   -0.05650845398124072   -0.001757604184083638
-0.006465721342830258   -0.05879804171797855   -0.001959823984354937
-0.005465472538084728   -0.05906298718858402   -0.001713836523299784
-0.007625274736978463   -0.05648089171400554   -0.0016229150305733582
-0.006127036703987384   -0.058790731951083426   -0.0016971998858435703
-0.005293744555157255   -0.059088502133459946   -0.0015463388839417403
-0.007625274736978463   -0.05648089171400554   -0.0016229150305733582
-0.00939176706992154   -0.056192147052845004   -0.0016301447667415908
-0.006127036703987384   -0.058790731951083426   -0.0016971998858435703
-0.009077225326383423   -0.05622488523522567   -0.001404782993273209
-0.005293744555157255   -0.059088502133459946   -0.0015463388839417403
-0.005699280910509998   -0.05886148466790541   -0.0014226061277881322
-0.009077225326383423   -0.05622488523522567   -0.001404782993273209
-0.006127036703987384   -0.058790731951083426   -0.0016971998858435703
-0.005293744555157255   -0.059088502133459946   -0.0015463388839417403
-0.009077225326383423   -0.05622488523522567   -0.001404782993273209
-0.007524212765737604   -0.05649077667500287   -0.001478862349153884
-0.007625274736978463   -0.05648089171400554   -0.0016229150305733582
-0.005293744555157255   -0.059088502133459946   -0.0015463388839417403
-0.009077225326383423   -0.05622488523522567   -0.001404782993273209
-0.007625274736978463   -0.05648089171400554   -0.0016229150305733582
-0.006127036703987384   -0.058790731951083426   -0.0016971998858435703
-0.0017585200043270088   -0.05657073157362785   -0.0010940646748510043
0.000286382266224632   -0.05249615312106326   -0.0009046800491809738
-0.003257775101472709   -0.056742303687481184   -0.0013357383050147944
-0.0015227630617504551   -0.056452023980917566   -0.0012625136581424
0.000286382266224632   -0.05249615312106326   -0.0009046800491809738
-0.002245758494469803   -0.05262215179850049   -0.0011419990256534426
-0.003257775101472709   -0.056742303687481184   -0.0013357383050147944
-0.002202149998212398   -0.05252164218983182   -0.0012009319808780122
-0.0015227630617504551   -0.056452023980917566   -0.0012625136581424
-0.003175617898958247   -0.05664640937857007   -0.0014099417150389482
-0.002202149998212398   -0.05252164218983182   -0.0012009319808780122
-0.003257775101472709   -0.056742303687481184   -0.0013357383050147944
-0.0015227630617504551   -0.056452023980917566   -0.0012625136581424
-0.002202149998212398   -0.05252164218983182   -0.0012009319808780122
0.0004512629211672423   -0.05237551258917434   -0.0010389734874646464
0.000286382266224632   -0.05249615312106326   -0.0009046800491809738
-0.0015227630617504551   -0.056452023980917566   -0.0012625136581424
-0.002202149998212398   -0.05252164218983182   -0.0012009319808780122
0.000286382266224632   -0.05249615312106326   -0.0009046800491809738
-0.003257775101472709   -0.056742303687481184   -0.0013357383050147944
-0.0015227630617504551   -0.056452023980917566   -0.0012625136581424
0.0004512629211672423   -0.05237551258917434   -0.0010389734874646464
-0.003175617898958247   -0.05664640937857007   -0.0014099417150389482
-0.0013372446329218712   -0.05639573295504078   -0.0014210935833311332
0.0004512629211672423   -0.05237551258917434   -0.0010389734874646464
-0.002202149998212398   -0.05252164218983182   -0.0012009319808780122
-0.003175617898958247   -0.05664640937857007   -0.0014099417150389482
-0.002152446792253283   -0.05245621871381511   -0.0012530321751680058
-0.0013372446329218712   -0.05639573295504078   -0.0014210935833311332
-0.003083068269700718   -0.0565934922321637   -0.0014774858022503817
-0.002152446792253283   -0.05245621871381511   -0.0012530321751680058
-0.003175617898958247   -0.05664640937857007   -0.0014099417150389482
-0.0013372446329218712   -0.05639573295504078   -0.0014210935833311332
-0.002152446792253283   -0.05245621871381511   -0.0012530321751680058
0.0005725767305901887   -0.052306056307084695   -0.0011637030751533077
0.0004512629211672423   -0.05237551258917434   -0.0010389734874646464
-0.0013372446329218712   -0.05639573295504078   -0.0014210935833311332
-0.002152446792253283   -0.05245621871381511   -0.0012530321751680058
0.0004512629211672423   -0.05237551258917434   -0.0010389734874646464
-0.003175617898958247   -0.05664640937857007   -0.0014099417150389482
-0.0013372446329218712   -0.05639573295504078   -0.0014210935833311332
0.0005725767305901887   -0.052306056307084695   -0.0011637030751533077
-0.003083068269700718   -0.0565934922321637   -0.0014774858022503817
-0.001134511977912332   -0.056385638754550306   -0.001569389677126322
0.0005725767305901887   -0.052306056307084695   -0.0011637030751533077
-0.002152446792253283   -0.05245621871381511   -0.0012530321751680058
-0.003083068269700718   -0.0565934922321637   -0.0014774858022503817
-0.002122725823591437   -0.05242393768769996   -0.0012989745384785914
-0.001134511977912332   -0.056385638754550306   -0.001569389677126322
-0.0030121269096876255   -0.05658207122483788   -0.0015385852225550053
-0.002122725823591437   -0.05242393768769996   -0.0012989745384785914
-0.003083068269700718   -0.0565934922321637   -0.0014774858022503817
-0.001134511977912332   -0.056385638754550306   -0.001569389677126322
-0.002122725823591437   -0.05242393768769996   -0.0012989745384785914
0.0007025697722253763   -0.052272203290479324   -0.0012788240689016982
0.0005725767305901887   -0.052306056307084695   -0.0011637030751533077
-0.001134511977912332   -0.056385638754550306   -0.001569389677126322
-0.002122725823591437   -0.05242393768769996   -0.0012989745384785914
0.0005725767305901887   -0.052306056307084695   -0.0011637030751533077
-0.003083068269700718   -0.0565934922321637   -0.0014774858022503817
-0.003257775101472709   -0.056742303687481184   -0.0013357383050147944
-0.002245758494469803   -0.05262215179850049   -0.0011419990256534426
-0.004738694304176384   -0.05680274806721864   -0.0015327707252247877
-0.003175617898958247   -0.05664640937857007   -0.0014099417150389482
-0.002245758494469803   -0.05262215179850049   -0.0011419990256534426
-0.00469621689146459   -0.05264627438537871   -0.0013374122162606395
-0.004738694304176384   -0.05680274806721864   -0.0015327707252247877
-0.004664193100974528   -0.052560024792857006   -0.001338890855748908
-0.003175617898958247   -0.05664640937857007   -0.0014099417150389482
-0.004669652774179613   -0.056719096076007496   -0.001536805994347621
-0.004664193100974528   -0.052560024792857006   -0.001338890855748908
-0.004738694304176384   -0.05680274806721864   -0.0015327707252247877
-0.003175617898958247   -0.05664640937857007   -0.0014099417150389482
-0.004664193100974528   -0.052560024792857006   -0.001338890855748908
-0.002202149998212398   -0.05252164218983182   -0.0012009319808780122
-0.002245758494469803   -0.05262215179850049   -0.0011419990256534426
-0.003175617898958247   -0.05664640937857007   -0.0014099417150389482
-0.004664193100974528   -0.052560024792857006   -0.001338890855748908
-0.002245758494469803   -0.05262215179850049   -0.0011419990256534426
-0.004738694304176384   -0.05680274806721864   -0.0015327707252247877
-0.003175617898958247   -0.05664640937857007   -0.0014099417150389482
-0.002202149998212398   -0.05252164218983182   -0.0012009319808780122
-0.004669652774179613   -0.056719096076007496   -0.001536805994347621
-0.003083068269700718   -0.0565934922321637   -0.0014774858022503817
-0.002202149998212398   -0.05252164218983182   -0.0012009319808780122
-0.004664193100974528   -0.052560024792857006   -0.001338890855748908
-0.004669652774179613   -0.056719096076007496   -0.001536805994347621
-0.004631257225816456   -0.05250517585617531   -0.0013338213496657178
-0.003083068269700718   -0.0565934922321637   -0.0014774858022503817
-0.0045982384175193534   -0.05667418337796942   -0.0015346731331837675
-0.004631257225816456   -0.05250517585617531   -0.0013338213496657178
-0.004669652774179613   -0.056719096076007496   -0.001536805994347621
-0.003083068269700718   -0.0565934922321637   -0.0014774858022503817
-0.004631257225816456   -0.05250517585617531   -0.0013338213496657178
-0.002152446792253283   -0.05245621871381511   -0.0012530321751680058
-0.002202149998212398   -0.05252164218983182   -0.0012009319808780122
-0.003083068269700718   -0.0565934922321637   -0.0014774858022503817
-0.004631257225816456   -0.05250517585617531   -0.0013338213496657178
-0.002202149998212398   -0.05252164218983182   -0.0012009319808780122
-0.004669652774179613   -0.056719096076007496   -0.001536805994347621
-0.003083068269700718   -0.0565934922321637   -0.0014774858022503817
-0.002152446792253283   -0.05245621871381511   -0.0012530321751680058
-0.0045982384175193534   -0.05667418337796942   -0.0015346731331837675
-0.0030121269096876255   -0.05658207122483788   -0.0015385852225550053
-0.002152446792253283   -0.05245621871381511   -0.0012530321751680058
-0.004631257225816456   -0.05250517585617531   -0.0013338213496657178
-0.0045982384175193534   -0.05667418337796942   -0.0015346731331837675
-0.004602452270889591   -0.052481214347212285   -0.0013226423347863577
-0.0030121269096876255   -0.05658207122483788   -0.0015385852225550053
-0.004529374327675593   -0.056666157565638656   -0.0015263180732867935
-0.004602452270889591   -0.052481214347212285   -0.0013226423347863577
-0.0045982384175193534   -0.05667418337796942   -0.0015346731331837675
-0.0030121269096876255   -0.05658207122483788   -0.0015385852225550053
-0.004602452270889591   -0.052481214347212285   -0.0013226423347863577
-0.002122725823591437   -0.05242393768769996   -0.0012989745384785914
-0.002152446792253283   -0.05245621871381511   -0.0012530321751680058
-0.0030121269096876255   -0.05658207122483788   -0.0015385852225550053
-0.004602452270889591   -0.052481214347212285   -0.0013226423347863577
-0.002152446792253283   -0.05245621871381511   -0.0012530321751680058
-0.0045982384175193534   -0.05667418337796942   -0.0015346731331837675
-0.004738694304176384   -0.05680274806721864   -0.0015327707252247877
-0.00469621689146459   -0.05264627438537871   -0.0013374122162606395
-0.006209513025246283   -0.056748824072829857   -0.001717196570897464
-0.004669652774179613   -0.056719096076007496   -0.001536805994347621
-0.00469621689146459   -0.05264627438537871   -0.0013374122162606395
-0.007108340313166636   -0.05256815153545921   -0.0015137924510017465
-0.006209513025246283   -0.056748824072829857   -0.001717196570897464
-0.00707852950036367   -0.05249374668547652   -0.0014592000140574086
-0.004669652774179613   -0.056719096076007496   -0.001536805994347621
-0.006141017304219585   -0.05667451021296711   -0.0016539419548972862
-0.00707852950036367   -0.05249374668547652   -0.0014592000140574086
-0.006209513025246283   -0.056748824072829857   -0.001717196570897464
-0.004669652774179613   -0.056719096076007496   -0.001536805994347621
-0.00707852950036367   -0.05249374668547652   -0.0014592000140574086
-0.004664193100974528   -0.052560024792857006   -0.001338890855748908
-0.00469621689146459   -0.05264627438537871   -0.0013374122162606395
-0.004669652774179613   -0.056719096076007496   -0.001536805994347621
-0.00707852950036367   -0.05249374668547652   -0.0014592000140574086
-0.00469621689146459   -0.05264627438537871   -0.0013374122162606395
-0.006209513025246283   -0.056748824072829857   -0.001717196570897464
-0.004669652774179613   -0.056719096076007496   -0.001536805994347621
-0.004664193100974528   -0.052560024792857006   -0.001338890855748908
-0.006141017304219585   -0.05667451021296711   -0.0016539419548972862
-0.0045982384175193534   -0.05667418337796942   -0.0015346731331837675
-0.004664193100974528   -0.052560024792857006   -0.001338890855748908
-0.00707852950036367   -0.05249374668547652   -0.0014592000140574086
-0.006141017304219585   -0.05667451021296711   -0.0016539419548972862
-0.007042503829536857   -0.052450398017390806   -0.0013982029689161661
-0.0045982384175193534   -0.05667418337796942   -0.0015346731331837675
-0.006064150892646493   -0.056638289986122275   -0.0015846122496856602
-0.007042503829536857   -0.052450398017390806   -0.0013982029689161661
-0.006141017304219585   -0.05667451021296711   -0.0016539419548972862
-0.0045982384175193534   -0.05667418337796942   -0.0015346731331837675
-0.007042503829536857   -0.052450398017390806   -0.0013982029689161661
-0.004631257225816456   -0.05250517585617531   -0.0013338213496657178
-0.004664193100974528   -0.052560024792857006   -0.001338890855748908
-0.0045982384175193534   -0.05667418337796942   -0.0015346731331837675
-0.007042503829536857   -0.052450398017390806   -0.0013982029689161661
-0.004664193100974528   -0.052560024792857006   -0.001338890855748908
-0.006141017304219585   -0.05667451021296711   -0.0016539419548972862
-0.0045982384175193534   -0.05667418337796942   -0.0015346731331837675
-0.004631257225816456   -0.05250517585617531   -0.0013338213496657178
-0.006064150892646493   -0.056638289986122275   -0.0015846122496856602
-0.004529374327675593   -0.056666157565638656   -0.0015263180732867935
-0.004631257225816456   -0.05250517585617531   -0.0013338213496657178
-0.007042503829536857   -0.052450398017390806   -0.0013982029689161661
-0.006064150892646493   -0.056638289986122275   -0.0015846122496856602
-0.007007476081478051   -0.052436671777420715   -0.0013309981871287137
-0.004529374327675593   -0.056666157565638656   -0.0015263180732867935
-0.005986984358117368   -0.05663651737710865   -0.0015084676018466338
-0.007007476081478051   -0.052436671777420715   -0.0013309981871287137
-0.006064150892646493   -0.056638289986122275   -0.0015846122496856602
-0.004529374327675593   -0.056666157565638656   -0.0015263180732867935
-0.007007476081478051   -0.052436671777420715   -0.0013309981871287137
-0.004602452270889591   -0.052481214347212285   -0.0013226423347863577
-0.004631257225816456   -0.05250517585617531   -0.0013338213496657178
-0.004529374327675593   -0.056666157565638656   -0.0015263180732867935
-0.007007476081478051   -0.052436671777420715   -0.0013309981871287137
-0.004631257225816456   -0.05250517585617531   -0.0013338213496657178
-0.006064150892646493   -0.056638289986122275   -0.0015846122496856602
-0.006209513025246283   -0.056748824072829857   -0.001717196570897464
-0.007108340313166636   -0.05256815153545921   -0.0015137924510017465
-0.007825057539895323   -0.05657342398141453   -0.0018866692454216297
-0.006141017304219585   -0.05667451021296711   -0.0016539419548972862
-0.007108340313166636   -0.05256815153545921   -0.0015137924510017465
-0.009635906019068536   -0.052390526339339334   -0.0016704955932817919
-0.007825057539895323   -0.05657342398141453   -0.0018866692454216297
-0.0095969133746385   -0.05232741347106381   -0.0015597532475709538
-0.006141017304219585   -0.05667451021296711   -0.0016539419548972862
-0.007741158969575256   -0.05650845398124072   -0.001757604184083638
-0.0095969133746385   -0.05232741347106381   -0.0015597532475709538
-0.007825057539895323   -0.05657342398141453   -0.0018866692454216297
-0.006141017304219585   -0.05667451021296711   -0.0016539419548972862
-0.0095969133746385   -0.05232741347106381   -0.0015597532475709538
-0.00707852950036367   -0.05249374668547652   -0.0014592000140574086
-0.007108340313166636   -0.05256815153545921   -0.0015137924510017465
-0.006141017304219585   -0.05667451021296711   -0.0016539419548972862
-0.0095969133746385   -0.05232741347106381   -0.0015597532475709538
-0.007108340313166636   -0.05256815153545921   -0.0015137924510017465
-0.007825057539895323   -0.05657342398141453   -0.0018866692454216297
-0.006141017304219585   -0.05667451021296711   -0.0016539419548972862
-0.00707852950036367   -0.05249374668547652   -0.0014592000140574086
-0.007741158969575256   -0.05650845398124072   -0.001757604184083638
-0.006064150892646493   -0.056638289986122275   -0.0015846122496856602
-0.00707852950036367   -0.05249374668547652   -0.0014592000140574086
-0.0095969133746385   -0.05232741347106381   -0.0015597532475709538
-0.007741158969575256   -0.05650845398124072   -0.001757604184083638
-0.009530781454176776   -0.05229449095582529   -0.0014435928546674616
-0.006064150892646493   -0.056638289986122275   -0.0015846122496856602
-0.007625274736978463   -0.05648089171400554   -0.0016229150305733582
-0.009530781454176776   -0.05229449095582529   -0.0014435928546674616
-0.007741158969575256   -0.05650845398124072   -0.001757604184083638
-0.006064150892646493   -0.056638289986122275   -0.0015846122496856602
-0.009530781454176776   -0.05229449095582529   -0.0014435928546674616
-0.007042503829536857   -0.052450398017390806   -0.0013982029689161661
-0.00707852950036367   -0.05249374668547652   -0.0014592000140574086
-0.006064150892646493   -0.056638289986122275   -0.0015846122496856602
-0.009530781454176776   -0.05229449095582529   -0.0014435928546674616
-0.00707852950036367   -0.05249374668547652   -0.0014592000140574086
-0.007741158969575256   -0.05650845398124072   -0.001757604184083638
-0.006064150892646493   -0.056638289986122275   -0.0015846122496856602
-0.007042503829536857   -0.052450398017390806   -0.0013982029689161661
-0.007625274736978463   -0.05648089171400554   -0.0016229150305733582
-0.005986984358117368   -0.05663651737710865   -0.0015084676018466338
-0.007042503829536857   -0.052450398017390806   -0.0013982029689161661
-0.009530781454176776   -0.05229449095582529   -0.0014435928546674616
-0.007625274736978463   -0.05648089171400554   -0.0016229150305733582
-0.009477125060114102   -0.05229351218722542   -0.0013203200355800602
-0.005986984358117368   -0.05663651737710865   -0.0015084676018466338
-0.007524212765737604   -0.05649077667500287   -0.001478862349153884
-0.009477125060114102   -0.05229351218722542   -0.0013203200355800602
-0.007625274736978463   -0.05648089171400554   -0.0016229150305733582
-0.005986984358117368   -0.05663651737710865   -0.0015084676018466338
-0.009477125060114102   -0.05229351218722542   -0.0013203200355800602
-0.007007476081478051   -0.052436671777420715   -0.0013309981871287137
-0.007042503829536857   -0.052450398017390806   -0.0013982029689161661
-0.005986984358117368   -0.05663651737710865   -0.0015084676018466338
-0.009477125060114102   -0.05229351218722542   -0.0013203200355800602
-0.007042503829536857   -0.052450398017390806   -0.0013982029689161661
-0.007625274736978463   -0.05648089171400554   -0.0016229150305733582
-0.007825057539895323   -0.05657342398141453   -0.0018866692454216297
-0.009635906019068536   -0.052390526339339334   -0.0016704955932817919
-0.009905412609063139   -0.056288165809956665   -0.0020495376220713343
-0.007741158969575256   -0.05650845398124072   -0.001757604184083638
-0.009635906019068536   -0.052390526339339334   -0.0016704955932817919
-0.012583506219020853   -0.05213460645461849   -0.0018167435844163372
-0.009905412609063139   -0.056288165809956665   -0.0020495376220713343
-0.012383292328424899   -0.05206872085312383   -0.0016433710936047965
-0.007741158969575256   -0.05650845398124072   -0.001757604184083638
-0.009634474514967828   -0.05621764126322685   -0.0018457438924336892
-0.012383292328424899   -0.05206872085312383   -0.0016433710936047965
-0.009905412609063139   -0.056288165809956665   -0.0020495376220713343
-0.007741158969575256   -0.05650845398124072   -0.001757604184083638
-0.012383292328424899   -0.05206872085312383   -0.0016433710936047965
-0.0095969133746385   -0.05232741347106381   -0.0015597532475709538
-0.009635906019068536   -0.052390526339339334   -0.0016704955932817919
-0.007741158969575256   -0.05650845398124072   -0.001757604184083638
-0.012383292328424899   -0.05206872085312383   -0.0016433710936047965
-0.009635906019068536   -0.052390526339339334   -0.0016704955932817919
-0.009905412609063139   -0.056288165809956665   -0.0020495376220713343
-0.007741158969575256   -0.05650845398124072   -0.001757604184083638
-0.0095969133746385   -0.05232741347106381   -0.0015597532475709538
-0.009634474514967828   -0.05621764126322685   -0.0018457438924336892
-0.007625274736978463   -0.05648089171400554   -0.0016229150305733582
-0.0095969133746385   -0.05232741347106381   -0.0015597532475709538
-0.012383292328424899   -0.05206872085312383   -0.0016433710936047965
-0.009634474514967828   -0.05621764126322685   -0.0018457438924336892
-0.012209617148911547   -0.052038629220189675   -0.0014610583752210913
-0.007625274736978463   -0.05648089171400554   -0.0016229150305733582
-0.00939176706992154   -0.056192147052845004   -0.0016301447667415908
-0.012209617148911547   -0.052038629220189675   -0.0014610583752210913
-0.009634474514967828   -0.05621764126322685   -0.0018457438924336892
-0.007625274736978463   -0.05648089171400554   -0.0016229150305733582
-0.012209617148911547   -0.052038629220189675   -0.0014610583752210913
-0.009530781454176776   -0.05229449095582529   -0.0014435928546674616
-0.0095969133746385   -0.05232741347106381   -0.0015597532475709538
-0.007625274736978463   -0.05648089171400554   -0.0016229150305733582
-0.012209617148911547   -0.052038629220189675   -0.0014610583752210913
-0.0095969133746385   -0.05232741347106381   -0.0015597532475709538
-0.009634474514967828   -0.05621764126322685   -0.0018457438924336892
-0.007625274736978463   -0.05648089171400554   -0.0016229150305733582
-0.009530781454176776   -0.05229449095582529   -0.0014435928546674616
-0.00939176706992154   -0.056192147052845004   -0.0016301447667415908
-0.007524212765737604   -0.05649077667500287   -0.001478862349153884
-0.009530781454176776   -0.05229449095582529   -0.0014435928546674616
-0.012209617148911547   -0.052038629220189675   -0.0014610583752210913
-0.00939176706992154   -0.056192147052845004   -0.0016301447667415908
-0.01197567033349364   -0.05205733790619551   -0.0012709658503382041
-0.007524212765737604   -0.05649077667500287   -0.001478862349153884
-0.009077225326383423   -0.05622488523522567   -0.001404782993273209
-0.01197567033349364   -0.05205733790619551   -0.0012709658503382041
-0.00939176706992154   -0.056192147052845004   -0.0016301447667415908
-0.007524212765737604   -0.05649077667500287   -0.001478862349153884
-0.01197567033349364   -0.05205733790619551   -0.0012709658503382041
-0.009477125060114102   -0.05229351218722542   -0.0013203200355800602
-0.009530781454176776   -0.05229449095582529   -0.0014435928546674616
-0.007524212765737604   -0.05649077667500287   -0.001478862349153884
-0.01197567033349364   -0.05205733790619551   -0.0012709658503382041
-0.009530781454176776   -0.05229449095582529   -0.0014435928546674616
-0.00939176706992154   -0.056192147052845004   -0.0016301447667415908
0.000286382266224632   -0.05249615312106326   -0.0009046800491809738
0.0018411327660406152   -0.04695852283176161   -0.0006892889442024782
-0.002245758494469803   -0.05262215179850049   -0.0011419990256534426
0.0004512629211672423   -0.05237551258917434   -0.0010389734874646464
0.0018411327660406152   -0.04695852283176161   -0.0006892889442024782
-0.0015140324595250758   -0.04704196818654578   -0.00091583527485657
-0.002245758494469803   -0.05262215179850049   -0.0011419990256534426
-0.0015048729961690355   -0.04694199418230031   -0.0009567630626839211
0.0004512629211672423   -0.05237551258917434   -0.0010389734874646464
-0.002202149998212398   -0.05252164218983182   -0.0012009319808780122
-0.0015048729961690355   -0.04694199418230031   -0.0009567630626839211
-0.002245758494469803   -0.05262215179850049   -0.0011419990256534426
0.0004512629211672423   -0.05237551258917434   -0.0010389734874646464
-0.0015048729961690355   -0.04694199418230031   -0.0009567630626839211
0.0019393457860644922   -0.04684077752152363   -0.0007887745815177109
0.0018411327660406152   -0.04695852283176161   -0.0006892889442024782
0.0004512629211672423   -0.05237551258917434   -0.0010389734874646464
-0.0015048729961690355   -0.04694199418230031   -0.0009567630626839211
0.0018411327660406152   -0.04695852283176161   -0.0006892889442024782
-0.002245758494469803   -0.05262215179850049   -0.0011419990256534426
0.0004512629211672423   -0.05237551258917434   -0.0010389734874646464
0.0019393457860644922   -0.04684077752152363   -0.0007887745815177109
-0.002202149998212398   -0.05252164218983182   -0.0012009319808780122
0.0005725767305901887   -0.052306056307084695   -0.0011637030751533077
0.0019393457860644922   -0.04684077752152363   -0.0007887745815177109
-0.0015048729961690355   -0.04694199418230031   -0.0009567630626839211
-0.002202149998212398   -0.05252164218983182   -0.0012009319808780122
-0.00149320823023673   -0.046869733199122354   -0.000991439007333763
0.0005725767305901887   -0.052306056307084695   -0.0011637030751533077
-0.002152446792253283   -0.05245621871381511   -0.0012530321751680058
-0.00149320823023673   -0.046869733199122354   -0.000991439007333763
-0.002202149998212398   -0.05252164218983182   -0.0012009319808780122
0.0005725767305901887   -0.052306056307084695   -0.0011637030751533077
-0.00149320823023673   -0.046869733199122354   -0.000991439007333763
0.0020022132872320035   -0.04676377835638179   -0.0008794236264203632
0.0019393457860644922   -0.04684077752152363   -0.0007887745815177109
0.0005725767305901887   -0.052306056307084695   -0.0011637030751533077
-0.00149320823023673   -0.046869733199122354   -0.000991439007333763
0.0019393457860644922   -0.04684077752152363   -0.0007887745815177109
-0.002202149998212398   -0.05252164218983182   -0.0012009319808780122
0.0005725767305901887   -0.052306056307084695   -0.0011637030751533077
0.0020022132872320035   -0.04676377835638179   -0.0008794236264203632
-0.002152446792253283   -0.05245621871381511   -0.0012530321751680058
0.0007025697722253763   -0.052272203290479324   -0.0012788240689016982
0.0020022132872320035   -0.04676377835638179   -0.0008794236264203632
-0.00149320823023673   -0.046869733199122354   -0.000991439007333763
-0.002152446792253283   -0.05245621871381511   -0.0012530321751680058
-0.0014986191586441142   -0.04682286089805417   -0.0010203188448752684
0.0007025697722253763   -0.052272203290479324   -0.0012788240689016982
-0.002122725823591437   -0.05242393768769996   -0.0012989745384785914
-0.0014986191586441142   -0.04682286089805417   -0.0010203188448752684
-0.002152446792253283   -0.05245621871381511   -0.0012530321751680058
0.0007025697722253763   -0.052272203290479324   -0.0012788240689016982
-0.0014986191586441142   -0.04682286089805417   -0.0010203188448752684
0.0020668765298047682   -0.04671252157707738   -0.0009614230024186164
0.0020022132872320035   -0.04676377835638179   -0.0008794236264203632
0.0007025697722253763   -0.052272203290479324   -0.0012788240689016982
-0.0014986191586441142   -0.04682286089805417   -0.0010203188448752684
0.0020022132872320035   -0.04676377835638179   -0.0008794236264203632
-0.002152446792253283   -0.05245621871381511   -0.0012530321751680058
-0.002245758494469803   -0.05262215179850049   -0.0011419990256534426
-0.0015140324595250758   -0.04704196818654578   -0.00091583527485657
-0.00469621689146459   -0.05264627438537871   -0.0013374122162606395
-0.002202149998212398   -0.05252164218983182   -0.0012009319808780122
-0.0015140324595250758   -0.04704196818654578   -0.00091583527485657
-0.004743378639886811   -0.04704248788833776   -0.0011025135703216103
-0.00469621689146459   -0.05264627438537871   -0.0013374122162606395
-0.004743750186966962   -0.046957955445459644   -0.001098646005070538
-0.002202149998212398   -0.05252164218983182   -0.0012009319808780122
-0.004664193100974528   -0.052560024792857006   -0.001338890855748908
-0.004743750186966962   -0.046957955445459644   -0.001098646005070538
-0.00469621689146459   -0.05264627438537871   -0.0013374122162606395
-0.002202149998212398   -0.05252164218983182   -0.0012009319808780122
-0.004743750186966962   -0.046957955445459644   -0.001098646005070538
-0.0015048729961690355   -0.04694199418230031   -0.0009567630626839211
-0.0015140324595250758   -0.04704196818654578   -0.00091583527485657
-0.002202149998212398   -0.05252164218983182   -0.0012009319808780122
-0.004743750186966962   -0.046957955445459644   -0.001098646005070538
-0.0015140324595250758   -0.04704196818654578   -0.00091583527485657
-0.00469621689146459   -0.05264627438537871   -0.0013374122162606395
-0.002202149998212398   -0.05252164218983182   -0.0012009319808780122
-0.0015048729961690355   -0.04694199418230031   -0.0009567630626839211
-0.004664193100974528   -0.052560024792857006   -0.001338890855748908
-0.002152446792253283   -0.05245621871381511   -0.0012530321751680058
-0.0015048729961690355   -0.04694199418230031   -0.0009567630626839211
-0.004743750186966962   -0.046957955445459644   -0.001098646005070538
-0.004664193100974528   -0.052560024792857006   -0.001338890855748908
-0.004743902346466109   -0.04689785091399479   -0.0010885491058530588
-0.002152446792253283   -0.05245621871381511   -0.0012530321751680058
-0.004631257225816456   -0.05250517585617531   -0.0013338213496657178
-0.004743902346466109   -0.04689785091399479   -0.0010885491058530588
-0.004664193100974528   -0.052560024792857006   -0.001338890855748908
-0.002152446792253283   -0.05245621871381511   -0.0012530321751680058
-0.004743902346466109   -0.04689785091399479   -0.0010885491058530588
-0.00149320823023673   -0.046869733199122354   -0.000991439007333763
-0.0015048729961690355   -0.04694199418230031   -0.0009567630626839211
-0.002152446792253283   -0.05245621871381511   -0.0012530321751680058
-0.004743902346466109   -0.04689785091399479   -0.0010885491058530588
-0.0015048729961690355   -0.04694199418230031   -0.0009567630626839211
-0.004664193100974528   -0.052560024792857006   -0.001338890855748908
-0.002152446792253283   -0.05245621871381511   -0.0012530321751680058
-0.00149320823023673   -0.046869733199122354   -0.000991439007333763
-0.004631257225816456   -0.05250517585617531   -0.0013338213496657178
-0.002122725823591437   -0.05242393768769996   -0.0012989745384785914
-0.00149320823023673   -0.046869733199122354   -0.000991439007333763
-0.004743902346466109   -0.04689785091399479   -0.0010885491058530588
-0.004631257225816456   -0.05250517585617531   -0.0013338213496657178
-0.004748367045914283   -0.0468622182383669   -0.0010725484244542805
-0.002122725823591437   -0.05242393768769996   -0.0012989745384785914
-0.004602452270889591   -0.052481214347212285   -0.0013226423347863577
-0.004748367045914283   -0.0468622182383669   -0.0010725484244542805
-0.004631257225816456   -0.05250517585617531   -0.0013338213496657178
-0.002122725823591437   -0.05242393768769996   -0.0012989745384785914
-0.004748367045914283   -0.0468622182383669   -0.0010725484244542805
-0.0014986191586441142   -0.04682286089805417   -0.0010203188448752684
-0.00149320823023673   -0.046869733199122354   -0.000991439007333763
-0.002122725823591437   -0.05242393768769996   -0.0012989745384785914
-0.004748367045914283   -0.0468622182383669   -0.0010725484244542805
-0.00149320823023673   -0.046869733199122354   -0.000991439007333763
-0.004631257225816456   -0.05250517585617531   -0.0013338213496657178
-0.00469621689146459   -0.05264627438537871   -0.0013374122162606395
-0.004743378639886811   -0.04704248788833776   -0.0011025135703216103
-0.007108340313166636   -0.05256815153545921   -0.0015137924510017465
-0.004664193100974528   -0.052560024792857006   -0.001338890855748908
-0.004743378639886811   -0.04704248788833776   -0.0011025135703216103
-0.007918045065646072   -0.04696204165818396   -0.0012659879052312902
-0.007108340313166636   -0.05256815153545921   -0.0015137924510017465
-0.007920812536340544   -0.04689106031761153   -0.001217867611878849
-0.004664193100974528   -0.052560024792857006   -0.001338890855748908
-0.00707852950036367   -0.05249374668547652   -0.0014592000140574086
-0.007920812536340544   -0.04689106031761153   -0.001217867611878849
-0.007108340313166636   -0.05256815153545921   -0.0015137924510017465
-0.004664193100974528   -0.052560024792857006   -0.001338890855748908
-0.007920812536340544   -0.04689106031761153   -0.001217867611878849
-0.004743750186966962   -0.046957955445459644   -0.001098646005070538
-0.004743378639886811   -0.04704248788833776   -0.0011025135703216103
-0.004664193100974528   -0.052560024792857006   -0.001338890855748908
-0.007920812536340544   -0.04689106031761153   -0.001217867611878849
-0.004743378639886811   -0.04704248788833776   -0.0011025135703216103
-0.007108340313166636   -0.05256815153545921   -0.0015137924510017465
-0.004664193100974528   -0.052560024792857006   -0.001338890855748908
-0.004743750186966962   -0.046957955445459644   -0.001098646005070538
-0.00707852950036367   -0.05249374668547652   -0.0014592000140574086
-0.004631257225816456   -0.05250517585617531   -0.0013338213496657178
-0.004743750186966962   -0.046957955445459644   -0.001098646005070538
-0.007920812536340544   -0.04689106031761153   -0.001217867611878849
-0.00707852950036367   -0.05249374668547652   -0.0014592000140574086
-0.007918174038385472   -0.04684429101559465   -0.0011636401484110023
-0.004631257225816456   -0.05250517585617531   -0.0013338213496657178
-0.007042503829536857   -0.052450398017390806   -0.0013982029689161661
-0.007918174038385472   -0.04684429101559465   -0.0011636401484110023
-0.00707852950036367   -0.05249374668547652   -0.0014592000140574086
-0.004631257225816456   -0.05250517585617531   -0.0013338213496657178
-0.007918174038385472   -0.04684429101559465   -0.0011636401484110023
-0.004743902346466109   -0.04689785091399479   -0.0010885491058530588
-0.004743750186966962   -0.046957955445459644   -0.001098646005070538
-0.004631257225816456   -0.05250517585617531   -0.0013338213496657178
-0.007918174038385472   -0.04684429101559465   -0.0011636401484110023
-0.004743750186966962   -0.046957955445459644   -0.001098646005070538
-0.00707852950036367   -0.05249374668547652   -0.0014592000140574086
-0.004631257225816456   -0.05250517585617531   -0.0013338213496657178
-0.004743902346466109   -0.04689785091399479   -0.0010885491058530588
-0.007042503829536857   -0.052450398017390806   -0.0013982029689161661
-0.004602452270889591   -0.052481214347212285   -0.0013226423347863577
-0.004743902346466109   -0.04689785091399479   -0.0010885491058530588
-0.007918174038385472   -0.04684429101559465   -0.0011636401484110023
-0.007042503829536857   -0.052450398017390806   -0.0013982029689161661
-0.00791651592201206   -0.04682131103592088   -0.0011034829795305643
-0.004602452270889591   -0.052481214347212285   -0.0013226423347863577
-0.007007476081478051   -0.052436671777420715   -0.0013309981871287137
-0.00791651592201206   -0.04682131103592088   -0.0011034829795305643
-0.007042503829536857   -0.052450398017390806   -0.0013982029689161661
-0.004602452270889591   -0.052481214347212285   -0.0013226423347863577
-0.00791651592201206   -0.04682131103592088   -0.0011034829795305643
-0.004748367045914283   -0.0468622182383669   -0.0010725484244542805
-0.004743902346466109   -0.04689785091399479   -0.0010885491058530588
-0.004602452270889591   -0.052481214347212285   -0.0013226423347863577
-0.00791651592201206   -0.04682131103592088   -0.0011034829795305643
-0.004743902346466109   -0.04689785091399479   -0.0010885491058530588
-0.007042503829536857   -0.052450398017390806   -0.0013982029689161661
-0.007108340313166636   -0.05256815153545921   -0.0015137924510017465
-0.007918045065646072   -0.04696204165818396   -0.0012659879052312902
-0.009635906019068536   -0.052390526339339334   -0.0016704955932817919
-0.00707852950036367   -0.05249374668547652   -0.0014592000140574086
-0.007918045065646072   -0.04696204165818396   -0.0012659879052312902
-0.011191553114791778   -0.04680365506774048   -0.00140658925113714
-0.009635906019068536   -0.052390526339339334   -0.0016704955932817919
-0.011187622611251731   -0.04674563692779046   -0.0013136886338562053
-0.00707852950036367   -0.05249374668547652   -0.0014592000140574086
-0.0095969133746385   -0.05232741347106381   -0.0015597532475709538
-0.011187622611251731   -0.04674563692779046   -0.0013136886338562053
-0.009635906019068536   -0.052390526339339334   -0.0016704955932817919
-0.00707852950036367   -0.05249374668547652   -0.0014592000140574086
-0.011187622611251731   -0.04674563692779046   -0.0013136886338562053
-0.007920812536340544   -0.04689106031761153   -0.001217867611878849
-0.007918045065646072   -0.04696204165818396   -0.0012659879052312902
-0.00707852950036367   -0.05249374668547652   -0.0014592000140574086
-0.011187622611251731   -0.04674563692779046   -0.0013136886338562053
-0.007918045065646072   -0.04696204165818396   -0.0012659879052312902
-0.009635906019068536   -0.052390526339339334   -0.0016704955932817919
-0.00707852950036367   -0.05249374668547652   -0.0014592000140574086
-0.007920812536340544   -0.04689106031761153   -0.001217867611878849
-0.0095969133746385   -0.05232741347106381   -0.0015597532475709538
-0.007042503829536857   -0.052450398017390806   -0.0013982029689161661
-0.007920812536340544   -0.04689106031761153   -0.001217867611878849
-0.011187622611251731   -0.04674563692779046   -0.0013136886338562053
-0.0095969133746385   -0.05232741347106381   -0.0015597532475709538
-0.011160077275358402   -0.04671095971204432   -0.0012156022828536683
-0.007042503829536857   -0.052450398017390806   -0.0013982029689161661
-0.009530781454176776   -0.05229449095582529   -0.0014435928546674616
-0.011160077275358402   -0.04671095971204432   -0.0012156022828536683
-0.0095969133746385   -0.05232741347106381   -0.0015597532475709538
-0.007042503829536857   -0.052450398017390806   -0.0013982029689161661
-0.011160077275358402   -0.04671095971204432   -0.0012156022828536683
-0.007918174038385472   -0.04684429101559465   -0.0011636401484110023
-0.007920812536340544   -0.04689106031761153   -0.001217867611878849
-0.007042503829536857   -0.052450398017390806   -0.0013982029689161661
-0.011160077275358402   -0.04671095971204432   -0.0012156022828536683
-0.007920812536340544   -0.04689106031761153   -0.001217867611878849
-0.0095969133746385   -0.05232741347106381   -0.0015597532475709538
-0.007042503829536857   -0.052450398017390806   -0.0013982029689161661
-0.007918174038385472   -0.04684429101559465   -0.0011636401484110023
-0.009530781454176776   -0.05229449095582529   -0.0014435928546674616
-0.007007476081478051   -0.052436671777420715   -0.0013309981871287137
-0.007918174038385472   -0.04684429101559465   -0.0011636401484110023
-0.011160077275358402   -0.04671095971204432   -0.0012156022828536683
-0.009530781454176776   -0.05229449095582529   -0.0014435928546674616
-0.011141689283056096   -0.04670207355087459   -0.0011111083969897889
-0.007007476081478051   -0.052436671777420715   -0.0013309981871287137
-0.009477125060114102   -0.05229351218722542   -0.0013203200355800602
-0.011141689283056096   -0.04670207355087459   -0.0011111083969897889
-0.009530781454176776   -0.05229449095582529   -0.0014435928546674616
-0.007007476081478051   -0.052436671777420715   -0.0013309981871287137
-0.011141689283056096   -0.04670207355087459   -0.0011111083969897889
-0.00791651592201206   -0.04682131103592088   -0.0011034829795305643
-0.007918174038385472   -0.04684429101559465   -0.0011636401484110023
-0.007007476081478051   -0.052436671777420715   -0.0013309981871287137
-0.011141689283056096   -0.04670207355087459   -0.0011111083969897889
-0.007918174038385472   -0.04684429101559465   -0.0011636401484110023
-0.009530781454176776   -0.05229449095582529   -0.0014435928546674616
-0.009635906019068536   -0.052390526339339334   -0.0016704955932817919
-0.011191553114791778   -0.04680365506774048   -0.00140658925113714
-0.012583506219020853   -0.05213460645461849   -0.0018167435844163372
-0.0095969133746385   -0.05232741347106381   -0.0015597532475709538
-0.011191553114791778   -0.04680365506774048   -0.00140658925113714
-0.014848053202899149   -0.04658519614711847   -0.00153345060799907
-0.012583506219020853   -0.05213460645461849   -0.0018167435844163372
-0.014710879053428267   -0.046528218618011444   -0.0013912860392421183
-0.0095969133746385   -0.05232741347106381   -0.0015597532475709538
-0.012383292328424899   -0.05206872085312383   -0.0016433710936047965
-0.014710879053428267   -0.046528218618011444   -0.0013912860392421183
-0.012583506219020853   -0.05213460645461849   -0.0018167435844163372
-0.0095969133746385   -0.05232741347106381   -0.0015597532475709538
-0.014710879053428267   -0.046528218618011444   -0.0013912860392421183
-0.011187622611251731   -0.04674563692779046   -0.0013136886338562053
-0.011191553114791778   -0.04680365506774048   -0.00140658925113714
-0.0095969133746385   -0.05232741347106381   -0.0015597532475709538
-0.014710879053428267   -0.046528218618011444   -0.0013912860392421183
-0.011191553114791778   -0.04680365506774048   -0.00140658925113714
-0.012583506219020853   -0.05213460645461849   -0.0018167435844163372
-0.0095969133746385   -0.05232741347106381   -0.0015597532475709538
-0.011187622611251731   -0.04674563692779046   -0.0013136886338562053
-0.012383292328424899   -0.05206872085312383   -0.0016433710936047965
-0.009530781454176776   -0.05229449095582529   -0.0014435928546674616
-0.011187622611251731   -0.04674563692779046   -0.0013136886338562053
-0.014710879053428267   -0.046528218618011444   -0.0013912860392421183
-0.012383292328424899   -0.05206872085312383   -0.0016433710936047965
-0.014593621865449564   -0.04649795478089017   -0.0012403999100993495
-0.009530781454176776   -0.05229449095582529   -0.0014435928546674616
-0.012209617148911547   -0.052038629220189675   -0.0014610583752210913
-0.014593621865449564   -0.04649795478089017   -0.0012403999100993495
-0.012383292328424899   -0.05206872085312383   -0.0016433710936047965
-0.009530781454176776   -0.05229449095582529   -0.0014435928546674616
-0.014593621865449564   -0.04649795478089017   -0.0012403999100993495
-0.011160077275358402   -0.04671095971204432   -0.0012156022828536683
-0.011187622611251731   -0.04674563692779046   -0.0013136886338562053
-0.009530781454176776   -0.05229449095582529   -0.0014435928546674616
-0.014593621865449564   -0.04649795478089017   -0.0012403999100993495
-0.011187622611251731   -0.04674563692779046   -0.0013136886338562053
-0.012383292328424899   -0.05206872085312383   -0.0016433710936047965
-0.009530781454176776   -0.05229449095582529   -0.0014435928546674616
-0.011160077275358402   -0.04671095971204432   -0.0012156022828536683
-0.012209617148911547   -0.052038629220189675   -0.0014610583752210913
-0.009477125060114102   -0.05229351218722542   -0.0013203200355800602
-0.011160077275358402   -0.04671095971204432   -0.0012156022828536683
-0.014593621865449564   -0.04649795478089017   -0.0012403999100993495
-0.012209617148911547   -0.052038629220189675   -0.0014610583752210913
-0.01442447839706228   -0.04650857812496388   -0.0010819902258218076
-0.009477125060114102   -0.05229351218722542   -0.0013203200355800602
-0.01197567033349364   -0.05205733790619551   -0.0012709658503382041
-0.01442447839706228   -0.04650857812496388   -0.0010819902258218076
-0.012209617148911547   -0.052038629220189675   -0.0014610583752210913
-0.009477125060114102   -0.05229351218722542   -0.0013203200355800602
-0.01442447839706228   -0.04650857812496388   -0.0010819902258218076
-0.011141689283056096   -0.04670207355087459   -0.0011111083969897889
-0.011160077275358402   -0.04671095971204432   -0.0012156022828536683
-0.009477125060114102   -0.05229351218722542   -0.0013203200355800602
-0.01442447839706228   -0.04650857812496388   -0.0010819902258218076
-0.011160077275358402   -0.04671095971204432   -0.0012156022828536683
-0.012209617148911547   -0.052038629220189675   -0.0014610583752210913
0.0018411327660406152   -0.04695852283176161   -0.0006892889442024782
0.002914553137825645   -0.04029259195451625   -0.00045926444850582235
-0.0015140324595250758   -0.04704196818654578   -0.00091583527485657
0.0019393457860644922   -0.04684077752152363   -0.0007887745815177109
0.002914553137825645   -0.04029259195451625   -0.00045926444850582235
-0.0010684877021239858   -0.040333804106165494   -0.0006723900364988903
-0.0015140324595250758   -0.04704196818654578   -0.00091583527485657
-0.0010870631348922303   -0.04023627748777891   -0.0006945300419031528
0.0019393457860644922   -0.04684077752152363   -0.0007887745815177109
-0.0015048729961690355   -0.04694199418230031   -0.0009567630626839211
-0.0010870631348922303   -0.04023627748777891   -0.0006945300419031528
-0.0015140324595250758   -0.04704196818654578   -0.00091583527485657
0.0019393457860644922   -0.04684077752152363   -0.0007887745815177109
-0.0010870631348922303   -0.04023627748777891   -0.0006945300419031528
0.002953693554982146   -0.040179149527210314   -0.0005246005274084279
0.002914553137825645   -0.04029259195451625   -0.00045926444850582235
0.0019393457860644922   -0.04684077752152363   -0.0007887745815177109
-0.0010870631348922303   -0.04023627748777891   -0.0006945300419031528
0.002914553137825645   -0.04029259195451625   -0.00045926444850582235
-0.0015140324595250758   -0.04704196818654578   -0.00091583527485657
0.0019393457860644922   -0.04684077752152363   -0.0007887745815177109
0.002953693554982146   -0.040179149527210314   -0.0005246005274084279
-0.0015048729961690355   -0.04694199418230031   -0.0009567630626839211
0.0020022132872320035   -0.04676377835638179   -0.0008794236264203632
0.002953693554982146   -0.040179149527210314   -0.0005246005274084279
-0.0010870631348922303   -0.04023627748777891   -0.0006945300419031528
-0.0015048729961690355   -0.04694199418230031   -0.0009567630626839211
-0.0011065657685811134   -0.0401593191403231   -0.0007110811104024641
0.0020022132872320035   -0.04676377835638179   -0.0008794236264203632
-0.00149320823023673   -0.046869733199122354   -0.000991439007333763
-0.0011065657685811134   -0.0401593191403231   -0.0007110811104024641
-0.0015048729961690355   -0.04694199418230031   -0.0009567630626839211
0.0020022132872320035   -0.04676377835638179   -0.0008794236264203632
-0.0011065657685811134   -0.0401593191403231   -0.0007110811104024641
0.002965833758664235   -0.04009672262216068   -0.0005816893261354266
0.002953693554982146   -0.040179149527210314   -0.0005246005274084279
0.0020022132872320035   -0.04676377835638179   -0.0008794236264203632
-0.0011065657685811134   -0.0401593191403231   -0.0007110811104024641
0.002953693554982146   -0.040179149527210314   -0.0005246005274084279
-0.0015048729961690355   -0.04694199418230031   -0.0009567630626839211
0.0020022132872320035   -0.04676377835638179   -0.0008794236264203632
0.002965833758664235   -0.04009672262216068   -0.0005816893261354266
-0.00149320823023673   -0.046869733199122354   -0.000991439007333763
0.0020668765298047682   -0.04671252157707738   -0.0009614230024186164
0.002965833758664235   -0.04009672262216068   -0.0005816893261354266
-0.0011065657685811134   -0.0401593191403231   -0.0007110811104024641
-0.00149320823023673   -0.046869733199122354   -0.000991439007333763
-0.0011399222633154602   -0.04010049785472094   -0.0007222317840177355
0.0020668765298047682   -0.04671252157707738   -0.0009614230024186164
-0.0014986191586441142   -0.04682286089805417   -0.0010203188448752684
-0.0011399222633154602   -0.04010049785472094   -0.0007222317840177355
-0.00149320823023673   -0.046869733199122354   -0.000991439007333763
0.0020668765298047682   -0.04671252157707738   -0.0009614230024186164
-0.0011399222633154602   -0.04010049785472094   -0.0007222317840177355
0.002972931778163304   -0.04003070589239011   -0.0006309221203216262
0.002965833758664235   -0.04009672262216068   -0.0005816893261354266
0.0020668765298047682   -0.04671252157707738   -0.0009614230024186164
-0.0011399222633154602   -0.04010049785472094   -0.0007222317840177355
0.002965833758664235   -0.04009672262216068   -0.0005816893261354266
-0.00149320823023673   -0.046869733199122354   -0.000991439007333763
-0.0015140324595250758   -0.04704196818654578   -0.00091583527485657
-0.0010684877021239858   -0.040333804106165494   -0.0006723900364988903
-0.004743378639886811   -0.04704248788833776   -0.0011025135703216103
-0.0015048729961690355   -0.04694199418230031   -0.0009567630626839211
-0.0010684877021239858   -0.040333804106165494   -0.0006723900364988903
-0.004886866393176137   -0.04031285422238807   -0.0008477006666043881
-0.004743378639886811   -0.04704248788833776   -0.0011025135703216103
-0.004912729900448598   -0.04023142164849515   -0.0008374123288452359
-0.0015048729961690355   -0.04694199418230031   -0.0009567630626839211
-0.004743750186966962   -0.046957955445459644   -0.001098646005070538
-0.004912729900448598   -0.04023142164849515   -0.0008374123288452359
-0.004743378639886811   -0.04704248788833776   -0.0011025135703216103
-0.0015048729961690355   -0.04694199418230031   -0.0009567630626839211
-0.004912729900448598   -0.04023142164849515   -0.0008374123288452359
-0.0010870631348922303   -0.04023627748777891   -0.0006945300419031528
-0.0010684877021239858   -0.040333804106165494   -0.0006723900364988903
-0.0015048729961690355   -0.04694199418230031   -0.0009567630626839211
-0.004912729900448598   -0.04023142164849515   -0.0008374123288452359
-0.0010684877021239858   -0.040333804106165494   -0.0006723900364988903
-0.004743378639886811   -0.04704248788833776   -0.0011025135703216103
-0.0015048729961690355   -0.04694199418230031   -0.0009567630626839211
-0.0010870631348922303   -0.04023627748777891   -0.0006945300419031528
-0.004743750186966962   -0.046957955445459644   -0.001098646005070538
-0.00149320823023673   -0.046869733199122354   -0.000991439007333763
-0.0010870631348922303   -0.04023627748777891   -0.0006945300419031528
-0.004912729900448598   -0.04023142164849515   -0.0008374123288452359
-0.004743750186966962   -0.046957955445459644   -0.001098646005070538
-0.004938949536574766   -0.040167618436459517   -0.0008213685643485565
-0.00149320823023673   -0.046869733199122354   -0.000991439007333763
-0.004743902346466109   -0.04689785091399479   -0.0010885491058530588
-0.004938949536574766   -0.040167618436459517   -0.0008213685643485565
-0.004743750186966962   -0.046957955445459644   -0.001098646005070538
-0.00149320823023673   -0.046869733199122354   -0.000991439007333763
-0.004938949536574766   -0.040167618436459517   -0.0008213685643485565
-0.0011065657685811134   -0.0401593191403231   -0.0007110811104024641
-0.0010870631348922303   -0.04023627748777891   -0.0006945300419031528
-0.00149320823023673   -0.046869733199122354   -0.000991439007333763
-0.004938949536574766   -0.040167618436459517   -0.0008213685643485565
-0.0010870631348922303   -0.04023627748777891   -0.0006945300419031528
-0.004743750186966962   -0.046957955445459644   -0.001098646005070538
-0.00149320823023673   -0.046869733199122354   -0.000991439007333763
-0.0011065657685811134   -0.0401593191403231   -0.0007110811104024641
-0.004743902346466109   -0.04689785091399479   -0.0010885491058530588
-0.0014986191586441142   -0.04682286089805417   -0.0010203188448752684
-0.0011065657685811134   -0.0401593191403231   -0.0007110811104024641
-0.004938949536574766   -0.040167618436459517   -0.0008213685643485565
-0.004743902346466109   -0.04689785091399479   -0.0010885491058530588
-0.004969265593513308   -0.040121743056514884   -0.0007998490626976283
-0.0014986191586441142   -0.04682286089805417   -0.0010203188448752684
-0.004748367045914283   -0.0468622182383669   -0.0010725484244542805
-0.004969265593513308   -0.040121743056514884   -0.0007998490626976283
-0.004743902346466109   -0.04689785091399479   -0.0010885491058530588
-0.0014986191586441142   -0.04682286089805417   -0.0010203188448752684
-0.004969265593513308   -0.040121743056514884   -0.0007998490626976283
-0.0011399222633154602   -0.04010049785472094   -0.0007222317840177355
-0.0011065657685811134   -0.0401593191403231   -0.0007110811104024641
-0.0014986191586441142   -0.04682286089805417   -0.0010203188448752684
-0.004969265593513308   -0.040121743056514884   -0.0007998490626976283
-0.0011065657685811134   -0.0401593191403231   -0.0007110811104024641
-0.004743902346466109   -0.04689785091399479   -0.0010885491058530588
-0.004743378639886811   -0.04704248788833776   -0.0011025135703216103
-0.004886866393176137   -0.04031285422238807   -0.0008477006666043881
-0.007918045065646072   -0.04696204165818396   -0.0012659879052312902
-0.004743750186966962   -0.046957955445459644   -0.001098646005070538
-0.004886866393176137   -0.04031285422238807   -0.0008477006666043881
-0.008640802742754902   -0.04023364016506497   -0.0009976172437121957
-0.007918045065646072   -0.04696204165818396   -0.0012659879052312902
-0.008668728375395505   -0.04016681647924393   -0.0009550618008002355
-0.004743750186966962   -0.046957955445459644   -0.001098646005070538
-0.007920812536340544   -0.04689106031761153   -0.001217867611878849
-0.008668728375395505   -0.04016681647924393   -0.0009550618008002355
-0.007918045065646072   -0.04696204165818396   -0.0012659879052312902
-0.004743750186966962   -0.046957955445459644   -0.001098646005070538
-0.008668728375395505   -0.04016681647924393   -0.0009550618008002355
-0.004912729900448598   -0.04023142164849515   -0.0008374123288452359
-0.004886866393176137   -0.04031285422238807   -0.0008477006666043881
-0.004743750186966962   -0.046957955445459644   -0.001098646005070538
-0.008668728375395505   -0.04016681647924393   -0.0009550618008002355
-0.004886866393176137   -0.04031285422238807   -0.0008477006666043881
-0.007918045065646072   -0.04696204165818396   -0.0012659879052312902
-0.004743750186966962   -0.046957955445459644   -0.001098646005070538
-0.004912729900448598   -0.04023142164849515   -0.0008374123288452359
-0.007920812536340544   -0.04689106031761153   -0.001217867611878849
-0.004743902346466109   -0.04689785091399479   -0.0010885491058530588
-0.004912729900448598   -0.04023142164849515   -0.0008374123288452359
-0.008668728375395505   -0.04016681647924393   -0.0009550618008002355
-0.007920812536340544   -0.04689106031761153   -0.001217867611878849
-0.008691849840214236   -0.04011745408122424   -0.0009068537697853373
-0.004743902346466109   -0.04689785091399479   -0.0010885491058530588
-0.007918174038385472   -0.04684429101559465   -0.0011636401484110023
-0.008691849840214236   -0.04011745408122424   -0.0009068537697853373
-0.007920812536340544   -0.04689106031761153   -0.001217867611878849
-0.004743902346466109   -0.04689785091399479   -0.0010885491058530588
-0.008691849840214236   -0.04011745408122424   -0.0009068537697853373
-0.004938949536574766   -0.040167618436459517   -0.0008213685643485565
-0.004912729900448598   -0.04023142164849515   -0.0008374123288452359
-0.004743902346466109   -0.04689785091399479   -0.0010885491058530588
-0.008691849840214236   -0.04011745408122424   -0.0009068537697853373
-0.004912729900448598   -0.04023142164849515   -0.0008374123288452359
-0.007920812536340544   -0.04689106031761153   -0.001217867611878849
-0.004743902346466109   -0.04689785091399479   -0.0010885491058530588
-0.004938949536574766   -0.040167618436459517   -0.0008213685643485565
-0.007918174038385472   -0.04684429101559465   -0.0011636401484110023
-0.004748367045914283   -0.0468622182383669   -0.0010725484244542805
-0.004938949536574766   -0.040167618436459517   -0.0008213685643485565
-0.008691849840214236   -0.04011745408122424   -0.0009068537697853373
-0.007918174038385472   -0.04684429101559465   -0.0011636401484110023
-0.008715648538265779   -0.04008547907362254   -0.0008531588735649758
-0.004748367045914283   -0.0468622182383669   -0.0010725484244542805
-0.00791651592201206   -0.04682131103592088   -0.0011034829795305643
-0.008715648538265779   -0.04008547907362254   -0.0008531588735649758
-0.007918174038385472   -0.04684429101559465   -0.0011636401484110023
-0.004748367045914283   -0.0468622182383669   -0.0010725484244542805
-0.008715648538265779   -0.04008547907362254   -0.0008531588735649758
-0.004969265593513308   -0.040121743056514884   -0.0007998490626976283
-0.004938949536574766   -0.040167618436459517   -0.0008213685643485565
-0.004748367045914283   -0.0468622182383669   -0.0010725484244542805
-0.008715648538265779   -0.04008547907362254   -0.0008531588735649758
-0.004938949536574766   -0.040167618436459517   -0.0008213685643485565
-0.007918174038385472   -0.04684429101559465   -0.0011636401484110023
-0.007918045065646072   -0.04696204165818396   -0.0012659879052312902
-0.008640802742754902   -0.04023364016506497   -0.0009976172437121957
-0.011191553114791778   -0.04680365506774048   -0.00140658925113714
-0.007920812536340544   -0.04689106031761153   -0.001217867611878849
-0.008640802742754902   -0.04023364016506497   -0.0009976172437121957
-0.012484014564973887   -0.040097732568865715   -0.0011227295820688142
-0.011191553114791778   -0.04680365506774048   -0.00140658925113714
-0.012507080236344208   -0.0400451695036495   -0.001047465659111856
-0.007920812536340544   -0.04689106031761153   -0.001217867611878849
-0.011187622611251731   -0.04674563692779046   -0.0013136886338562053
-0.012507080236344208   -0.0400451695036495   -0.001047465659111856
-0.011191553114791778   -0.04680365506774048   -0.00140658925113714
-0.007920812536340544   -0.04689106031761153   -0.001217867611878849
-0.012507080236344208   -0.0400451695036495   -0.001047465659111856
-0.008668728375395505   -0.04016681647924393   -0.0009550618008002355
-0.008640802742754902   -0.04023364016506497   -0.0009976172437121957
-0.007920812536340544   -0.04689106031761153   -0.001217867611878849
-0.012507080236344208   -0.0400451695036495   -0.001047465659111856
-0.008640802742754902   -0.04023364016506497   -0.0009976172437121957
-0.011191553114791778   -0.04680365506774048   -0.00140658925113714
-0.007920812536340544   -0.04689106031761153   -0.001217867611878849
-0.008668728375395505   -0.04016681647924393   -0.0009550618008002355
-0.011187622611251731   -0.04674563692779046   -0.0013136886338562053
-0.007918174038385472   -0.04684429101559465   -0.0011636401484110023
-0.008668728375395505   -0.04016681647924393   -0.0009550618008002355
-0.012507080236344208   -0.0400451695036495   -0.001047465659111856
-0.011187622611251731   -0.04674563692779046   -0.0013136886338562053
-0.012509908400835093   -0.04000901360514082   -0.0009673309678383562
-0.007918174038385472   -0.04684429101559465   -0.0011636401484110023
-0.011160077275358402   -0.04671095971204432   -0.0012156022828536683
-0.012509908400835093   -0.04000901360514082   -0.0009673309678383562
-0.011187622611251731   -0.04674563692779046   -0.0013136886338562053
-0.007918174038385472   -0.04684429101559465   -0.0011636401484110023
-0.012509908400835093   -0.04000901360514082   -0.0009673309678383562
-0.008691849840214236   -0.04011745408122424   -0.0009068537697853373
-0.008668728375395505   -0.04016681647924393   -0.0009550618008002355
-0.007918174038385472   -0.04684429101559465   -0.0011636401484110023
-0.012509908400835093   -0.04000901360514082   -0.0009673309678383562
-0.008668728375395505   -0.04016681647924393   -0.0009550618008002355
-0.011187622611251731   -0.04674563692779046   -0.0013136886338562053
-0.007918174038385472   -0.04684429101559465   -0.0011636401484110023
-0.008691849840214236   -0.04011745408122424   -0.0009068537697853373
-0.011160077275358402   -0.04671095971204432   -0.0012156022828536683
-0.00791651592201206   -0.04682131103592088   -0.0011034829795305643
-0.008691849840214236   -0.04011745408122424   -0.0009068537697853373
-0.012509908400835093   -0.04000901360514082   -0.0009673309678383562
-0.011160077275358402   -0.04671095971204432   -0.0012156022828536683
-0.012518511266678797   -0.039991812787609604   -0.000881292823031194
-0.00791651592201206   -0.04682131103592088   -0.0011034829795305643
-0.011141689283056096   -0.04670207355087459   -0.0011111083969897889
-0.012518511266678797   -0.039991812787609604   -0.000881292823031194
-0.011160077275358402   -0.04671095971204432   -0.0012156022828536683
-0.00791651592201206   -0.04682131103592088   -0.0011034829795305643
-0.012518511266678797   -0.039991812787609604   -0.000881292823031194
-0.008715648538265779   -0.04008547907362254   -0.0008531588735649758
-0.008691849840214236   -0.04011745408122424   -0.0009068537697853373
-0.00791651592201206   -0.04682131103592088   -0.0011034829795305643
-0.012518511266678797   -0.039991812787609604   -0.000881292823031194
-0.008691849840214236   -0.04011745408122424   -0.0009068537697853373
-0.011160077275358402   -0.04671095971204432   -0.0012156022828536683
-0.011191553114791778   -0.04680365506774048   -0.00140658925113714
-0.012484014564973887   -0.040097732568865715   -0.0011227295820688142
-0.014848053202899149   -0.04658519614711847   -0.00153345060799907
-0.011187622611251731   -0.04674563692779046   -0.0013136886338562053
-0.012484014564973887   -0.040097732568865715   -0.0011227295820688142
-0.016675187348293475   -0.03991930014917365   -0.0012296141665027608
-0.014848053202899149   -0.04658519614711847   -0.00153345060799907
-0.016594493558019185   -0.039871283983100546   -0.0011197154516985597
-0.011187622611251731   -0.04674563692779046   -0.0013136886338562053
-0.014710879053428267   -0.046528218618011444   -0.0013912860392421183
-0.016594493558019185   -0.039871283983100546   -0.0011197154516985597
-0.014848053202899149   -0.04658519614711847   -0.00153345060799907
-0.011187622611251731   -0.04674563692779046   -0.0013136886338562053
-0.016594493558019185   -0.039871283983100546   -0.0011197154516985597
-0.012507080236344208   -0.0400451695036495   -0.001047465659111856
-0.012484014564973887   -0.040097732568865715   -0.0011227295820688142
-0.011187622611251731   -0.04674563692779046   -0.0013136886338562053
-0.016594493558019185   -0.039871283983100546   -0.0011197154516985597
-0.012484014564973887   -0.040097732568865715   -0.0011227295820688142
-0.014848053202899149   -0.04658519614711847   -0.00153345060799907
-0.011187622611251731   -0.04674563692779046   -0.0013136886338562053
-0.012507080236344208   -0.0400451695036495   -0.001047465659111856
-0.014710879053428267   -0.046528218618011444   -0.0013912860392421183
-0.011160077275358402   -0.04671095971204432   -0.0012156022828536683
-0.012507080236344208   -0.0400451695036495   -0.001047465659111856
-0.016594493558019185   -0.039871283983100546   -0.0011197154516985597
-0.014710879053428267   -0.046528218618011444   -0.0013912860392421183
-0.01652649114768993   -0.03984072923104893   -0.0010013094852838326
-0.011160077275358402   -0.04671095971204432   -0.0012156022828536683
-0.014593621865449564   -0.04649795478089017   -0.0012403999100993495
-0.01652649114768993   -0.03984072923104893   -0.0010013094852838326
-0.014710879053428267   -0.046528218618011444   -0.0013912860392421183
-0.011160077275358402   -0.04671095971204432   -0.0012156022828536683
-0.01652649114768993   -0.03984072923104893   -0.0010013094852838326
-0.012509908400835093   -0.04000901360514082   -0.0009673309678383562
-0.012507080236344208   -0.0400451695036495   -0.001047465659111856
-0.011160077275358402   -0.04671095971204432   -0.0012156022828536683
-0.01652649114768993   -0.03984072923104893   -0.0010013094852838326
-0.012507080236344208   -0.0400451695036495   -0.001047465659111856
-0.014710879053428267   -0.046528218618011444   -0.0013912860392421183
-0.011160077275358402   -0.04671095971204432   -0.0012156022828536683
-0.012509908400835093   -0.04000901360514082   -0.0009673309678383562
-0.014593621865449564   -0.04649795478089017   -0.0012403999100993495
-0.011141689283056096   -0.04670207355087459   -0.0011111083969897889
-0.012509908400835093   -0.04000901360514082   -0.0009673309678383562
-0.01652649114768993   -0.03984072923104893   -0.0010013094852838326
-0.014593621865449564   -0.04649795478089017   -0.0012403999100993495
-0.016414462756588193   -0.03984235827117181   -0.0008754577497696867
-0.011141689283056096   -0.04670207355087459   -0.0011111083969897889
-0.01442447839706228   -0.04650857812496388   -0.0010819902258218076
-0.016414462756588193   -0.03984235827117181   -0.0008754577497696867
-0.014593621865449564   -0.04649795478089017   -0.0012403999100993495
-0.011141689283056096   -0.04670207355087459   -0.0011111083969897889
-0.016414462756588193   -0.03984235827117181   -0.0008754577497696867
-0.012518511266678797   -0.039991812787609604   -0.000881292823031194
-0.012509908400835093   -0.04000901360514082   -0.0009673309678383562
-0.011141689283056096   -0.04670207355087459   -0.0011111083969897889
-0.016414462756588193   -0.03984235827117181   -0.0008754577497696867
-0.012509908400835093   -0.04000901360514082   -0.0009673309678383562
-0.014593621865449564   -0.04649795478089017   -0.0012403999100993495
0.002914553137825645   -0.04029259195451625   -0.00045926444850582235
0.0035129938367320737   -0.032807838243513784   -0.00023421988105303001
-0.0010684877021239858   -0.040333804106165494   -0.0006723900364988903
0.002953693554982146   -0.040179149527210314   -0.0005246005274084279
0.0035129938367320737   -0.032807838243513784   -0.00023421988105303001
-0.000911105373411848   -0.03280719154260764   -0.0004317897669197304
-0.0010684877021239858   -0.040333804106165494   -0.0006723900364988903
-0.0009504630736134529   -0.03271288539144618   -0.0004348746157352725
0.002953693554982146   -0.040179149527210314   -0.0005246005274084279
-0.0010870631348922303   -0.04023627748777891   -0.0006945300419031528
-0.0009504630736134529   -0.03271288539144618   -0.0004348746157352725
-0.0010684877021239858   -0.040333804106165494   -0.0006723900364988903
0.002953693554982146   -0.040179149527210314   -0.0005246005274084279
-0.0009504630736134529   -0.03271288539144618   -0.0004348746157352725
0.0035007380220690794   -0.03269925697482048   -0.00026573832244800147
0.0035129938367320737   -0.032807838243513784   -0.00023421988105303001
0.002953693554982146   -0.040179149527210314   -0.0005246005274084279
-0.0009504630736134529   -0.03271288539144618   -0.0004348746157352725
0.0035129938367320737   -0.032807838243513784   -0.00023421988105303001
-0.0010684877021239858   -0.040333804106165494   -0.0006723900364988903
0.002953693554982146   -0.040179149527210314   -0.0005246005274084279
0.0035007380220690794   -0.03269925697482048   -0.00026573832244800147
-0.0010870631348922303   -0.04023627748777891   -0.0006945300419031528
0.002965833758664235   -0.04009672262216068   -0.0005816893261354266
0.0035007380220690794   -0.03269925697482048   -0.00026573832244800147
-0.0009504630736134529   -0.03271288539144618   -0.0004348746157352725
-0.0010870631348922303   -0.04023627748777891   -0.0006945300419031528
-0.0009942005373283149   -0.03263186900159131   -0.00043299599605092786
0.002965833758664235   -0.04009672262216068   -0.0005816893261354266
-0.0011065657685811134   -0.0401593191403231   -0.0007110811104024641
-0.0009942005373283149   -0.03263186900159131   -0.00043299599605092786
-0.0010870631348922303   -0.04023627748777891   -0.0006945300419031528
0.002965833758664235   -0.04009672262216068   -0.0005816893261354266
-0.0009942005373283149   -0.03263186900159131   -0.00043299599605092786
0.0034693446779703284   -0.032612100323254116   -0.00028930114592532315
0.0035007380220690794   -0.03269925697482048   -0.00026573832244800147
0.002965833758664235   -0.04009672262216068   -0.0005816893261354266
-0.0009942005373283149   -0.03263186900159131   -0.00043299599605092786
0.0035007380220690794   -0.03269925697482048   -0.00026573832244800147
-0.0010870631348922303   -0.04023627748777891   -0.0006945300419031528
0.002965833758664235   -0.04009672262216068   -0.0005816893261354266
0.0034693446779703284   -0.032612100323254116   -0.00028930114592532315
-0.0011065657685811134   -0.0401593191403231   -0.0007110811104024641
0.002972931778163304   -0.04003070589239011   -0.0006309221203216262
0.0034693446779703284   -0.032612100323254116   -0.00028930114592532315
-0.0009942005373283149   -0.03263186900159131   -0.00043299599605092786
-0.0011065657685811134   -0.0401593191403231   -0.0007110811104024641
-0.0010485621297505279   -0.032562031168924914   -0.0004259582307393186
0.002972931778163304   -0.04003070589239011   -0.0006309221203216262
-0.0011399222633154602   -0.04010049785472094   -0.0007222317840177355
-0.0010485621297505279   -0.032562031168924914   -0.0004259582307393186
-0.0011065657685811134   -0.0401593191403231   -0.0007110811104024641
0.002972931778163304   -0.04003070589239011   -0.0006309221203216262
-0.0010485621297505279   -0.032562031168924914   -0.0004259582307393186
0.003425440651173129   -0.032532062142128365   -0.00030546401206218163
0.0034693446779703284   -0.032612100323254116   -0.00028930114592532315
0.002972931778163304   -0.04003070589239011   -0.0006309221203216262
-0.0010485621297505279   -0.032562031168924914   -0.0004259582307393186
0.0034693446779703284   -0.032612100323254116   -0.00028930114592532315
-0.0011065657685811134   -0.0401593191403231   -0.0007110811104024641
-0.0010684877021239858   -0.040333804106165494   -0.0006723900364988903
-0.000911105373411848   -0.03280719154260764   -0.0004317897669197304
-0.004886866393176137   -0.04031285422238807   -0.0008477006666043881
-0.0010870631348922303   -0.04023627748777891   -0.0006945300419031528
-0.000911105373411848   -0.03280719154260764   -0.0004317897669197304
-0.005131155908822641   -0.032767258089156766   -0.0005946302639416017
-0.004886866393176137   -0.04031285422238807   -0.0008477006666043881
-0.005175284070456899   -0.03268906347929818   -0.0005773745572735787
-0.0010870631348922303   -0.04023627748777891   -0.0006945300419031528
-0.004912729900448598   -0.04023142164849515   -0.0008374123288452359
-0.005175284070456899   -0.03268906347929818   -0.0005773745572735787
-0.004886866393176137   -0.04031285422238807   -0.0008477006666043881
-0.0010870631348922303   -0.04023627748777891   -0.0006945300419031528
-0.005175284070456899   -0.03268906347929818   -0.0005773745572735787
-0.0009504630736134529   -0.03271288539144618   -0.0004348746157352725
-0.000911105373411848   -0.03280719154260764   -0.0004317897669197304
-0.0010870631348922303   -0.04023627748777891   -0.0006945300419031528
-0.005175284070456899   -0.03268906347929818   -0.0005773745572735787
-0.000911105373411848   -0.03280719154260764   -0.0004317897669197304
-0.004886866393176137   -0.04031285422238807   -0.0008477006666043881
-0.0010870631348922303   -0.04023627748777891   -0.0006945300419031528
-0.0009504630736134529   -0.03271288539144618   -0.0004348746157352725
-0.004912729900448598   -0.04023142164849515   -0.0008374123288452359
-0.0011065657685811134   -0.0401593191403231   -0.0007110811104024641
-0.0009504630736134529   -0.03271288539144618   -0.0004348746157352725
-0.005175284070456899   -0.03268906347929818   -0.0005773745572735787
-0.004912729900448598   -0.04023142164849515   -0.0008374123288452359
-0.00522030504268487   -0.032621687125537285   -0.0005549467588456295
-0.0011065657685811134   -0.0401593191403231   -0.0007110811104024641
-0.004938949536574766   -0.040167618436459517   -0.0008213685643485565
-0.00522030504268487   -0.032621687125537285   -0.0005549467588456295
-0.004912729900448598   -0.04023142164849515   -0.0008374123288452359
-0.0011065657685811134   -0.0401593191403231   -0.0007110811104024641
-0.00522030504268487   -0.032621687125537285   -0.0005549467588456295
-0.0009942005373283149   -0.03263186900159131   -0.00043299599605092786
-0.0009504630736134529   -0.03271288539144618   -0.0004348746157352725
-0.0011065657685811134   -0.0401593191403231   -0.0007110811104024641
-0.00522030504268487   -0.032621687125537285   -0.0005549467588456295
-0.0009504630736134529   -0.03271288539144618   -0.0004348746157352725
-0.004912729900448598   -0.04023142164849515   -0.0008374123288452359
-0.0011065657685811134   -0.0401593191403231   -0.0007110811104024641
-0.0009942005373283149   -0.03263186900159131   -0.00043299599605092786
-0.004938949536574766   -0.040167618436459517   -0.0008213685643485565
-0.0011399222633154602   -0.04010049785472094   -0.0007222317840177355
-0.0009942005373283149   -0.03263186900159131   -0.00043299599605092786
-0.00522030504268487   -0.032621687125537285   -0.0005549467588456295
-0.004938949536574766   -0.040167618436459517   -0.0008213685643485565
-0.005269145740432342   -0.03256577064696343   -0.0005275915115357182
-0.0011399222633154602   -0.04010049785472094   -0.0007222317840177355
-0.004969265593513308   -0.040121743056514884   -0.0007998490626976283
-0.005269145740432342   -0.03256577064696343   -0.0005275915115357182
-0.004938949536574766   -0.040167618436459517   -0.0008213685643485565
-0.0011399222633154602   -0.04010049785472094   -0.0007222317840177355
-0.005269145740432342   -0.03256577064696343   -0.0005275915115357182
-0.0010485621297505279   -0.032562031168924914   -0.0004259582307393186
-0.0009942005373283149   -0.03263186900159131   -0.00043299599605092786
-0.0011399222633154602   -0.04010049785472094   -0.0007222317840177355
-0.005269145740432342   -0.03256577064696343   -0.0005275915115357182
-0.0009942005373283149   -0.03263186900159131   -0.00043299599605092786
-0.004938949536574766   -0.040167618436459517   -0.0008213685643485565
-0.004886866393176137   -0.04031285422238807   -0.0008477006666043881
-0.005131155908822641   -0.032767258089156766   -0.0005946302639416017
-0.008640802742754902   -0.04023364016506497   -0.0009976172437121957
-0.004912729900448598   -0.04023142164849515   -0.0008374123288452359
-0.005131155908822641   -0.032767258089156766   -0.0005946302639416017
-0.009279863841181301   -0.0326925391390048   -0.000731888232990834
-0.008640802742754902   -0.04023364016506497   -0.0009976172437121957
-0.009325321246656316   -0.03262918346395418   -0.0006943350645586219
-0.004912729900448598   -0.04023142164849515   -0.0008374123288452359
-0.008668728375395505   -0.04016681647924393   -0.0009550618008002355
-0.009325321246656316   -0.03262918346395418   -0.0006943350645586219
-0.008640802742754902   -0.04023364016506497   -0.0009976172437121957
-0.004912729900448598   -0.04023142164849515   -0.0008374123288452359
-0.009325321246656316   -0.03262918346395418   -0.0006943350645586219
-0.005175284070456899   -0.03268906347929818   -0.0005773745572735787
-0.005131155908822641   -0.032767258089156766   -0.0005946302639416017
-0.004912729900448598   -0.04023142164849515   -0.0008374123288452359
-0.009325321246656316   -0.03262918346395418   -0.0006943350645586219
-0.005131155908822641   -0.032767258089156766   -0.0005946302639416017
-0.008640802742754902   -0.04023364016506497   -0.0009976172437121957
-0.004912729900448598   -0.04023142164849515   -0.0008374123288452359
-0.005175284070456899   -0.03268906347929818   -0.0005773745572735787
-0.008668728375395505   -0.04016681647924393   -0.0009550618008002355
-0.004938949536574766   -0.040167618436459517   -0.0008213685643485565
-0.005175284070456899   -0.03268906347929818   -0.0005773745572735787
-0.009325321246656316   -0.03262918346395418   -0.0006943350645586219
-0.008668728375395505   -0.04016681647924393   -0.0009550618008002355
-0.009366546592130015   -0.032576569629816914   -0.000651731025543311
-0.004938949536574766   -0.040167618436459517   -0.0008213685643485565
-0.008691849840214236   -0.04011745408122424   -0.0009068537697853373
-0.009366546592130015   -0.032576569629816914   -0.000651731025543311
-0.008668728375395505   -0.04016681647924393   -0.0009550618008002355
-0.004938949536574766   -0.040167618436459517   -0.0008213685643485565
-0.009366546592130015   -0.032576569629816914   -0.000651731025543311
-0.00522030504268487   -0.032621687125537285   -0.0005549467588456295
-0.005175284070456899   -0.03268906347929818   -0.0005773745572735787
-0.004938949536574766   -0.040167618436459517   -0.0008213685643485565
-0.009366546592130015   -0.032576569629816914   -0.000651731025543311
-0.005175284070456899   -0.03268906347929818   -0.0005773745572735787
-0.008668728375395505   -0.04016681647924393   -0.0009550618008002355
-0.004938949536574766   -0.040167618436459517   -0.0008213685643485565
-0.00522030504268487   -0.032621687125537285   -0.0005549467588456295
-0.008691849840214236   -0.04011745408122424   -0.0009068537697853373
-0.004969265593513308   -0.040121743056514884   -0.0007998490626976283
-0.00522030504268487   -0.032621687125537285   -0.0005549467588456295
-0.009366546592130015   -0.032576569629816914   -0.000651731025543311
-0.008691849840214236   -0.04011745408122424   -0.0009068537697853373
-0.0094081645720578   -0.03253478486950169   -0.0006042678963233105
-0.004969265593513308   -0.040121743056514884   -0.0007998490626976283
-0.008715648538265779   -0.04008547907362254   -0.0008531588735649758
-0.0094081645720578   -0.03253478486950169   -0.0006042678963233105
-0.008691849840214236   -0.04011745408122424   -0.0009068537697853373
-0.004969265593513308   -0.040121743056514884   -0.0007998490626976283
-0.0094081645720578   -0.03253478486950169   -0.0006042678963233105
-0.005269145740432342   -0.03256577064696343   -0.0005275915115357182
-0.00522030504268487   -0.032621687125537285   -0.0005549467588456295
-0.004969265593513308   -0.040121743056514884   -0.0007998490626976283
-0.0094081645720578   -0.03253478486950169   -0.0006042678963233105
-0.00522030504268487   -0.032621687125537285   -0.0005549467588456295
-0.008691849840214236   -0.04011745408122424   -0.0009068537697853373
-0.008640802742754902   -0.04023364016506497   -0.0009976172437121957
-0.009279863841181301   -0.0326925391390048   -0.000731888232990834
-0.012484014564973887   -0.040097732568865715   -0.0011227295820688142
-0.008668728375395505   -0.04016681647924393   -0.0009550618008002355
-0.009279863841181301   -0.0326925391390048   -0.000731888232990834
-0.013510796436868262   -0.032581449459622   -0.0008438860267181469
-0.012484014564973887   -0.040097732568865715   -0.0011227295820688142
-0.013552978967042068   -0.03253305208238678   -0.0007858790633083715
-0.008668728375395505   -0.04016681647924393   -0.0009550618008002355
-0.012507080236344208   -0.0400451695036495   -0.001047465659111856
-0.013552978967042068   -0.03253305208238678   -0.0007858790633083715
-0.012484014564973887   -0.040097732568865715   -0.0011227295820688142
-0.008668728375395505   -0.04016681647924393   -0.0009550618008002355
-0.013552978967042068   -0.03253305208238678   -0.0007858790633083715
-0.009325321246656316   -0.03262918346395418   -0.0006943350645586219
-0.009279863841181301   -0.0326925391390048   -0.000731888232990834
-0.008668728375395505   -0.04016681647924393   -0.0009550618008002355
-0.013552978967042068   -0.03253305208238678   -0.0007858790633083715
-0.009279863841181301   -0.0326925391390048   -0.000731888232990834
-0.012484014564973887   -0.040097732568865715   -0.0011227295820688142
-0.008668728375395505   -0.04016681647924393   -0.0009550618008002355
-0.009325321246656316   -0.03262918346395418   -0.0006943350645586219
-0.012507080236344208   -0.0400451695036495   -0.001047465659111856
-0.008691849840214236   -0.04011745408122424   -0.0009068537697853373
-0.009325321246656316   -0.03262918346395418   -0.0006943350645586219
-0.013552978967042068   -0.03253305208238678   -0.0007858790633083715
-0.012507080236344208   -0.0400451695036495   -0.001047465659111856
-0.013578437820039837   -0.032494046748238005   -0.0007235009828536528
-0.008691849840214236   -0.04011745408122424   -0.0009068537697853373
-0.012509908400835093   -0.04000901360514082   -0.0009673309678383562
-0.013578437820039837   -0.032494046748238005   -0.0007235009828536528
-0.012507080236344208   -0.0400451695036495   -0.001047465659111856
-0.008691849840214236   -0.04011745408122424   -0.0009068537697853373
-0.013578437820039837   -0.032494046748238005   -0.0007235009828536528
-0.009366546592130015   -0.032576569629816914   -0.000651731025543311
-0.009325321246656316   -0.03262918346395418   -0.0006943350645586219
-0.008691849840214236   -0.04011745408122424   -0.0009068537697853373
-0.013578437820039837   -0.032494046748238005   -0.0007235009828536528
-0.009325321246656316   -0.03262918346395418   -0.0006943350645586219
-0.012507080236344208   -0.0400451695036495   -0.001047465659111856
-0.008691849840214236   -0.04011745408122424   -0.0009068537697853373
-0.009366546592130015   -0.032576569629816914   -0.000651731025543311
-0.012509908400835093   -0.04000901360514082   -0.0009673309678383562
-0.008715648538265779   -0.04008547907362254   -0.0008531588735649758
-0.009366546592130015   -0.032576569629816914   -0.000651731025543311
-0.013578437820039837   -0.032494046748238005   -0.0007235009828536528
-0.012509908400835093   -0.04000901360514082   -0.0009673309678383562
-0.013606449194555224   -0.0324668142721009   -0.0006558488690371089
-0.008715648538265779   -0.04008547907362254   -0.0008531588735649758
-0.012518511266678797   -0.039991812787609604   -0.000881292823031194
-0.013606449194555224   -0.0324668142721009   -0.0006558488690371089
-0.012509908400835093   -0.04000901360514082   -0.0009673309678383562
-0.008715648538265779   -0.04008547907362254   -0.0008531588735649758
-0.013606449194555224   -0.0324668142721009   -0.0006558488690371089
-0.0094081645720578   -0.03253478486950169   -0.0006042678963233105
-0.009366546592130015   -0.032576569629816914   -0.000651731025543311
-0.008715648538265779   -0.04008547907362254   -0.0008531588735649758
-0.013606449194555224   -0.0324668142721009   -0.0006558488690371089
-0.009366546592130015   -0.032576569629816914   -0.000651731025543311
-0.012509908400835093   -0.04000901360514082   -0.0009673309678383562
-0.012484014564973887   -0.040097732568865715   -0.0011227295820688142
-0.013510796436868262   -0.032581449459622   -0.0008438860267181469
-0.016675187348293475   -0.03991930014917365   -0.0012296141665027608
-0.012507080236344208   -0.0400451695036495   -0.001047465659111856
-0.013510796436868262   -0.032581449459622   -0.0008438860267181469
-0.018052105562889668   -0.03244462942975253   -0.0009328473391733771
-0.016675187348293475   -0.03991930014917365   -0.0012296141665027608
-0.01802043986788707   -0.03240388559734416   -0.0008554740934625239
-0.012507080236344208   -0.0400451695036495   -0.001047465659111856
-0.016594493558019185   -0.039871283983100546   -0.0011197154516985597
-0.01802043986788707   -0.03240388559734416   -0.0008554740934625239
-0.016675187348293475   -0.03991930014917365   -0.0012296141665027608
-0.012507080236344208   -0.0400451695036495   -0.001047465659111856
-0.01802043986788707   -0.03240388559734416   -0.0008554740934625239
-0.013552978967042068   -0.03253305208238678   -0.0007858790633083715
-0.013510796436868262   -0.032581449459622   -0.0008438860267181469
-0.012507080236344208   -0.0400451695036495   -0.001047465659111856
-0.01802043986788707   -0.03240388559734416   -0.0008554740934625239
-0.013510796436868262   -0.032581449459622   -0.0008438860267181469
-0.016675187348293475   -0.03991930014917365   -0.0012296141665027608
-0.012507080236344208   -0.0400451695036495   -0.001047465659111856
-0.013552978967042068   -0.03253305208238678   -0.0007858790633083715
-0.016594493558019185   -0.039871283983100546   -0.0011197154516985597
-0.012509908400835093   -0.04000901360514082   -0.0009673309678383562
-0.013552978967042068   -0.03253305208238678   -0.0007858790633083715
-0.01802043986788707   -0.03240388559734416   -0.0008554740934625239
-0.016594493558019185   -0.039871283983100546   -0.0011197154516985597
-0.01799462886247372   -0.032371292919884116   -0.0007700797756080152
-0.012509908400835093   -0.04000901360514082   -0.0009673309678383562
-0.01652649114768993   -0.03984072923104893   -0.0010013094852838326
-0.01799462886247372   -0.032371292919884116   -0.0007700797756080152
-0.016594493558019185   -0.039871283983100546   -0.0011197154516985597
-0.012509908400835093   -0.04000901360514082   -0.0009673309678383562
-0.01799462886247372   -0.032371292919884116   -0.0007700797756080152
-0.013578437820039837   -0.032494046748238005   -0.0007235009828536528
-0.013552978967042068   -0.03253305208238678   -0.0007858790633083715
-0.012509908400835093   -0.04000901360514082   -0.0009673309678383562
-0.01799462886247372   -0.032371292919884116   -0.0007700797756080152
-0.013552978967042068   -0.03253305208238678   -0.0007858790633083715
-0.016594493558019185   -0.039871283983100546   -0.0011197154516985597
-0.012509908400835093   -0.04000901360514082   -0.0009673309678383562
-0.013578437820039837   -0.032494046748238005   -0.0007235009828536528
-0.01652649114768993   -0.03984072923104893   -0.0010013094852838326
-0.012518511266678797   -0.039991812787609604   -0.000881292823031194
-0.013578437820039837   -0.032494046748238005   -0.0007235009828536528
-0.01799462886247372   -0.032371292919884116   -0.0007700797756080152
-0.01652649114768993   -0.03984072923104893   -0.0010013094852838326
-0.017933073400132483   -0.03236153143820671   -0.0006775786973526291
-0.012518511266678797   -0.039991812787609604   -0.000881292823031194
-0.016414462756588193   -0.03984235827117181   -0.0008754577497696867
-0.017933073400132483   -0.03236153143820671   -0.0006775786973526291
-0.01652649114768993   -0.03984072923104893   -0.0010013094852838326
-0.012518511266678797   -0.039991812787609604   -0.000881292823031194
-0.017933073400132483   -0.03236153143820671   -0.0006775786973526291
-0.013606449194555224   -0.0324668142721009   -0.0006558488690371089
-0.013578437820039837   -0.032494046748238005   -0.0007235009828536528
-0.012518511266678797   -0.039991812787609604   -0.000881292823031194
-0.017933073400132483   -0.03236153143820671   -0.0006775786973526291
-0.013578437820039837   -0.032494046748238005   -0.0007235009828536528
-0.01652649114768993   -0.03984072923104893   -0.0010013094852838326
0.0035129938367320737   -0.032807838243513784   -0.00023421988105303001
0.0036359778957714907   -0.024801632363989638   -3.71857302369742e-05
-0.000911105373411848   -0.03280719154260764   -0.0004317897669197304
0.0035007380220690794   -0.03269925697482048   -0.00026573832244800147
0.0036359778957714907   -0.024801632363989638   -3.71857302369742e-05
-0.001041420311608473   -0.024760751346714054   -0.00021468286414437864
-0.000911105373411848   -0.03280719154260764   -0.0004317897669197304
-0.0010955433382607333   -0.02467054086742681   -0.00019868770157961934
0.0035007380220690794   -0.03269925697482048   -0.00026573832244800147
-0.0009504630736134529   -0.03271288539144618   -0.0004348746157352725
-0.0010955433382607333   -0.02467054086742681   -0.00019868770157961934
-0.000911105373411848   -0.03280719154260764   -0.0004317897669197304
0.0035007380220690794   -0.03269925697482048   -0.00026573832244800147
-0.0010955433382607333   -0.02467054086742681   -0.00019868770157961934
0.003578823681737543   -0.024698103097719262   -3.425388076533758e-05
0.0036359778957714907   -0.024801632363989638   -3.71857302369742e-05
0.0035007380220690794   -0.03269925697482048   -0.00026573832244800147
-0.0010955433382607333   -0.02467054086742681   -0.00019868770157961934
0.0036359778957714907   -0.024801632363989638   -3.71857302369742e-05
-0.000911105373411848   -0.03280719154260764   -0.0004317897669197304
0.0035007380220690794   -0.03269925697482048   -0.00026573832244800147
0.003578823681737543   -0.024698103097719262   -3.425388076533758e-05
-0.0009504630736134529   -0.03271288539144618   -0.0004348746157352725
0.0034693446779703284   -0.032612100323254116   -0.00028930114592532315
0.003578823681737543   -0.024698103097719262   -3.425388076533758e-05
-0.0010955433382607333   -0.02467054086742681   -0.00019868770157961934
-0.0009504630736134529   -0.03271288539144618   -0.0004348746157352725
-0.001157528531243363   -0.024585508331978128   -0.00017818530230364723
0.0034693446779703284   -0.032612100323254116   -0.00028930114592532315
-0.0009942005373283149   -0.03263186900159131   -0.00043299599605092786
-0.001157528531243363   -0.024585508331978128   -0.00017818530230364723
-0.0009504630736134529   -0.03271288539144618   -0.0004348746157352725
0.0034693446779703284   -0.032612100323254116   -0.00028930114592532315
-0.001157528531243363   -0.024585508331978128   -0.00017818530230364723
0.0035084495218944915   -0.024605759559500676   -2.2116957822883578e-05
0.003578823681737543   -0.024698103097719262   -3.425388076533758e-05
0.0034693446779703284   -0.032612100323254116   -0.00028930114592532315
-0.001157528531243363   -0.024585508331978128   -0.00017818530230364723
0.003578823681737543   -0.024698103097719262   -3.425388076533758e-05
-0.0009504630736134529   -0.03271288539144618   -0.0004348746157352725
0.0034693446779703284   -0.032612100323254116   -0.00028930114592532315
0.0035084495218944915   -0.024605759559500676   -2.2116957822883578e-05
-0.0009942005373283149   -0.03263186900159131   -0.00043299599605092786
0.003425440651173129   -0.032532062142128365   -0.00030546401206218163
0.0035084495218944915   -0.024605759559500676   -2.2116957822883578e-05
-0.001157528531243363   -0.024585508331978128   -0.00017818530230364723
-0.0009942005373283149   -0.03263186900159131   -0.00043299599605092786
-0.001227154096595541   -0.024504484341732854   -0.0001520466868793082
0.003425440651173129   -0.032532062142128365   -0.00030546401206218163
-0.0010485621297505279   -0.032562031168924914   -0.0004259582307393186
-0.001227154096595541   -0.024504484341732854   -0.0001520466868793082
-0.0009942005373283149   -0.03263186900159131   -0.00043299599605092786
0.003425440651173129   -0.032532062142128365   -0.00030546401206218163
-0.001227154096595541   -0.024504484341732854   -0.0001520466868793082
0.00341562536218582   -0.024509249088292207   -1.1901219450381247e-06
0.0035084495218944915   -0.024605759559500676   -2.2116957822883578e-05
0.003425440651173129   -0.032532062142128365   -0.00030546401206218163
-0.001227154096595541   -0.024504484341732854   -0.0001520466868793082
0.0035084495218944915   -0.024605759559500676   -2.2116957822883578e-05
-0.0009942005373283149   -0.03263186900159131   -0.00043299599605092786
-0.000911105373411848   -0.03280719154260764   -0.0004317897669197304
-0.001041420311608473   -0.024760751346714054   -0.00021468286414437864
-0.005131155908822641   -0.032767258089156766   -0.0005946302639416017
-0.0009504630736134529   -0.03271288539144618   -0.0004348746157352725
-0.001041420311608473   -0.024760751346714054   -0.00021468286414437864
-0.0054734177050714625   -0.024712840649914327   -0.00036466929986699216
-0.005131155908822641   -0.032767258089156766   -0.0005946302639416017
-0.005528697626104645   -0.024637492778028736   -0.0003399906862870245
-0.0009504630736134529   -0.03271288539144618   -0.0004348746157352725
-0.005175284070456899   -0.03268906347929818   -0.0005773745572735787
-0.005528697626104645   -0.024637492778028736   -0.0003399906862870245
-0.005131155908822641   -0.032767258089156766   -0.0005946302639416017
-0.0009504630736134529   -0.03271288539144618   -0.0004348746157352725
-0.005528697626104645   -0.024637492778028736   -0.0003399906862870245
-0.0010955433382607333   -0.02467054086742681   -0.00019868770157961934
-0.001041420311608473   -0.024760751346714054   -0.00021468286414437864
-0.0009504630736134529   -0.03271288539144618   -0.0004348746157352725
-0.005528697626104645   -0.024637492778028736   -0.0003399906862870245
-0.001041420311608473   -0.024760751346714054   -0.00021468286414437864
-0.005131155908822641   -0.032767258089156766   -0.0005946302639416017
-0.0009504630736134529   -0.03271288539144618   -0.0004348746157352725
-0.0010955433382607333   -0.02467054086742681   -0.00019868770157961934
-0.005175284070456899   -0.03268906347929818   -0.0005773745572735787
-0.0009942005373283149   -0.03263186900159131   -0.00043299599605092786
-0.0010955433382607333   -0.02467054086742681   -0.00019868770157961934
-0.005528697626104645   -0.024637492778028736   -0.0003399906862870245
-0.005175284070456899   -0.03268906347929818   -0.0005773745572735787
-0.005585223360792356   -0.024566161661766322   -0.000311013379006282
-0.0009942005373283149   -0.03263186900159131   -0.00043299599605092786
-0.00522030504268487   -0.032621687125537285   -0.0005549467588456295
-0.005585223360792356   -0.024566161661766322   -0.000311013379006282
-0.005175284070456899   -0.03268906347929818   -0.0005773745572735787
-0.0009942005373283149   -0.03263186900159131   -0.00043299599605092786
-0.005585223360792356   -0.024566161661766322   -0.000311013379006282
-0.001157528531243363   -0.024585508331978128   -0.00017818530230364723
-0.0010955433382607333   -0.02467054086742681   -0.00019868770157961934
-0.0009942005373283149   -0.03263186900159131   -0.00043299599605092786
-0.005585223360792356   -0.024566161661766322   -0.000311013379006282
-0.0010955433382607333   -0.02467054086742681   -0.00019868770157961934
-0.005175284070456899   -0.03268906347929818   -0.0005773745572735787
-0.0009942005373283149   -0.03263186900159131   -0.00043299599605092786
-0.001157528531243363   -0.024585508331978128   -0.00017818530230364723
-0.00522030504268487   -0.032621687125537285   -0.0005549467588456295
-0.0010485621297505279   -0.032562031168924914   -0.0004259582307393186
-0.001157528531243363   -0.024585508331978128   -0.00017818530230364723
-0.005585223360792356   -0.024566161661766322   -0.000311013379006282
-0.00522030504268487   -0.032621687125537285   -0.0005549467588456295
-0.005645355808897177   -0.024499962284967126   -0.0002776935476471758
-0.0010485621297505279   -0.032562031168924914   -0.0004259582307393186
-0.005269145740432342   -0.03256577064696343   -0.0005275915115357182
-0.005645355808897177   -0.024499962284967126   -0.0002776935476471758
-0.00522030504268487   -0.032621687125537285   -0.0005549467588456295
-0.0010485621297505279   -0.032562031168924914   -0.0004259582307393186
-0.005645355808897177   -0.024499962284967126   -0.0002776935476471758
-0.001227154096595541   -0.024504484341732854   -0.0001520466868793082
-0.001157528531243363   -0.024585508331978128   -0.00017818530230364723
-0.0010485621297505279   -0.032562031168924914   -0.0004259582307393186
-0.005645355808897177   -0.024499962284967126   -0.0002776935476471758
-0.001157528531243363   -0.024585508331978128   -0.00017818530230364723
-0.00522030504268487   -0.032621687125537285   -0.0005549467588456295
-0.005131155908822641   -0.032767258089156766   -0.0005946302639416017
-0.0054734177050714625   -0.024712840649914327   -0.00036466929986699216
-0.009279863841181301   -0.0326925391390048   -0.000731888232990834
-0.005175284070456899   -0.03268906347929818   -0.0005773745572735787
-0.0054734177050714625   -0.024712840649914327   -0.00036466929986699216
-0.009833177191775701   -0.024655266275747337   -0.0004919088342593479
-0.009279863841181301   -0.0326925391390048   -0.000731888232990834
-0.00988808368597247   -0.0245936771625117   -0.00045856334680516547
-0.005175284070456899   -0.03268906347929818   -0.0005773745572735787
-0.009325321246656316   -0.03262918346395418   -0.0006943350645586219
-0.00988808368597247   -0.0245936771625117   -0.00045856334680516547
-0.009279863841181301   -0.0326925391390048   -0.000731888232990834
-0.005175284070456899   -0.03268906347929818   -0.0005773745572735787
-0.00988808368597247   -0.0245936771625117   -0.00045856334680516547
-0.005528697626104645   -0.024637492778028736   -0.0003399906862870245
-0.0054734177050714625   -0.024712840649914327   -0.00036466929986699216
-0.005175284070456899   -0.03268906347929818   -0.0005773745572735787
-0.00988808368597247   -0.0245936771625117   -0.00045856334680516547
-0.0054734177050714625   -0.024712840649914327   -0.00036466929986699216
-0.009279863841181301   -0.0326925391390048   -0.000731888232990834
-0.005175284070456899   -0.03268906347929818   -0.0005773745572735787
-0.005528697626104645   -0.024637492778028736   -0.0003399906862870245
-0.009325321246656316   -0.03262918346395418   -0.0006943350645586219
-0.00522030504268487   -0.032621687125537285   -0.0005549467588456295
-0.005528697626104645   -0.024637492778028736   -0.0003399906862870245
-0.00988808368597247   -0.0245936771625117   -0.00045856334680516547
-0.009325321246656316   -0.03262918346395418   -0.0006943350645586219
-0.009939430163481696   -0.024536328224942314   -0.0004210659834594978
-0.00522030504268487   -0.032621687125537285   -0.0005549467588456295
-0.009366546592130015   -0.032576569629816914   -0.000651731025543311
-0.009939430163481696   -0.024536328224942314   -0.0004210659834594978
-0.009325321246656316   -0.03262918346395418   -0.0006943350645586219
-0.00522030504268487   -0.032621687125537285   -0.0005549467588456295
-0.009939430163481696   -0.024536328224942314   -0.0004210659834594978
-0.005585223360792356   -0.024566161661766322   -0.000311013379006282
-0.005528697626104645   -0.024637492778028736   -0.0003399906862870245
-0.00522030504268487   -0.032621687125537285   -0.0005549467588456295
-0.009939430163481696   -0.024536328224942314   -0.0004210659834594978
-0.005528697626104645   -0.024637492778028736   -0.0003399906862870245
-0.009325321246656316   -0.03262918346395418   -0.0006943350645586219
-0.00522030504268487   -0.032621687125537285   -0.0005549467588456295
-0.005585223360792356   -0.024566161661766322   -0.000311013379006282
-0.009366546592130015   -0.032576569629816914   -0.000651731025543311
-0.005269145740432342   -0.03256577064696343   -0.0005275915115357182
-0.005585223360792356   -0.024566161661766322   -0.000311013379006282
-0.009939430163481696   -0.024536328224942314   -0.0004210659834594978
-0.009366546592130015   -0.032576569629816914   -0.000651731025543311
-0.00999096055538333   -0.02448337677284896   -0.00037962160942869573
-0.005269145740432342   -0.03256577064696343   -0.0005275915115357182
-0.0094081645720578   -0.03253478486950169   -0.0006042678963233105
-0.00999096055538333   -0.02448337677284896   -0.00037962160942869573
-0.009366546592130015   -0.032576569629816914   -0.000651731025543311
-0.005269145740432342   -0.03256577064696343   -0.0005275915115357182
-0.00999096055538333   -0.02448337677284896   -0.00037962160942869573
-0.005645355808897177   -0.024499962284967126   -0.0002776935476471758
-0.005585223360792356   -0.024566161661766322   -0.000311013379006282
-0.005269145740432342   -0.03256577064696343   -0.0005275915115357182
-0.00999096055538333   -0.02448337677284896   -0.00037962160942869573
-0.005585223360792356   -0.024566161661766322   -0.000311013379006282
-0.009366546592130015   -0.032576569629816914   -0.000651731025543311
-0.009279863841181301   -0.0326925391390048   -0.000731888232990834
-0.009833177191775701   -0.024655266275747337   -0.0004919088342593479
-0.013510796436868262   -0.032581449459622   -0.0008438860267181469
-0.009325321246656316   -0.03262918346395418   -0.0006943350645586219
-0.009833177191775701   -0.024655266275747337   -0.0004919088342593479
-0.014271766788812102   -0.024577353521659063   -0.0005953119815877179
-0.013510796436868262   -0.032581449459622   -0.0008438860267181469
-0.014324335465292354   -0.024530238032963413   -0.0005534032330008474
-0.009325321246656316   -0.03262918346395418   -0.0006943350645586219
-0.013552978967042068   -0.03253305208238678   -0.0007858790633083715
-0.014324335465292354   -0.024530238032963413   -0.0005534032330008474
-0.013510796436868262   -0.032581449459622   -0.0008438860267181469
-0.009325321246656316   -0.03262918346395418   -0.0006943350645586219
-0.014324335465292354   -0.024530238032963413   -0.0005534032330008474
-0.00988808368597247   -0.0245936771625117   -0.00045856334680516547
-0.009833177191775701   -0.024655266275747337   -0.0004919088342593479
-0.009325321246656316   -0.03262918346395418   -0.0006943350645586219
-0.014324335465292354   -0.024530238032963413   -0.0005534032330008474
-0.009833177191775701   -0.024655266275747337   -0.0004919088342593479
-0.013510796436868262   -0.032581449459622   -0.0008438860267181469
-0.009325321246656316   -0.03262918346395418   -0.0006943350645586219
-0.00988808368597247   -0.0245936771625117   -0.00045856334680516547
-0.013552978967042068   -0.03253305208238678   -0.0007858790633083715
-0.009366546592130015   -0.032576569629816914   -0.000651731025543311
-0.00988808368597247   -0.0245936771625117   -0.00045856334680516547
-0.014324335465292354   -0.024530238032963413   -0.0005534032330008474
-0.013552978967042068   -0.03253305208238678   -0.0007858790633083715
-0.014364124931813754   -0.024485772218477427   -0.0005080241195541199
-0.009366546592130015   -0.032576569629816914   -0.000651731025543311
-0.013578437820039837   -0.032494046748238005   -0.0007235009828536528
-0.014364124931813754   -0.024485772218477427   -0.0005080241195541199
-0.013552978967042068   -0.03253305208238678   -0.0007858790633083715
-0.009366546592130015   -0.032576569629816914   -0.000651731025543311
-0.014364124931813754   -0.024485772218477427   -0.0005080241195541199
-0.009939430163481696   -0.024536328224942314   -0.0004210659834594978
-0.00988808368597247   -0.0245936771625117   -0.00045856334680516547
-0.009366546592130015   -0.032576569629816914   -0.000651731025543311
-0.014364124931813754   -0.024485772218477427   -0.0005080241195541199
-0.00988808368597247   -0.0245936771625117   -0.00045856334680516547
-0.013552978967042068   -0.03253305208238678   -0.0007858790633083715
-0.009366546592130015   -0.032576569629816914   -0.000651731025543311
-0.009939430163481696   -0.024536328224942314   -0.0004210659834594978
-0.013578437820039837   -0.032494046748238005   -0.0007235009828536528
-0.0094081645720578   -0.03253478486950169   -0.0006042678963233105
-0.009939430163481696   -0.024536328224942314   -0.0004210659834594978
-0.014364124931813754   -0.024485772218477427   -0.0005080241195541199
-0.013578437820039837   -0.032494046748238005   -0.0007235009828536528
-0.014403619511085647   -0.024445952236956888   -0.000458272451726066
-0.0094081645720578   -0.03253478486950169   -0.0006042678963233105
-0.013606449194555224   -0.0324668142721009   -0.0006558488690371089
-0.014403619511085647   -0.024445952236956888   -0.000458272451726066
-0.013578437820039837   -0.032494046748238005   -0.0007235009828536528
-0.0094081645720578   -0.03253478486950169   -0.0006042678963233105
-0.014403619511085647   -0.024445952236956888   -0.000458272451726066
-0.00999096055538333   -0.02448337677284896   -0.00037962160942869573
-0.009939430163481696   -0.024536328224942314   -0.0004210659834594978
-0.0094081645720578   -0.03253478486950169   -0.0006042678963233105
-0.014403619511085647   -0.024445952236956888   -0.000458272451726066
-0.009939430163481696   -0.024536328224942314   -0.0004210659834594978
-0.013578437820039837   -0.032494046748238005   -0.0007235009828536528
-0.013510796436868262   -0.032581449459622   -0.0008438860267181469
-0.014271766788812102   -0.024577353521659063   -0.0005953119815877179
-0.018052105562889668   -0.03244462942975253   -0.0009328473391733771
-0.013552978967042068   -0.03253305208238678   -0.0007858790633083715
-0.014271766788812102   -0.024577353521659063   -0.0005953119815877179
-0.018976673638258383   -0.02448516686695492   -0.0006718417516309286
-0.018052105562889668   -0.03244462942975253   -0.0009328473391733771
-0.018984344709775114   -0.024447680506242603   -0.0006254259254101719
-0.013552978967042068   -0.03253305208238678   -0.0007858790633083715
-0.01802043986788707   -0.03240388559734416   -0.0008554740934625239
-0.018984344709775114   -0.024447680506242603   -0.0006254259254101719
-0.018052105562889668   -0.03244462942975253   -0.0009328473391733771
-0.013552978967042068   -0.03253305208238678   -0.0007858790633083715
-0.018984344709775114   -0.024447680506242603   -0.0006254259254101719
-0.014324335465292354   -0.024530238032963413   -0.0005534032330008474
-0.014271766788812102   -0.024577353521659063   -0.0005953119815877179
-0.013552978967042068   -0.03253305208238678   -0.0007858790633083715
-0.018984344709775114   -0.024447680506242603   -0.0006254259254101719
-0.014271766788812102   -0.024577353521659063   -0.0005953119815877179
-0.018052105562889668   -0.03244462942975253   -0.0009328473391733771
-0.013552978967042068   -0.03253305208238678   -0.0007858790633083715
-0.014324335465292354   -0.024530238032963413   -0.0005534032330008474
-0.01802043986788707   -0.03240388559734416   -0.0008554740934625239
-0.013578437820039837   -0.032494046748238005   -0.0007235009828536528
-0.014324335465292354   -0.024530238032963413   -0.0005534032330008474
-0.018984344709775114   -0.024447680506242603   -0.0006254259254101719
-0.01802043986788707   -0.03240388559734416   -0.0008554740934625239
-0.01899228896738153   -0.024409833343029586   -0.0005720268618118099
-0.013578437820039837   -0.032494046748238005   -0.0007235009828536528
-0.01799462886247372   -0.032371292919884116   -0.0007700797756080152
-0.01899228896738153   -0.024409833343029586   -0.0005720268618118099
-0.01802043986788707   -0.03240388559734416   -0.0008554740934625239
-0.013578437820039837   -0.032494046748238005   -0.0007235009828536528
-0.01899228896738153   -0.024409833343029586   -0.0005720268618118099
-0.014364124931813754   -0.024485772218477427   -0.0005080241195541199
-0.014324335465292354   -0.024530238032963413   -0.0005534032330008474
-0.013578437820039837   -0.032494046748238005   -0.0007235009828536528
-0.01899228896738153   -0.024409833343029586   -0.0005720268618118099
-0.014324335465292354   -0.024530238032963413   -0.0005534032330008474
-0.01802043986788707   -0.03240388559734416   -0.0008554740934625239
-0.013578437820039837   -0.032494046748238005   -0.0007235009828536528
-0.014364124931813754   -0.024485772218477427   -0.0005080241195541199
-0.01799462886247372   -0.032371292919884116   -0.0007700797756080152
-0.013606449194555224   -0.0324668142721009   -0.0006558488690371089
-0.014364124931813754   -0.024485772218477427   -0.0005080241195541199
-0.01899228896738153   -0.024409833343029586   -0.0005720268618118099
-0.01799462886247372   -0.032371292919884116   -0.0007700797756080152
-0.01897367766145861   -0.02438523947543755   -0.0005124706890660865
-0.013606449194555224   -0.0324668142721009   -0.0006558488690371089
-0.017933073400132483   -0.03236153143820671   -0.0006775786973526291
-0.01897367766145861   -0.02438523947543755   -0.0005124706890660865
-0.01799462886247372   -0.032371292919884116   -0.0007700797756080152
-0.013606449194555224   -0.0324668142721009   -0.0006558488690371089
-0.01897367766145861   -0.02438523947543755   -0.0005124706890660865
-0.014403619511085647   -0.024445952236956888   -0.000458272451726066
-0.014364124931813754   -0.024485772218477427   -0.0005080241195541199
-0.013606449194555224   -0.0324668142721009   -0.0006558488690371089
-0.01897367766145861   -0.02438523947543755   -0.0005124706890660865
-0.014364124931813754   -0.024485772218477427   -0.0005080241195541199
-0.01799462886247372   -0.032371292919884116   -0.0007700797756080152
0.0036359778957714907   -0.024801632363989638   -3.71857302369742e-05
0.0032623455904979832   -0.01655353022539632   9.885067941025254e-05
-0.001041420311608473   -0.024760751346714054   -0.00021468286414437864
0.003578823681737543   -0.024698103097719262   -3.425388076533758e-05
0.0032623455904979832   -0.01655353022539632   9.885067941025254e-05
-0.0014521445196404826   -0.01647608309807019   -4.190544016786406e-05
-0.001041420311608473   -0.024760751346714054   -0.00021468286414437864
-0.001516937427163647   -0.01639449202550855   -8.314682011510118e-06
0.003578823681737543   -0.024698103097719262   -3.425388076533758e-05
-0.0010955433382607333   -0.02467054086742681   -0.00019868770157961934
-0.001516937427163647   -0.01639449202550855   -8.314682011510118e-06
-0.001041420311608473   -0.024760751346714054   -0.00021468286414437864
0.003578823681737543   -0.024698103097719262   -3.425388076533758e-05
-0.001516937427163647   -0.01639449202550855   -8.314682011510118e-06
0.0031604982835266005   -0.016454952682787946   0.0001404842272054972
0.0032623455904979832   -0.01655353022539632   9.885067941025254e-05
0.003578823681737543   -0.024698103097719262   -3.425388076533758e-05
-0.001516937427163647   -0.01639449202550855   -8.314682011510118e-06
0.0032623455904979832   -0.01655353022539632   9.885067941025254e-05
-0.001041420311608473   -0.024760751346714054   -0.00021468286414437864
0.003578823681737543   -0.024698103097719262   -3.425388076533758e-05
0.0031604982835266005   -0.016454952682787946   0.0001404842272054972
-0.0010955433382607333   -0.02467054086742681   -0.00019868770157961934
0.0035084495218944915   -0.024605759559500676   -2.2116957822883578e-05
0.0031604982835266005   -0.016454952682787946   0.0001404842272054972
-0.001516937427163647   -0.01639449202550855   -8.314682011510118e-06
-0.0010955433382607333   -0.02467054086742681   -0.00019868770157961934
-0.0015927669614854618   -0.016308423796244993   3.1278668219788965e-05
0.0035084495218944915   -0.024605759559500676   -2.2116957822883578e-05
-0.001157528531243363   -0.024585508331978128   -0.00017818530230364723
-0.0015927669614854618   -0.016308423796244993   3.1278668219788965e-05
-0.0010955433382607333   -0.02467054086742681   -0.00019868770157961934
0.0035084495218944915   -0.024605759559500676   -2.2116957822883578e-05
-0.0015927669614854618   -0.016308423796244993   3.1278668219788965e-05
0.0030466312818638107   -0.01635716004528429   0.0002004423768196357
0.0031604982835266005   -0.016454952682787946   0.0001404842272054972
0.0035084495218944915   -0.024605759559500676   -2.2116957822883578e-05
-0.0015927669614854618   -0.016308423796244993   3.1278668219788965e-05
0.0031604982835266005   -0.016454952682787946   0.0001404842272054972
-0.0010955433382607333   -0.02467054086742681   -0.00019868770157961934
0.0035084495218944915   -0.024605759559500676   -2.2116957822883578e-05
0.0030466312818638107   -0.01635716004528429   0.0002004423768196357
-0.001157528531243363   -0.024585508331978128   -0.00017818530230364723
0.00341562536218582   -0.024509249088292207   -1.1901219450381247e-06
0.0030466312818638107   -0.01635716004528429   0.0002004423768196357
-0.0015927669614854618   -0.016308423796244993   3.1278668219788965e-05
-0.001157528531243363   -0.024585508331978128   -0.00017818530230364723
-0.0016712427139961978   -0.01621707750695104   7.67997832818728e-05
0.00341562536218582   -0.024509249088292207   -1.1901219450381247e-06
-0.001227154096595541   -0.024504484341732854   -0.0001520466868793082
-0.0016712427139961978   -0.01621707750695104   7.67997832818728e-05
-0.001157528531243363   -0.024585508331978128   -0.00017818530230364723
0.00341562536218582   -0.024509249088292207   -1.1901219450381247e-06
-0.0016712427139961978   -0.01621707750695104   7.67997832818728e-05
0.0029074836208405823   -0.01623698662943596   0.0002664459433221871
0.0030466312818638107   -0.01635716004528429   0.0002004423768196357
0.00341562536218582   -0.024509249088292207   -1.1901219450381247e-06
-0.0016712427139961978   -0.01621707750695104   7.67997832818728e-05
0.0030466312818638107   -0.01635716004528429   0.0002004423768196357
-0.001157528531243363   -0.024585508331978128   -0.00017818530230364723
-0.001041420311608473   -0.024760751346714054   -0.00021468286414437864
-0.0014521445196404826   -0.01647608309807019   -4.190544016786406e-05
-0.0054734177050714625   -0.024712840649914327   -0.00036466929986699216
-0.0010955433382607333   -0.02467054086742681   -0.00019868770157961934
-0.0014521445196404826   -0.01647608309807019   -4.190544016786406e-05
-0.0058910424525629905   -0.016456024868271343   -0.00017744519611310908
-0.0054734177050714625   -0.024712840649914327   -0.00036466929986699216
-0.005949677986648944   -0.01638491420058611   -0.0001461065122161422
-0.0010955433382607333   -0.02467054086742681   -0.00019868770157961934
-0.005528697626104645   -0.024637492778028736   -0.0003399906862870245
-0.005949677986648944   -0.01638491420058611   -0.0001461065122161422
-0.0054734177050714625   -0.024712840649914327   -0.00036466929986699216
-0.0010955433382607333   -0.02467054086742681   -0.00019868770157961934
-0.005949677986648944   -0.01638491420058611   -0.0001461065122161422
-0.001516937427163647   -0.01639449202550855   -8.314682011510118e-06
-0.0014521445196404826   -0.01647608309807019   -4.190544016786406e-05
-0.0010955433382607333   -0.02467054086742681   -0.00019868770157961934
-0.005949677986648944   -0.01638491420058611   -0.0001461065122161422
-0.0014521445196404826   -0.01647608309807019   -4.190544016786406e-05
-0.0054734177050714625   -0.024712840649914327   -0.00036466929986699216
-0.0010955433382607333   -0.02467054086742681   -0.00019868770157961934
-0.001516937427163647   -0.01639449202550855   -8.314682011510118e-06
-0.005528697626104645   -0.024637492778028736   -0.0003399906862870245
-0.001157528531243363   -0.024585508331978128   -0.00017818530230364723
-0.001516937427163647   -0.01639449202550855   -8.314682011510118e-06
-0.005949677986648944   -0.01638491420058611   -0.0001461065122161422
-0.005528697626104645   -0.024637492778028736   -0.0003399906862870245
-0.006010350280798243   -0.016310962855337327   -0.00011164257871146024
-0.001157528531243363   -0.024585508331978128   -0.00017818530230364723
-0.005585223360792356   -0.024566161661766322   -0.000311013379006282
-0.006010350280798243   -0.016310962855337327   -0.00011164257871146024
-0.005528697626104645   -0.024637492778028736   -0.0003399906862870245
-0.001157528531243363   -0.024585508331978128   -0.00017818530230364723
-0.006010350280798243   -0.016310962855337327   -0.00011164257871146024
-0.0015927669614854618   -0.016308423796244993   3.1278668219788965e-05
-0.001516937427163647   -0.01639449202550855   -8.314682011510118e-06
-0.001157528531243363   -0.024585508331978128   -0.00017818530230364723
-0.006010350280798243   -0.016310962855337327   -0.00011164257871146024
-0.001516937427163647   -0.01639449202550855   -8.314682011510118e-06
-0.005528697626104645   -0.024637492778028736   -0.0003399906862870245
-0.001157528531243363   -0.024585508331978128   -0.00017818530230364723
-0.0015927669614854618   -0.016308423796244993   3.1278668219788965e-05
-0.005585223360792356   -0.024566161661766322   -0.000311013379006282
-0.001227154096595541   -0.024504484341732854   -0.0001520466868793082
-0.0015927669614854618   -0.016308423796244993   3.1278668219788965e-05
-0.006010350280798243   -0.016310962855337327   -0.00011164257871146024
-0.005585223360792356   -0.024566161661766322   -0.000311013379006282
-0.006073531808866279   -0.016235517086353898   -7.343249643313929e-05
-0.001227154096595541   -0.024504484341732854   -0.0001520466868793082
-0.005645355808897177   -0.024499962284967126   -0.0002776935476471758
-0.006073531808866279   -0.016235517086353898   -7.343249643313929e-05
-0.005585223360792356   -0.024566161661766322   -0.000311013379006282
-0.001227154096595541   -0.024504484341732854   -0.0001520466868793082
-0.006073531808866279   -0.016235517086353898   -7.343249643313929e-05
-0.0016712427139961978   -0.01621707750695104   7.67997832818728e-05
-0.0015927669614854618   -0.016308423796244993   3.1278668219788965e-05
-0.001227154096595541   -0.024504484341732854   -0.0001520466868793082
-0.006073531808866279   -0.016235517086353898   -7.343249643313929e-05
-0.0015927669614854618   -0.016308423796244993   3.1278668219788965e-05
-0.005585223360792356   -0.024566161661766322   -0.000311013379006282
-0.0054734177050714625   -0.024712840649914327   -0.00036466929986699216
-0.0058910424525629905   -0.016456024868271343   -0.00017744519611310908
-0.009833177191775701   -0.024655266275747337   -0.0004919088342593479
-0.005528697626104645   -0.024637492778028736   -0.0003399906862870245
-0.0058910424525629905   -0.016456024868271343   -0.00017744519611310908
-0.010283972809437407   -0.016450427345340867   -0.0002998760555708417
-0.009833177191775701   -0.024655266275747337   -0.0004919088342593479
-0.010340061446202224   -0.0163881473150979   -0.00026990689908718886
-0.005528697626104645   -0.024637492778028736   -0.0003399906862870245
-0.00988808368597247   -0.0245936771625117   -0.00045856334680516547
-0.010340061446202224   -0.0163881473150979   -0.00026990689908718886
-0.009833177191775701   -0.024655266275747337   -0.0004919088342593479
-0.005528697626104645   -0.024637492778028736   -0.0003399906862870245
-0.010340061446202224   -0.0163881473150979   -0.00026990689908718886
-0.005949677986648944   -0.01638491420058611   -0.0001461065122161422
-0.0058910424525629905   -0.016456024868271343   -0.00017744519611310908
-0.005528697626104645   -0.024637492778028736   -0.0003399906862870245
-0.010340061446202224   -0.0163881473150979   -0.00026990689908718886
-0.0058910424525629905   -0.016456024868271343   -0.00017744519611310908
-0.009833177191775701   -0.024655266275747337   -0.0004919088342593479
-0.005528697626104645   -0.024637492778028736   -0.0003399906862870245
-0.005949677986648944   -0.01638491420058611   -0.0001461065122161422
-0.00988808368597247   -0.0245936771625117   -0.00045856334680516547
-0.005585223360792356   -0.024566161661766322   -0.000311013379006282
-0.005949677986648944   -0.01638491420058611   -0.0001461065122161422
-0.010340061446202224   -0.0163881473150979   -0.00026990689908718886
-0.00988808368597247   -0.0245936771625117   -0.00045856334680516547
-0.010393493770506176   -0.016324768704197423   -0.000237202253356285
-0.005585223360792356   -0.024566161661766322   -0.000311013379006282
-0.009939430163481696   -0.024536328224942314   -0.0004210659834594978
-0.010393493770506176   -0.016324768704197423   -0.000237202253356285
-0.00988808368597247   -0.0245936771625117   -0.00045856334680516547
-0.005585223360792356   -0.024566161661766322   -0.000311013379006282
-0.010393493770506176   -0.016324768704197423   -0.000237202253356285
-0.006010350280798243   -0.016310962855337327   -0.00011164257871146024
-0.005949677986648944   -0.01638491420058611   -0.0001461065122161422
-0.005585223360792356   -0.024566161661766322   -0.000311013379006282
-0.010393493770506176   -0.016324768704197423   -0.000237202253356285
-0.005949677986648944   -0.01638491420058611   -0.0001461065122161422
-0.00988808368597247   -0.0245936771625117   -0.00045856334680516547
-0.005585223360792356   -0.024566161661766322   -0.000311013379006282
-0.006010350280798243   -0.016310962855337327   -0.00011164257871146024
-0.009939430163481696   -0.024536328224942314   -0.0004210659834594978
-0.005645355808897177   -0.024499962284967126   -0.0002776935476471758
-0.006010350280798243   -0.016310962855337327   -0.00011164257871146024
-0.010393493770506176   -0.016324768704197423   -0.000237202253356285
-0.009939430163481696   -0.024536328224942314   -0.0004210659834594978
-0.010446390402182565   -0.016259925662713764   -0.0002019146805556443
-0.005645355808897177   -0.024499962284967126   -0.0002776935476471758
-0.00999096055538333   -0.02448337677284896   -0.00037962160942869573
-0.010446390402182565   -0.016259925662713764   -0.0002019146805556443
-0.009939430163481696   -0.024536328224942314   -0.0004210659834594978
-0.005645355808897177   -0.024499962284967126   -0.0002776935476471758
-0.010446390402182565   -0.016259925662713764   -0.0002019146805556443
-0.006073531808866279   -0.016235517086353898   -7.343249643313929e-05
-0.006010350280798243   -0.016310962855337327   -0.00011164257871146024
-0.005645355808897177   -0.024499962284967126   -0.0002776935476471758
-0.010446390402182565   -0.016259925662713764   -0.0002019146805556443
-0.006010350280798243   -0.016310962855337327   -0.00011164257871146024
-0.009939430163481696   -0.024536328224942314   -0.0004210659834594978
-0.009833177191775701   -0.024655266275747337   -0.0004919088342593479
-0.010283972809437407   -0.016450427345340867   -0.0002998760555708417
-0.014271766788812102   -0.024577353521659063   -0.0005953119815877179
-0.00988808368597247   -0.0245936771625117   -0.00045856334680516547
-0.010283972809437407   -0.016450427345340867   -0.0002998760555708417
-0.014770029646897317   -0.01642480432626972   -0.00040254889719729727
-0.014271766788812102   -0.024577353521659063   -0.0005953119815877179
-0.014823498973583281   -0.01637416602971954   -0.000374109713626081
-0.00988808368597247   -0.0245936771625117   -0.00045856334680516547
-0.014324335465292354   -0.024530238032963413   -0.0005534032330008474
-0.014823498973583281   -0.01637416602971954   -0.000374109713626081
-0.014271766788812102   -0.024577353521659063   -0.0005953119815877179
-0.00988808368597247   -0.0245936771625117   -0.00045856334680516547
-0.014823498973583281   -0.01637416602971954   -0.000374109713626081
-0.010340061446202224   -0.0163881473150979   -0.00026990689908718886
-0.010283972809437407   -0.016450427345340867   -0.0002998760555708417
-0.00988808368597247   -0.0245936771625117   -0.00045856334680516547
-0.014823498973583281   -0.01637416602971954   -0.000374109713626081
-0.010283972809437407   -0.016450427345340867   -0.0002998760555708417
-0.014271766788812102   -0.024577353521659063   -0.0005953119815877179
-0.00988808368597247   -0.0245936771625117   -0.00045856334680516547
-0.010340061446202224   -0.0163881473150979   -0.00026990689908718886
-0.014324335465292354   -0.024530238032963413   -0.0005534032330008474
-0.009939430163481696   -0.024536328224942314   -0.0004210659834594978
-0.010340061446202224   -0.0163881473150979   -0.00026990689908718886
-0.014823498973583281   -0.01637416602971954   -0.000374109713626081
-0.014324335465292354   -0.024530238032963413   -0.0005534032330008474
-0.014868767869002876   -0.016320760123256842   -0.000343720203720774
-0.009939430163481696   -0.024536328224942314   -0.0004210659834594978
-0.014364124931813754   -0.024485772218477427   -0.0005080241195541199
-0.014868767869002876   -0.016320760123256842   -0.000343720203720774
-0.014324335465292354   -0.024530238032963413   -0.0005534032330008474
-0.009939430163481696   -0.024536328224942314   -0.0004210659834594978
-0.014868767869002876   -0.016320760123256842   -0.000343720203720774
-0.010393493770506176   -0.016324768704197423   -0.000237202253356285
-0.010340061446202224   -0.0163881473150979   -0.00026990689908718886
-0.009939430163481696   -0.024536328224942314   -0.0004210659834594978
-0.014868767869002876   -0.016320760123256842   -0.000343720203720774
-0.010340061446202224   -0.0163881473150979   -0.00026990689908718886
-0.014324335465292354   -0.024530238032963413   -0.0005534032330008474
-0.009939430163481696   -0.024536328224942314   -0.0004210659834594978
-0.010393493770506176   -0.016324768704197423   -0.000237202253356285
-0.014364124931813754   -0.024485772218477427   -0.0005080241195541199
-0.00999096055538333   -0.02448337677284896   -0.00037962160942869573
-0.010393493770506176   -0.016324768704197423   -0.000237202253356285
-0.014868767869002876   -0.016320760123256842   -0.000343720203720774
-0.014364124931813754   -0.024485772218477427   -0.0005080241195541199
-0.014911551578469424   -0.01626597289983614   -0.0003105383194469807
-0.00999096055538333   -0.02448337677284896   -0.00037962160942869573
-0.014403619511085647   -0.024445952236956888   -0.000458272451726066
-0.014911551578469424   -0.01626597289983614   -0.0003105383194469807
-0.014364124931813754   -0.024485772218477427   -0.0005080241195541199
-0.00999096055538333   -0.02448337677284896   -0.00037962160942869573
-0.014911551578469424   -0.01626597289983614   -0.0003105383194469807
-0.010446390402182565   -0.016259925662713764   -0.0002019146805556443
-0.010393493770506176   -0.016324768704197423   -0.000237202253356285
-0.00999096055538333   -0.02448337677284896   -0.00037962160942869573
-0.014911551578469424   -0.01626597289983614   -0.0003105383194469807
-0.010393493770506176   -0.016324768704197423   -0.000237202253356285
-0.014364124931813754   -0.024485772218477427   -0.0005080241195541199
-0.014271766788812102   -0.024577353521659063   -0.0005953119815877179
-0.014770029646897317   -0.01642480432626972   -0.00040254889719729727
-0.018976673638258383   -0.02448516686695492   -0.0006718417516309286
-0.014324335465292354   -0.024530238032963413   -0.0005534032330008474
-0.014770029646897317   -0.01642480432626972   -0.00040254889719729727
-0.01946994486240906   -0.016382488818423302   -0.00047824282093302526
-0.018976673638258383   -0.02448516686695492   -0.0006718417516309286
-0.019502986792365944   -0.016340100008293043   -0.00045679769477176806
-0.014324335465292354   -0.024530238032963413   -0.0005534032330008474
-0.018984344709775114   -0.024447680506242603   -0.0006254259254101719
-0.019502986792365944   -0.016340100008293043   -0.00045679769477176806
-0.018976673638258383   -0.02448516686695492   -0.0006718417516309286
-0.014324335465292354   -0.024530238032963413   -0.0005534032330008474
-0.019502986792365944   -0.016340100008293043   -0.00045679769477176806
-0.014823498973583281   -0.01637416602971954   -0.000374109713626081
-0.014770029646897317   -0.01642480432626972   -0.00040254889719729727
-0.014324335465292354   -0.024530238032963413   -0.0005534032330008474
-0.019502986792365944   -0.016340100008293043   -0.00045679769477176806
-0.014770029646897317   -0.01642480432626972   -0.00040254889719729727
-0.018976673638258383   -0.02448516686695492   -0.0006718417516309286
-0.014324335465292354   -0.024530238032963413   -0.0005534032330008474
-0.014823498973583281   -0.01637416602971954   -0.000374109713626081
-0.018984344709775114   -0.024447680506242603   -0.0006254259254101719
-0.014364124931813754   -0.024485772218477427   -0.0005080241195541199
-0.014823498973583281   -0.01637416602971954   -0.000374109713626081
-0.019502986792365944   -0.016340100008293043   -0.00045679769477176806
-0.018984344709775114   -0.024447680506242603   -0.0006254259254101719
-0.019533199957294807   -0.016292085561184534   -0.00043058394635171483
-0.014364124931813754   -0.024485772218477427   -0.0005080241195541199
-0.01899228896738153   -0.024409833343029586   -0.0005720268618118099
-0.019533199957294807   -0.016292085561184534   -0.00043058394635171483
-0.018984344709775114   -0.024447680506242603   -0.0006254259254101719
-0.014364124931813754   -0.024485772218477427   -0.0005080241195541199
-0.019533199957294807   -0.016292085561184534   -0.00043058394635171483
-0.014868767869002876   -0.016320760123256842   -0.000343720203720774
-0.014823498973583281   -0.01637416602971954   -0.000374109713626081
-0.014364124931813754   -0.024485772218477427   -0.0005080241195541199
-0.019533199957294807   -0.016292085561184534   -0.00043058394635171483
-0.014823498973583281   -0.01637416602971954   -0.000374109713626081
-0.018984344709775114   -0.024447680506242603   -0.0006254259254101719
-0.014364124931813754   -0.024485772218477427   -0.0005080241195541199
-0.014868767869002876   -0.016320760123256842   -0.000343720203720774
-0.01899228896738153   -0.024409833343029586   -0.0005720268618118099
-0.014403619511085647   -0.024445952236956888   -0.000458272451726066
-0.014868767869002876   -0.016320760123256842   -0.000343720203720774
-0.019533199957294807   -0.016292085561184534   -0.00043058394635171483
-0.01899228896738153   -0.024409833343029586   -0.0005720268618118099
-0.01954762984931268   -0.01624817316047296   -0.0004007848132098567
-0.014403619511085647   -0.024445952236956888   -0.000458272451726066
-0.01897367766145861   -0.02438523947543755   -0.0005124706890660865
-0.01954762984931268   -0.01624817316047296   -0.0004007848132098567
-0.01899228896738153   -0.024409833343029586   -0.0005720268618118099
-0.014403619511085647   -0.024445952236956888   -0.000458272451726066
-0.01954762984931268   -0.01624817316047296   -0.0004007848132098567
-0.014911551578469424   -0.01626597289983614   -0.0003105383194469807
-0.014868767869002876   -0.016320760123256842   -0.000343720203720774
-0.014403619511085647   -0.024445952236956888   -0.000458272451726066
-0.01954762984931268   -0.01624817316047296   -0.0004007848132098567
-0.014868767869002876   -0.016320760123256842   -0.000343720203720774
-0.01899228896738153   -0.024409833343029586   -0.0005720268618118099
0.0032623455904979832   -0.01655353022539632   9.885067941025254e-05
0.0022877392986764733   -0.00831684019267745   0.00010644233228982144
-0.0014521445196404826   -0.01647608309807019   -4.190544016786406e-05
0.0031604982835266005   -0.016454952682787946   0.0001404842272054972
0.0022877392986764733   -0.00831684019267745   0.00010644233228982144
-0.0021109843017538387   -0.008209664300381957   5.5223314817415365e-05
-0.0014521445196404826   -0.01647608309807019   -4.190544016786406e-05
-0.0021755214481737274   -0.008168802680382906   0.00010202527832431669
0.0031604982835266005   -0.016454952682787946   0.0001404842272054972
-0.001516937427163647   -0.01639449202550855   -8.314682011510118e-06
-0.0021755214481737274   -0.008168802680382906   0.00010202527832431669
-0.0014521445196404826   -0.01647608309807019   -4.190544016786406e-05
0.0031604982835266005   -0.016454952682787946   0.0001404842272054972
-0.0021755214481737274   -0.008168802680382906   0.00010202527832431669
0.0020864886747129475   -0.00821197390543796   0.0002221714871910997
0.0022877392986764733   -0.00831684019267745   0.00010644233228982144
0.0031604982835266005   -0.016454952682787946   0.0001404842272054972
-0.0021755214481737274   -0.008168802680382906   0.00010202527832431669
0.0022877392986764733   -0.00831684019267745   0.00010644233228982144
-0.0014521445196404826   -0.01647608309807019   -4.190544016786406e-05
0.0031604982835266005   -0.016454952682787946   0.0001404842272054972
0.0020864886747129475   -0.00821197390543796   0.0002221714871910997
-0.001516937427163647   -0.01639449202550855   -8.314682011510118e-06
0.0030466312818638107   -0.01635716004528429   0.0002004423768196357
0.0020864886747129475   -0.00821197390543796   0.0002221714871910997
-0.0021755214481737274   -0.008168802680382906   0.00010202527832431669
-0.001516937427163647   -0.01639449202550855   -8.314682011510118e-06
-0.002260485002045806   -0.008095538866226907   0.00015889811511820756
0.0030466312818638107   -0.01635716004528429   0.0002004423768196357
-0.0015927669614854618   -0.016308423796244993   3.1278668219788965e-05
-0.002260485002045806   -0.008095538866226907   0.00015889811511820756
-0.001516937427163647   -0.01639449202550855   -8.314682011510118e-06
0.0030466312818638107   -0.01635716004528429   0.0002004423768196357
-0.002260485002045806   -0.008095538866226907   0.00015889811511820756
0.001968705643441376   -0.008126430172182609   0.0003084549729073095
0.0020864886747129475   -0.00821197390543796   0.0002221714871910997
0.0030466312818638107   -0.01635716004528429   0.0002004423768196357
-0.002260485002045806   -0.008095538866226907   0.00015889811511820756
0.0020864886747129475   -0.00821197390543796   0.0002221714871910997
-0.001516937427163647   -0.01639449202550855   -8.314682011510118e-06
0.0030466312818638107   -0.01635716004528429   0.0002004423768196357
0.001968705643441376   -0.008126430172182609   0.0003084549729073095
-0.0015927669614854618   -0.016308423796244993   3.1278668219788965e-05
0.0029074836208405823   -0.01623698662943596   0.0002664459433221871
0.001968705643441376   -0.008126430172182609   0.0003084549729073095
-0.002260485002045806   -0.008095538866226907   0.00015889811511820756
-0.0015927669614854618   -0.016308423796244993   3.1278668219788965e-05
-0.002331980888538264   -0.008016852423561493   0.0002089538222809652
0.0029074836208405823   -0.01623698662943596   0.0002664459433221871
-0.0016712427139961978   -0.01621707750695104   7.67997832818728e-05
-0.002331980888538264   -0.008016852423561493   0.0002089538222809652
-0.0015927669614854618   -0.016308423796244993   3.1278668219788965e-05
0.0029074836208405823   -0.01623698662943596   0.0002664459433221871
-0.002331980888538264   -0.008016852423561493   0.0002089538222809652
0.0018176572199095039   -0.007995470147843079   0.00040729091372614757
0.001968705643441376   -0.008126430172182609   0.0003084549729073095
0.0029074836208405823   -0.01623698662943596   0.0002664459433221871
-0.002331980888538264   -0.008016852423561493   0.0002089538222809652
0.001968705643441376   -0.008126430172182609   0.0003084549729073095
-0.0015927669614854618   -0.016308423796244993   3.1278668219788965e-05
-0.0014521445196404826   -0.01647608309807019   -4.190544016786406e-05
-0.0021109843017538387   -0.008209664300381957   5.5223314817415365e-05
-0.0058910424525629905   -0.016456024868271343   -0.00017744519611310908
-0.001516937427163647   -0.01639449202550855   -8.314682011510118e-06
-0.0021109843017538387   -0.008209664300381957   5.5223314817415365e-05
-0.006295717480385464   -0.008331481735338122   -5.2281410609202384e-05
-0.0058910424525629905   -0.016456024868271343   -0.00017744519611310908
-0.006355271173320954   -0.008268649331299052   -1.9076974605230868e-05
-0.001516937427163647   -0.01639449202550855   -8.314682011510118e-06
-0.005949677986648944   -0.01638491420058611   -0.0001461065122161422
-0.006355271173320954   -0.008268649331299052   -1.9076974605230868e-05
-0.0058910424525629905   -0.016456024868271343   -0.00017744519611310908
-0.001516937427163647   -0.01639449202550855   -8.314682011510118e-06
-0.006355271173320954   -0.008268649331299052   -1.9076974605230868e-05
-0.0021755214481737274   -0.008168802680382906   0.00010202527832431669
-0.0021109843017538387   -0.008209664300381957   5.5223314817415365e-05
-0.001516937427163647   -0.01639449202550855   -8.314682011510118e-06
-0.006355271173320954   -0.008268649331299052   -1.9076974605230868e-05
-0.0021109843017538387   -0.008209664300381957   5.5223314817415365e-05
-0.0058910424525629905   -0.016456024868271343   -0.00017744519611310908
-0.001516937427163647   -0.01639449202550855   -8.314682011510118e-06
-0.0021755214481737274   -0.008168802680382906   0.00010202527832431669
-0.005949677986648944   -0.01638491420058611   -0.0001461065122161422
-0.0015927669614854618   -0.016308423796244993   3.1278668219788965e-05
-0.0021755214481737274   -0.008168802680382906   0.00010202527832431669
-0.006355271173320954   -0.008268649331299052   -1.9076974605230868e-05
-0.005949677986648944   -0.01638491420058611   -0.0001461065122161422
-0.006417677524690648   -0.008197616437053183   1.6098952347309382e-05
-0.0015927669614854618   -0.016308423796244993   3.1278668219788965e-05
-0.006010350280798243   -0.016310962855337327   -0.00011164257871146024
-0.006417677524690648   -0.008197616437053183   1.6098952347309382e-05
-0.005949677986648944   -0.01638491420058611   -0.0001461065122161422
-0.0015927669614854618   -0.016308423796244993   3.1278668219788965e-05
-0.006417677524690648   -0.008197616437053183   1.6098952347309382e-05
-0.002260485002045806   -0.008095538866226907   0.00015889811511820756
-0.0021755214481737274   -0.008168802680382906   0.00010202527832431669
-0.0015927669614854618   -0.016308423796244993   3.1278668219788965e-05
-0.006417677524690648   -0.008197616437053183   1.6098952347309382e-05
-0.0021755214481737274   -0.008168802680382906   0.00010202527832431669
-0.005949677986648944   -0.01638491420058611   -0.0001461065122161422
-0.0015927669614854618   -0.016308423796244993   3.1278668219788965e-05
-0.002260485002045806   -0.008095538866226907   0.00015889811511820756
-0.006010350280798243   -0.016310962855337327   -0.00011164257871146024
-0.0016712427139961978   -0.01621707750695104   7.67997832818728e-05
-0.002260485002045806   -0.008095538866226907   0.00015889811511820756
-0.006417677524690648   -0.008197616437053183   1.6098952347309382e-05
-0.006010350280798243   -0.016310962855337327   -0.00011164257871146024
-0.006477052072305604   -0.008119763368127163   5.491341092299432e-05
-0.0016712427139961978   -0.01621707750695104   7.67997832818728e-05
-0.006073531808866279   -0.016235517086353898   -7.343249643313929e-05
-0.006477052072305604   -0.008119763368127163   5.491341092299432e-05
-0.006010350280798243   -0.016310962855337327   -0.00011164257871146024
-0.0016712427139961978   -0.01621707750695104   7.67997832818728e-05
-0.006477052072305604   -0.008119763368127163   5.491341092299432e-05
-0.002331980888538264   -0.008016852423561493   0.0002089538222809652
-0.002260485002045806   -0.008095538866226907   0.00015889811511820756
-0.0016712427139961978   -0.01621707750695104   7.67997832818728e-05
-0.006477052072305604   -0.008119763368127163   5.491341092299432e-05
-0.002260485002045806   -0.008095538866226907   0.00015889811511820756
-0.006010350280798243   -0.016310962855337327   -0.00011164257871146024
-0.0058910424525629905   -0.016456024868271343   -0.00017744519611310908
-0.006295717480385464   -0.008331481735338122   -5.2281410609202384e-05
-0.010283972809437407   -0.016450427345340867   -0.0002998760555708417
-0.005949677986648944   -0.01638491420058611   -0.0001461065122161422
-0.006295717480385464   -0.008331481735338122   -5.2281410609202384e-05
-0.010582290329440242   -0.008426655876090391   -0.00017165505194599283
-0.010283972809437407   -0.016450427345340867   -0.0002998760555708417
-0.01063583464322834   -0.008362121906897092   -0.000145882720969669
-0.005949677986648944   -0.01638491420058611   -0.0001461065122161422
-0.010340061446202224   -0.0163881473150979   -0.00026990689908718886
-0.01063583464322834   -0.008362121906897092   -0.000145882720969669
-0.010283972809437407   -0.016450427345340867   -0.0002998760555708417
-0.005949677986648944   -0.01638491420058611   -0.0001461065122161422
-0.01063583464322834   -0.008362121906897092   -0.000145882720969669
-0.006355271173320954   -0.008268649331299052   -1.9076974605230868e-05
-0.006295717480385464   -0.008331481735338122   -5.2281410609202384e-05
-0.005949677986648944   -0.01638491420058611   -0.0001461065122161422
-0.01063583464322834   -0.008362121906897092   -0.000145882720969669
-0.006295717480385464   -0.008331481735338122   -5.2281410609202384e-05
-0.010283972809437407   -0.016450427345340867   -0.0002998760555708417
-0.005949677986648944   -0.01638491420058611   -0.0001461065122161422
-0.006355271173320954   -0.008268649331299052   -1.9076974605230868e-05
-0.010340061446202224   -0.0163881473150979   -0.00026990689908718886
-0.006010350280798243   -0.016310962855337327   -0.00011164257871146024
-0.006355271173320954   -0.008268649331299052   -1.9076974605230868e-05
-0.01063583464322834   -0.008362121906897092   -0.000145882720969669
-0.010340061446202224   -0.0163881473150979   -0.00026990689908718886
-0.01068712530389933   -0.008293923790604184   -0.00012016942391579765
-0.006010350280798243   -0.016310962855337327   -0.00011164257871146024
-0.010393493770506176   -0.016324768704197423   -0.000237202253356285
-0.01068712530389933   -0.008293923790604184   -0.00012016942391579765
-0.010340061446202224   -0.0163881473150979   -0.00026990689908718886
-0.006010350280798243   -0.016310962855337327   -0.00011164257871146024
-0.01068712530389933   -0.008293923790604184   -0.00012016942391579765
-0.006417677524690648   -0.008197616437053183   1.6098952347309382e-05
-0.006355271173320954   -0.008268649331299052   -1.9076974605230868e-05
-0.006010350280798243   -0.016310962855337327   -0.00011164257871146024
-0.01068712530389933   -0.008293923790604184   -0.00012016942391579765
-0.006355271173320954   -0.008268649331299052   -1.9076974605230868e-05
-0.010340061446202224   -0.0163881473150979   -0.00026990689908718886
-0.006010350280798243   -0.016310962855337327   -0.00011164257871146024
-0.006417677524690648   -0.008197616437053183   1.6098952347309382e-05
-0.010393493770506176   -0.016324768704197423   -0.000237202253356285
-0.006073531808866279   -0.016235517086353898   -7.343249643313929e-05
-0.006417677524690648   -0.008197616437053183   1.6098952347309382e-05
-0.01068712530389933   -0.008293923790604184   -0.00012016942391579765
-0.010393493770506176   -0.016324768704197423   -0.000237202253356285
-0.010734434515354881   -0.008220054979289973   -9.214918171317515e-05
-0.006073531808866279   -0.016235517086353898   -7.343249643313929e-05
-0.010446390402182565   -0.016259925662713764   -0.0002019146805556443
-0.010734434515354881   -0.008220054979289973   -9.214918171317515e-05
-0.010393493770506176   -0.016324768704197423   -0.000237202253356285
-0.006073531808866279   -0.016235517086353898   -7.343249643313929e-05
-0.010734434515354881   -0.008220054979289973   -9.214918171317515e-05
-0.006477052072305604   -0.008119763368127163   5.491341092299432e-05
-0.006417677524690648   -0.008197616437053183   1.6098952347309382e-05
-0.006073531808866279   -0.016235517086353898   -7.343249643313929e-05
-0.010734434515354881   -0.008220054979289973   -9.214918171317515e-05
-0.006417677524690648   -0.008197616437053183   1.6098952347309382e-05
-0.010393493770506176   -0.016324768704197423   -0.000237202253356285
-0.010283972809437407   -0.016450427345340867   -0.0002998760555708417
-0.010582290329440242   -0.008426655876090391   -0.00017165505194599283
-0.014770029646897317   -0.01642480432626972   -0.00040254889719729727
-0.010340061446202224   -0.0163881473150979   -0.00026990689908718886
-0.010582290329440242   -0.008426655876090391   -0.00017165505194599283
-0.015019455856844981   -0.008465745371903326   -0.0002818069294029826
-0.014770029646897317   -0.01642480432626972   -0.00040254889719729727
-0.015067707163757629   -0.00840784588450126   -0.00026298584202183613
-0.010340061446202224   -0.0163881473150979   -0.00026990689908718886
-0.014823498973583281   -0.01637416602971954   -0.000374109713626081
-0.015067707163757629   -0.00840784588450126   -0.00026298584202183613
-0.014770029646897317   -0.01642480432626972   -0.00040254889719729727
-0.010340061446202224   -0.0163881473150979   -0.00026990689908718886
-0.015067707163757629   -0.00840784588450126   -0.00026298584202183613
-0.01063583464322834   -0.008362121906897092   -0.000145882720969669
-0.010582290329440242   -0.008426655876090391   -0.00017165505194599283
-0.010340061446202224   -0.0163881473150979   -0.00026990689908718886
-0.015067707163757629   -0.00840784588450126   -0.00026298584202183613
-0.010582290329440242   -0.008426655876090391   -0.00017165505194599283
-0.014770029646897317   -0.01642480432626972   -0.00040254889719729727
-0.010340061446202224   -0.0163881473150979   -0.00026990689908718886
-0.01063583464322834   -0.008362121906897092   -0.000145882720969669
-0.014823498973583281   -0.01637416602971954   -0.000374109713626081
-0.010393493770506176   -0.016324768704197423   -0.000237202253356285
-0.01063583464322834   -0.008362121906897092   -0.000145882720969669
-0.015067707163757629   -0.00840784588450126   -0.00026298584202183613
-0.014823498973583281   -0.01637416602971954   -0.000374109713626081
-0.015110706754349997   -0.008344731952304592   -0.0002446789248774887
-0.010393493770506176   -0.016324768704197423   -0.000237202253356285
-0.014868767869002876   -0.016320760123256842   -0.000343720203720774
-0.015110706754349997   -0.008344731952304592   -0.0002446789248774887
-0.014823498973583281   -0.01637416602971954   -0.000374109713626081
-0.010393493770506176   -0.016324768704197423   -0.000237202253356285
-0.015110706754349997   -0.008344731952304592   -0.0002446789248774887
-0.01068712530389933   -0.008293923790604184   -0.00012016942391579765
-0.01063583464322834   -0.008362121906897092   -0.000145882720969669
-0.010393493770506176   -0.016324768704197423   -0.000237202253356285
-0.015110706754349997   -0.008344731952304592   -0.0002446789248774887
-0.01063583464322834   -0.008362121906897092   -0.000145882720969669
-0.014823498973583281   -0.01637416602971954   -0.000374109713626081
-0.010393493770506176   -0.016324768704197423   -0.000237202253356285
-0.01068712530389933   -0.008293923790604184   -0.00012016942391579765
-0.014868767869002876   -0.016320760123256842   -0.000343720203720774
-0.010446390402182565   -0.016259925662713764   -0.0002019146805556443
-0.01068712530389933   -0.008293923790604184   -0.00012016942391579765
-0.015110706754349997   -0.008344731952304592   -0.0002446789248774887
-0.014868767869002876   -0.016320760123256842   -0.000343720203720774
-0.015149653503311798   -0.008277522588816469   -0.00022580226528353176
-0.010446390402182565   -0.016259925662713764   -0.0002019146805556443
-0.014911551578469424   -0.01626597289983614   -0.0003105383194469807
-0.015149653503311798   -0.008277522588816469   -0.00022580226528353176
-0.014868767869002876   -0.016320760123256842   -0.000343720203720774
-0.010446390402182565   -0.016259925662713764   -0.0002019146805556443
-0.015149653503311798   -0.008277522588816469   -0.00022580226528353176
-0.010734434515354881   -0.008220054979289973   -9.214918171317515e-05
-0.01068712530389933   -0.008293923790604184   -0.00012016942391579765
-0.010446390402182565   -0.016259925662713764   -0.0002019146805556443
-0.015149653503311798   -0.008277522588816469   -0.00022580226528353176
-0.01068712530389933   -0.008293923790604184   -0.00012016942391579765
-0.014868767869002876   -0.016320760123256842   -0.000343720203720774
-0.014770029646897317   -0.01642480432626972   -0.00040254889719729727
-0.015019455856844981   -0.008465745371903326   -0.0002818069294029826
-0.01946994486240906   -0.016382488818423302   -0.00047824282093302526
-0.014823498973583281   -0.01637416602971954   -0.000374109713626081
-0.015019455856844981   -0.008465745371903326   -0.0002818069294029826
-0.01961528938500109   -0.00847006137821256   -0.00037308155116569066
-0.01946994486240906   -0.016382488818423302   -0.00047824282093302526
-0.01965669620134112   -0.008413887826705796   -0.0003649369558403954
-0.014823498973583281   -0.01637416602971954   -0.000374109713626081
-0.019502986792365944   -0.016340100008293043   -0.00045679769477176806
-0.01965669620134112   -0.008413887826705796   -0.0003649369558403954
-0.01946994486240906   -0.016382488818423302   -0.00047824282093302526
-0.014823498973583281   -0.01637416602971954   -0.000374109713626081
-0.01965669620134112   -0.008413887826705796   -0.0003649369558403954
-0.015067707163757629   -0.00840784588450126   -0.00026298584202183613
-0.015019455856844981   -0.008465745371903326   -0.0002818069294029826
-0.014823498973583281   -0.01637416602971954   -0.000374109713626081
-0.01965669620134112   -0.008413887826705796   -0.0003649369558403954
-0.015019455856844981   -0.008465745371903326   -0.0002818069294029826
-0.01946994486240906   -0.016382488818423302   -0.00047824282093302526
-0.014823498973583281   -0.01637416602971954   -0.000374109713626081
-0.015067707163757629   -0.00840784588450126   -0.00026298584202183613
-0.019502986792365944   -0.016340100008293043   -0.00045679769477176806
-0.014868767869002876   -0.016320760123256842   -0.000343720203720774
-0.015067707163757629   -0.00840784588450126   -0.00026298584202183613
-0.01965669620134112   -0.008413887826705796   -0.0003649369558403954
-0.019502986792365944   -0.016340100008293043   -0.00045679769477176806
-0.019693793146026733   -0.008353102266932949   -0.00035539948946197735
-0.014868767869002876   -0.016320760123256842   -0.000343720203720774
-0.019533199957294807   -0.016292085561184534   -0.00043058394635171483
-0.019693793146026733   -0.008353102266932949   -0.00035539948946197735
-0.019502986792365944   -0.016340100008293043   -0.00045679769477176806
-0.014868767869002876   -0.016320760123256842   -0.000343720203720774
-0.019693793146026733   -0.008353102266932949   -0.00035539948946197735
-0.015110706754349997   -0.008344731952304592   -0.0002446789248774887
-0.015067707163757629   -0.00840784588450126   -0.00026298584202183613
-0.014868767869002876   -0.016320760123256842   -0.000343720203720774
-0.019693793146026733   -0.008353102266932949   -0.00035539948946197735
-0.015067707163757629   -0.00840784588450126   -0.00026298584202183613
-0.019502986792365944   -0.016340100008293043   -0.00045679769477176806
-0.014868767869002876   -0.016320760123256842   -0.000343720203720774
-0.015110706754349997   -0.008344731952304592   -0.0002446789248774887
-0.019533199957294807   -0.016292085561184534   -0.00043058394635171483
-0.014911551578469424   -0.01626597289983614   -0.0003105383194469807
-0.015110706754349997   -0.008344731952304592   -0.0002446789248774887
-0.019693793146026733   -0.008353102266932949   -0.00035539948946197735
-0.019533199957294807   -0.016292085561184534   -0.00043058394635171483
-0.01972492341342293   -0.008288745803794158   -0.0003464883204938482
-0.014911551578469424   -0.01626597289983614   -0.0003105383194469807
-0.01954762984931268   -0.01624817316047296   -0.0004007848132098567
-0.01972492341342293   -0.008288745803794158   -0.0003464883204938482
-0.019533199957294807   -0.016292085561184534   -0.00043058394635171483
-0.014911551578469424   -0.01626597289983614   -0.0003105383194469807
-0.01972492341342293   -0.008288745803794158   -0.0003464883204938482
-0.015149653503311798   -0.008277522588816469   -0.00022580226528353176
-0.015110706754349997   -0.008344731952304592   -0.0002446789248774887
-0.014911551578469424   -0.01626597289983614   -0.0003105383194469807
-0.01972492341342293   -0.008288745803794158   -0.0003464883204938482
-0.015110706754349997   -0.008344731952304592   -0.0002446789248774887
-0.019533199957294807   -0.016292085561184534   -0.00043058394635171483
0.0022877392986764733   -0.00831684019267745   0.00010644233228982144
0.0   0.0   0.0
-0.0021109843017538387   -0.008209664300381957   5.5223314817415365e-05
0.0020864886747129475   -0.00821197390543796   0.0002221714871910997
0.0   0.0   0.0
-0.002648199758959517   -0.0006746238844861244   -2.1560378964394225e-05
-0.0021109843017538387   -0.008209664300381957   5.5223314817415365e-05
-0.0028064909125778944   -0.0005249366089721318   6.998609818228999e-05
0.0020864886747129475   -0.00821197390543796   0.0002221714871910997
-0.0021755214481737274   -0.008168802680382906   0.00010202527832431669
-0.0028064909125778944   -0.0005249366089721318   6.998609818228999e-05
-0.0021109843017538387   -0.008209664300381957   5.5223314817415365e-05
0.0020864886747129475   -0.00821197390543796   0.0002221714871910997
-0.0028064909125778944   -0.0005249366089721318   6.998609818228999e-05
0.0   0.0   0.0
0.0   0.0   0.0
0.0020864886747129475   -0.00821197390543796   0.0002221714871910997
-0.0028064909125778944   -0.0005249366089721318   6.998609818228999e-05
0.0   0.0   0.0
-0.0021109843017538387   -0.008209664300381957   5.5223314817415365e-05
0.0020864886747129475   -0.00821197390543796   0.0002221714871910997
0.0   0.0   0.0
-0.0021755214481737274   -0.008168802680382906   0.00010202527832431669
0.001968705643441376   -0.008126430172182609   0.0003084549729073095
0.0   0.0   0.0
-0.0028064909125778944   -0.0005249366089721318   6.998609818228999e-05
-0.0021755214481737274   -0.008168802680382906   0.00010202527832431669
-0.002905929718065638   -0.00045288712075736707   0.00012293859549827123
0.001968705643441376   -0.008126430172182609   0.0003084549729073095
-0.002260485002045806   -0.008095538866226907   0.00015889811511820756
-0.002905929718065638   -0.00045288712075736707   0.00012293859549827123
-0.0021755214481737274   -0.008168802680382906   0.00010202527832431669
0.001968705643441376   -0.008126430172182609   0.0003084549729073095
-0.002905929718065638   -0.00045288712075736707   0.00012293859549827123
0.0   0.0   0.0
0.0   0.0   0.0
0.001968705643441376   -0.008126430172182609   0.0003084549729073095
-0.002905929718065638   -0.00045288712075736707   0.00012293859549827123
0.0   0.0   0.0
-0.0021755214481737274   -0.008168802680382906   0.00010202527832431669
0.001968705643441376   -0.008126430172182609   0.0003084549729073095
0.0   0.0   0.0
-0.002260485002045806   -0.008095538866226907   0.00015889811511820756
0.0018176572199095039   -0.007995470147843079   0.00040729091372614757
0.0   0.0   0.0
-0.002905929718065638   -0.00045288712075736707   0.00012293859549827123
-0.002260485002045806   -0.008095538866226907   0.00015889811511820756
-0.0030394177858228903   -0.0003571557725329012   0.0001837397371792052
0.0018176572199095039   -0.007995470147843079   0.00040729091372614757
-0.002331980888538264   -0.008016852423561493   0.0002089538222809652
-0.0030394177858228903   -0.0003571557725329012   0.0001837397371792052
-0.002260485002045806   -0.008095538866226907   0.00015889811511820756
0.0018176572199095039   -0.007995470147843079   0.00040729091372614757
-0.0030394177858228903   -0.0003571557725329012   0.0001837397371792052
0.0   0.0   0.0
0.0   0.0   0.0
0.0018176572199095039   -0.007995470147843079   0.00040729091372614757
-0.0030394177858228903   -0.0003571557725329012   0.0001837397371792052
0.0   0.0   0.0
-0.002260485002045806   -0.008095538866226907   0.00015889811511820756
-0.0021109843017538387   -0.008209664300381957   5.5223314817415365e-05
-0.002648199758959517   -0.0006746238844861244   -2.1560378964394225e-05
-0.006295717480385464   -0.008331481735338122   -5.2281410609202384e-05
-0.0021755214481737274   -0.008168802680382906   0.00010202527832431669
-0.002648199758959517   -0.0006746238844861244   -2.1560378964394225e-05
-0.006482674067446759   -0.0008848270906868577   -1.9255628970426297e-05
-0.006295717480385464   -0.008331481735338122   -5.2281410609202384e-05
-0.006564365259810005   -0.0008031822968756114   4.346219535773747e-06
-0.0021755214481737274   -0.008168802680382906   0.00010202527832431669
-0.006355271173320954   -0.008268649331299052   -1.9076974605230868e-05
-0.006564365259810005   -0.0008031822968756114   4.346219535773747e-06
-0.006295717480385464   -0.008331481735338122   -5.2281410609202384e-05
-0.0021755214481737274   -0.008168802680382906   0.00010202527832431669
-0.006564365259810005   -0.0008031822968756114   4.346219535773747e-06
-0.0028064909125778944   -0.0005249366089721318   6.998609818228999e-05
-0.002648199758959517   -0.0006746238844861244   -2.1560378964394225e-05
-0.0021755214481737274   -0.008168802680382906   0.00010202527832431669
-0.006564365259810005   -0.0008031822968756114   4.346219535773747e-06
-0.002648199758959517   -0.0006746238844861244   -2.1560378964394225e-05
-0.006295717480385464   -0.008331481735338122   -5.2281410609202384e-05
-0.0021755214481737274   -0.008168802680382906   0.00010202527832431669
-0.0028064909125778944   -0.0005249366089721318   6.998609818228999e-05
-0.006355271173320954   -0.008268649331299052   -1.9076974605230868e-05
-0.002260485002045806   -0.008095538866226907   0.00015889811511820756
-0.0028064909125778944   -0.0005249366089721318   6.998609818228999e-05
-0.006564365259810005   -0.0008031822968756114   4.346219535773747e-06
-0.006355271173320954   -0.008268649331299052   -1.9076974605230868e-05
-0.006645756702893307   -0.0007076111387934801   4.652127322644537e-05
-0.002260485002045806   -0.008095538866226907   0.00015889811511820756
-0.006417677524690648   -0.008197616437053183   1.6098952347309382e-05
-0.006645756702893307   -0.0007076111387934801   4.652127322644537e-05
-0.006355271173320954   -0.008268649331299052   -1.9076974605230868e-05
-0.002260485002045806   -0.008095538866226907   0.00015889811511820756
-0.006645756702893307   -0.0007076111387934801   4.652127322644537e-05
-0.002905929718065638   -0.00045288712075736707   0.00012293859549827123
-0.0028064909125778944   -0.0005249366089721318   6.998609818228999e-05
-0.002260485002045806   -0.008095538866226907   0.00015889811511820756
-0.006645756702893307   -0.0007076111387934801   4.652127322644537e-05
-0.0028064909125778944   -0.0005249366089721318   6.998609818228999e-05
-0.006355271173320954   -0.008268649331299052   -1.9076974605230868e-05
-0.002260485002045806   -0.008095538866226907   0.00015889811511820756
-0.002905929718065638   -0.00045288712075736707   0.00012293859549827123
-0.006417677524690648   -0.008197616437053183   1.6098952347309382e-05
-0.002331980888538264   -0.008016852423561493   0.0002089538222809652
-0.002905929718065638   -0.00045288712075736707   0.00012293859549827123
-0.006645756702893307   -0.0007076111387934801   4.652127322644537e-05
-0.006417677524690648   -0.008197616437053183   1.6098952347309382e-05
-0.006736054634819393   -0.0005970175668511789   8.69674065544775e-05
-0.002331980888538264   -0.008016852423561493   0.0002089538222809652
-0.006477052072305604   -0.008119763368127163   5.491341092299432e-05
-0.006736054634819393   -0.0005970175668511789   8.69674065544775e-05
-0.006417677524690648   -0.008197616437053183   1.6098952347309382e-05
-0.002331980888538264   -0.008016852423561493   0.0002089538222809652
-0.006736054634819393   -0.0005970175668511789   8.69674065544775e-05
-0.0030394177858228903   -0.0003571557725329012   0.0001837397371792052
-0.002905929718065638   -0.00045288712075736707   0.00012293859549827123
-0.002331980888538264   -0.008016852423561493   0.0002089538222809652
-0.006736054634819393   -0.0005970175668511789   8.69674065544775e-05
-0.002905929718065638   -0.00045288712075736707   0.00012293859549827123
-0.006417677524690648   -0.008197616437053183   1.6098952347309382e-05
-0.006295717480385464   -0.008331481735338122   -5.2281410609202384e-05
-0.006482674067446759   -0.0008848270906868577   -1.9255628970426297e-05
-0.010582290329440242   -0.008426655876090391   -0.00017165505194599283
-0.006355271173320954   -0.008268649331299052   -1.9076974605230868e-05
-0.006482674067446759   -0.0008848270906868577   -1.9255628970426297e-05
-0.010686708078785658   -0.0009441597900513236   -9.44337848739551e-05
-0.010582290329440242   -0.008426655876090391   -0.00017165505194599283
-0.01073632935230987   -0.0008806474214211651   -8.785703118717124e-05
-0.006355271173320954   -0.008268649331299052   -1.9076974605230868e-05
-0.01063583464322834   -0.008362121906897092   -0.000145882720969669
-0.01073632935230987   -0.0008806474214211651   -8.785703118717124e-05
-0.010582290329440242   -0.008426655876090391   -0.00017165505194599283
-0.006355271173320954   -0.008268649331299052   -1.9076974605230868e-05
-0.01073632935230987   -0.0008806474214211651   -8.785703118717124e-05
-0.006564365259810005   -0.0008031822968756114   4.346219535773747e-06
-0.006482674067446759   -0.0008848270906868577   -1.9255628970426297e-05
-0.006355271173320954   -0.008268649331299052   -1.9076974605230868e-05
-0.01073632935230987   -0.0008806474214211651   -8.785703118717124e-05
-0.006482674067446759   -0.0008848270906868577   -1.9255628970426297e-05
-0.010582290329440242   -0.008426655876090391   -0.00017165505194599283
-0.006355271173320954   -0.008268649331299052   -1.9076974605230868e-05
-0.006564365259810005   -0.0008031822968756114   4.346219535773747e-06
-0.01063583464322834   -0.008362121906897092   -0.000145882720969669
-0.006417677524690648   -0.008197616437053183   1.6098952347309382e-05
-0.006564365259810005   -0.0008031822968756114   4.346219535773747e-06
-0.01073632935230987   -0.0008806474214211651   -8.785703118717124e-05
-0.01063583464322834   -0.008362121906897092   -0.000145882720969669
-0.010787936009297068   -0.0008068555849801127   -7.633749256444982e-05
-0.006417677524690648   -0.008197616437053183   1.6098952347309382e-05
-0.01068712530389933   -0.008293923790604184   -0.00012016942391579765
-0.010787936009297068   -0.0008068555849801127   -7.633749256444982e-05
-0.01063583464322834   -0.008362121906897092   -0.000145882720969669
-0.006417677524690648   -0.008197616437053183   1.6098952347309382e-05
-0.010787936009297068   -0.0008068555849801127   -7.633749256444982e-05
-0.006645756702893307   -0.0007076111387934801   4.652127322644537e-05
-0.006564365259810005   -0.0008031822968756114   4.346219535773747e-06
-0.006417677524690648   -0.008197616437053183   1.6098952347309382e-05
-0.010787936009297068   -0.0008068555849801127   -7.633749256444982e-05
-0.006564365259810005   -0.0008031822968756114   4.346219535773747e-06
-0.01063583464322834   -0.008362121906897092   -0.000145882720969669
-0.006417677524690648   -0.008197616437053183   1.6098952347309382e-05
-0.006645756702893307   -0.0007076111387934801   4.652127322644537e-05
-0.01068712530389933   -0.008293923790604184   -0.00012016942391579765
-0.006477052072305604   -0.008119763368127163   5.491341092299432e-05
-0.006645756702893307   -0.0007076111387934801   4.652127322644537e-05
-0.010787936009297068   -0.0008068555849801127   -7.633749256444982e-05
-0.01068712530389933   -0.008293923790604184   -0.00012016942391579765
-0.010837042466602474   -0.0007169471413376151   -6.109532976677919e-05
-0.006477052072305604   -0.008119763368127163   5.491341092299432e-05
-0.010734434515354881   -0.008220054979289973   -9.214918171317515e-05
-0.010837042466602474   -0.0007169471413376151   -6.109532976677919e-05
-0.01068712530389933   -0.008293923790604184   -0.00012016942391579765
-0.006477052072305604   -0.008119763368127163   5.491341092299432e-05
-0.010837042466602474   -0.0007169471413376151   -6.109532976677919e-05
-0.006736054634819393   -0.0005970175668511789   8.69674065544775e-05
-0.006645756702893307   -0.0007076111387934801   4.652127322644537e-05
-0.006477052072305604   -0.008119763368127163   5.491341092299432e-05
-0.010837042466602474   -0.0007169471413376151   -6.109532976677919e-05
-0.006645756702893307   -0.0007076111387934801   4.652127322644537e-05
-0.01068712530389933   -0.008293923790604184   -0.00012016942391579765
-0.010582290329440242   -0.008426655876090391   -0.00017165505194599283
-0.010686708078785658   -0.0009441597900513236   -9.44337848739551e-05
-0.015019455856844981   -0.008465745371903326   -0.0002818069294029826
-0.01063583464322834   -0.008362121906897092   -0.000145882720969669
-0.010686708078785658   -0.0009441597900513236   -9.44337848739551e-05
-0.015097271902444089   -0.000934641780818342   -0.0002029551076488877
-0.015019455856844981   -0.008465745371903326   -0.0002818069294029826
-0.01513080146507647   -0.0008776833552018553   -0.00020013347076499146
-0.01063583464322834   -0.008362121906897092   -0.000145882720969669
-0.015067707163757629   -0.00840784588450126   -0.00026298584202183613
-0.01513080146507647   -0.0008776833552018553   -0.00020013347076499146
-0.015019455856844981   -0.008465745371903326   -0.0002818069294029826
-0.01063583464322834   -0.008362121906897092   -0.000145882720969669
-0.01513080146507647   -0.0008776833552018553   -0.00020013347076499146
-0.01073632935230987   -0.0008806474214211651   -8.785703118717124e-05
-0.010686708078785658   -0.0009441597900513236   -9.44337848739551e-05
-0.01063583464322834   -0.008362121906897092   -0.000145882720969669
-0.01513080146507647   -0.0008776833552018553   -0.00020013347076499146
-0.010686708078785658   -0.0009441597900513236   -9.44337848739551e-05
-0.015019455856844981   -0.008465745371903326   -0.0002818069294029826
-0.01063583464322834   -0.008362121906897092   -0.000145882720969669
-0.01073632935230987   -0.0008806474214211651   -8.785703118717124e-05
-0.015067707163757629   -0.00840784588450126   -0.00026298584202183613
-0.01068712530389933   -0.008293923790604184   -0.00012016942391579765
-0.01073632935230987   -0.0008806474214211651   -8.785703118717124e-05
-0.01513080146507647   -0.0008776833552018553   -0.00020013347076499146
-0.015067707163757629   -0.00840784588450126   -0.00026298584202183613
-0.015165779174673074   -0.0008142121579094054   -0.00019813764771083742
-0.01068712530389933   -0.008293923790604184   -0.00012016942391579765
-0.015110706754349997   -0.008344731952304592   -0.0002446789248774887
-0.015165779174673074   -0.0008142121579094054   -0.00019813764771083742
-0.015067707163757629   -0.00840784588450126   -0.00026298584202183613
-0.01068712530389933   -0.008293923790604184   -0.00012016942391579765
-0.015165779174673074   -0.0008142121579094054   -0.00019813764771083742
-0.010787936009297068   -0.0008068555849801127   -7.633749256444982e-05
-0.01073632935230987   -0.0008806474214211651   -8.785703118717124e-05
-0.01068712530389933   -0.008293923790604184   -0.00012016942391579765
-0.015165779174673074   -0.0008142121579094054   -0.00019813764771083742
-0.01073632935230987   -0.0008806474214211651   -8.785703118717124e-05
-0.015067707163757629   -0.00840784588450126   -0.00026298584202183613
-0.01068712530389933   -0.008293923790604184   -0.00012016942391579765
-0.010787936009297068   -0.0008068555849801127   -7.633749256444982e-05
-0.015110706754349997   -0.008344731952304592   -0.0002446789248774887
-0.010734434515354881   -0.008220054979289973   -9.214918171317515e-05
-0.010787936009297068   -0.0008068555849801127   -7.633749256444982e-05
-0.015165779174673074   -0.0008142121579094054   -0.00019813764771083742
-0.015110706754349997   -0.008344731952304592   -0.0002446789248774887
-0.015192429442137577   -0.0007454145492749553   -0.00019711340378033822
-0.010734434515354881   -0.008220054979289973   -9.214918171317515e-05
-0.015149653503311798   -0.008277522588816469   -0.00022580226528353176
-0.015192429442137577   -0.0007454145492749553   -0.00019711340378033822
-0.015110706754349997   -0.008344731952304592   -0.0002446789248774887
-0.010734434515354881   -0.008220054979289973   -9.214918171317515e-05
-0.015192429442137577   -0.0007454145492749553   -0.00019711340378033822
-0.010837042466602474   -0.0007169471413376151   -6.109532976677919e-05
-0.010787936009297068   -0.0008068555849801127   -7.633749256444982e-05
-0.010734434515354881   -0.008220054979289973   -9.214918171317515e-05
-0.015192429442137577   -0.0007454145492749553   -0.00019711340378033822
-0.010787936009297068   -0.0008068555849801127   -7.633749256444982e-05
-0.015110706754349997   -0.008344731952304592   -0.0002446789248774887
-0.015019455856844981   -0.008465745371903326   -0.0002818069294029826
-0.015097271902444089   -0.000934641780818342   -0.0002029551076488877
-0.01961528938500109   -0.00847006137821256   -0.00037308155116569066
-0.015067707163757629   -0.00840784588450126   -0.00026298584202183613
-0.015097271902444089   -0.000934641780818342   -0.0002029551076488877
-0.019630055239922558   -0.0009280266677441062   -0.0003098258796337275
-0.01961528938500109   -0.00847006137821256   -0.00037308155116569066
-0.01965701638660549   -0.0008662667515630546   -0.0003097513008919026
-0.015067707163757629   -0.00840784588450126   -0.00026298584202183613
-0.01965669620134112   -0.008413887826705796   -0.0003649369558403954
-0.01965701638660549   -0.0008662667515630546   -0.0003097513008919026
-0.01961528938500109   -0.00847006137821256   -0.00037308155116569066
-0.015067707163757629   -0.00840784588450126   -0.00026298584202183613
-0.01965701638660549   -0.0008662667515630546   -0.0003097513008919026
-0.01513080146507647   -0.0008776833552018553   -0.00020013347076499146
-0.015097271902444089   -0.000934641780818342   -0.0002029551076488877
-0.015067707163757629   -0.00840784588450126   -0.00026298584202183613
-0.01965701638660549   -0.0008662667515630546   -0.0003097513008919026
-0.015097271902444089   -0.000934641780818342   -0.0002029551076488877
-0.01961528938500109   -0.00847006137821256   -0.00037308155116569066
-0.015067707163757629   -0.00840784588450126   -0.00026298584202183613
-0.01513080146507647   -0.0008776833552018553   -0.00020013347076499146
-0.01965669620134112   -0.008413887826705796   -0.0003649369558403954
-0.015110706754349997   -0.008344731952304592   -0.0002446789248774887
-0.01513080146507647   -0.0008776833552018553   -0.00020013347076499146
-0.01965701638660549   -0.0008662667515630546   -0.0003097513008919026
-0.01965669620134112   -0.008413887826705796   -0.0003649369558403954
-0.019686605546437756   -0.0008045178951387626   -0.00031449844991207225
-0.015110706754349997   -0.008344731952304592   -0.0002446789248774887
-0.019693793146026733   -0.008353102266932949   -0.00035539948946197735
-0.019686605546437756   -0.0008045178951387626   -0.00031449844991207225
-0.01965669620134112   -0.008413887826705796   -0.0003649369558403954
-0.015110706754349997   -0.008344731952304592   -0.0002446789248774887
-0.019686605546437756   -0.0008045178951387626   -0.00031449844991207225
-0.015165779174673074   -0.0008142121579094054   -0.00019813764771083742
-0.01513080146507647   -0.0008776833552018553   -0.00020013347076499146
-0.015110706754349997   -0.008344731952304592   -0.0002446789248774887
-0.019686605546437756   -0.0008045178951387626   -0.00031449844991207225
-0.01513080146507647   -0.0008776833552018553   -0.00020013347076499146
-0.01965669620134112   -0.008413887826705796   -0.0003649369558403954
-0.015110706754349997   -0.008344731952304592   -0.0002446789248774887
-0.015165779174673074   -0.0008142121579094054   -0.00019813764771083742
-0.019693793146026733   -0.008353102266932949   -0.00035539948946197735
-0.015149653503311798   -0.008277522588816469   -0.00022580226528353176
-0.015165779174673074   -0.0008142121579094054   -0.00019813764771083742
-0.019686605546437756   -0.0008045178951387626   -0.00031449844991207225
-0.019693793146026733   -0.008353102266932949   -0.00035539948946197735
-0.019708432318601178   -0.0007372559201411927   -0.00031953406822605464
-0.015149653503311798   -0.008277522588816469   -0.00022580226528353176
-0.01972492341342293   -0.008288745803794158   -0.0003464883204938482
-0.019708432318601178   -0.0007372559201411927   -0.00031953406822605464
-0.019693793146026733   -0.008353102266932949   -0.00035539948946197735
-0.015149653503311798   -0.008277522588816469   -0.00022580226528353176
-0.019708432318601178   -0.0007372559201411927   -0.00031953406822605464
-0.015192429442137577   -0.0007454145492749553   -0.00019711340378033822
-0.015165779174673074   -0.0008142121579094054   -0.00019813764771083742
-0.015149653503311798   -0.008277522588816469   -0.00022580226528353176
-0.019708432318601178   -0.0007372559201411927   -0.00031953406822605464
-0.015165779174673074   -0.0008142121579094054   -0.00019813764771083742
-0.019693793146026733   -0.008353102266932949   -0.00035539948946197735
              </DataArray>   
          </PointData>  
       </Piece>  
   </UnstructuredGrid> 
</VTKFile> 
